 CRYSTAL
 PRIMVEC
   -2.698803776    0.000000000    2.698803776
    0.000000000    2.698803776    2.698803776
   -2.698803776    2.698803776    0.000000000
 PRIMCOORD
           2           1
Si        0.000000000    0.000000000    0.000000000
Si        1.349401888    1.349401888    1.349401888
BEGIN_BLOCK_DATAGRID_3D
3D_PWSCF
BEGIN_DATAGRID_3D_UNKNOWN
          37          37          37
  0.000000  0.000000  0.000000
   -2.698804    0.000000    2.698804
    0.000000    2.698804    2.698804
   -2.698804    2.698804    0.000000
  0.599485E-05  0.836674E-04  0.280581E-02  0.390039E-01  0.229049E+00  0.560227E+00
  0.775677E+00  0.864962E+00  0.899477E+00  0.911831E+00  0.912635E+00  0.904834E+00
  0.888901E+00  0.863941E+00  0.828782E+00  0.785330E+00  0.741358E+00  0.708408E+00
  0.696202E+00  0.708408E+00  0.741358E+00  0.785330E+00  0.828782E+00  0.863941E+00
  0.888901E+00  0.904834E+00  0.912635E+00  0.911831E+00  0.899477E+00  0.864962E+00
  0.775677E+00  0.560227E+00  0.229049E+00  0.390039E-01  0.280581E-02  0.836674E-04
  0.599485E-05  0.836674E-04  0.627272E-03  0.778269E-02  0.679346E-01  0.294237E+00
  0.595061E+00  0.771243E+00  0.846287E+00  0.876291E+00  0.885539E+00  0.882001E+00
  0.868026E+00  0.843871E+00  0.808606E+00  0.762760E+00  0.712363E+00  0.668868E+00
  0.643805E+00  0.643805E+00  0.668868E+00  0.712363E+00  0.762760E+00  0.808606E+00
  0.843871E+00  0.868026E+00  0.882001E+00  0.885539E+00  0.876291E+00  0.846287E+00
  0.771243E+00  0.595061E+00  0.294237E+00  0.679346E-01  0.778269E-02  0.627272E-03
  0.836674E-04  0.836674E-04  0.280581E-02  0.778269E-02  0.369830E-01  0.160773E+00
  0.417237E+00  0.648433E+00  0.771450E+00  0.826147E+00  0.847584E+00  0.850280E+00
  0.839203E+00  0.815975E+00  0.780540E+00  0.732884E+00  0.677257E+00  0.624232E+00
  0.586439E+00  0.572830E+00  0.586439E+00  0.624232E+00  0.677257E+00  0.732884E+00
  0.780540E+00  0.815975E+00  0.839203E+00  0.850280E+00  0.847584E+00  0.826147E+00
  0.771450E+00  0.648433E+00  0.417237E+00  0.160773E+00  0.369830E-01  0.778269E-02
  0.280581E-02  0.216387E-02  0.280581E-02  0.390039E-01  0.679346E-01  0.160773E+00
  0.348998E+00  0.558353E+00  0.698583E+00  0.770919E+00  0.803211E+00  0.811996E+00
  0.803921E+00  0.781519E+00  0.745591E+00  0.696261E+00  0.636494E+00  0.575505E+00
  0.526112E+00  0.498783E+00  0.498783E+00  0.526112E+00  0.575505E+00  0.636494E+00
  0.696261E+00  0.745591E+00  0.781519E+00  0.803921E+00  0.811996E+00  0.803211E+00
  0.770919E+00  0.698583E+00  0.558353E+00  0.348998E+00  0.160773E+00  0.679346E-01
  0.390039E-01  0.340784E-01  0.340784E-01  0.390039E-01  0.229049E+00  0.294237E+00
  0.417237E+00  0.558353E+00  0.667685E+00  0.733036E+00  0.765321E+00  0.775073E+00
  0.767405E+00  0.744410E+00  0.707044E+00  0.655630E+00  0.592350E+00  0.525078E+00
  0.466115E+00  0.426430E+00  0.412515E+00  0.426430E+00  0.466115E+00  0.525078E+00
  0.592350E+00  0.655630E+00  0.707044E+00  0.744410E+00  0.767405E+00  0.775073E+00
  0.765321E+00  0.733036E+00  0.667685E+00  0.558353E+00  0.417237E+00  0.294237E+00
  0.229049E+00  0.214687E+00  0.217212E+00  0.214687E+00  0.229049E+00  0.560227E+00
  0.595061E+00  0.648433E+00  0.698583E+00  0.733036E+00  0.750168E+00  0.751767E+00
  0.738850E+00  0.711682E+00  0.670570E+00  0.615745E+00  0.548807E+00  0.476436E+00
  0.410136E+00  0.360589E+00  0.334345E+00  0.334345E+00  0.360589E+00  0.410136E+00
  0.476436E+00  0.548807E+00  0.615745E+00  0.670570E+00  0.711682E+00  0.738850E+00
  0.751767E+00  0.750168E+00  0.733036E+00  0.698583E+00  0.648433E+00  0.595061E+00
  0.560227E+00  0.555109E+00  0.564518E+00  0.564518E+00  0.555109E+00  0.560227E+00
  0.775677E+00  0.771243E+00  0.771450E+00  0.770919E+00  0.765321E+00  0.751767E+00
  0.727923E+00  0.692111E+00  0.643764E+00  0.583001E+00  0.511129E+00  0.433817E+00
  0.361682E+00  0.304822E+00  0.269005E+00  0.256807E+00  0.269005E+00  0.304822E+00
  0.361682E+00  0.433817E+00  0.511129E+00  0.583001E+00  0.643764E+00  0.692111E+00
  0.727923E+00  0.751767E+00  0.765321E+00  0.770919E+00  0.771450E+00  0.771243E+00
  0.775677E+00  0.786933E+00  0.799822E+00  0.805505E+00  0.799822E+00  0.786933E+00
  0.775677E+00  0.864962E+00  0.846287E+00  0.826147E+00  0.803211E+00  0.775073E+00
  0.738850E+00  0.692111E+00  0.633817E+00  0.564277E+00  0.485189E+00  0.401859E+00
  0.324121E+00  0.261481E+00  0.218708E+00  0.197159E+00  0.197159E+00  0.218708E+00
  0.261481E+00  0.324121E+00  0.401859E+00  0.485189E+00  0.564277E+00  0.633817E+00
  0.692111E+00  0.738850E+00  0.775073E+00  0.803211E+00  0.826147E+00  0.846287E+00
  0.864962E+00  0.881905E+00  0.895241E+00  0.902628E+00  0.902628E+00  0.895241E+00
  0.881905E+00  0.864962E+00  0.899477E+00  0.876291E+00  0.847584E+00  0.811996E+00
  0.767405E+00  0.711682E+00  0.643764E+00  0.564277E+00  0.475896E+00  0.384674E+00
  0.300361E+00  0.232079E+00  0.183820E+00  0.155522E+00  0.146226E+00  0.155522E+00
  0.183820E+00  0.232079E+00  0.300361E+00  0.384674E+00  0.475896E+00  0.564277E+00
  0.643764E+00  0.711682E+00  0.767405E+00  0.811996E+00  0.847584E+00  0.876291E+00
  0.899477E+00  0.917622E+00  0.930672E+00  0.938496E+00  0.941094E+00  0.938496E+00
  0.930672E+00  0.917622E+00  0.899477E+00  0.911831E+00  0.885539E+00  0.850280E+00
  0.803921E+00  0.744410E+00  0.670570E+00  0.583001E+00  0.485189E+00  0.384674E+00
  0.292243E+00  0.217317E+00  0.163607E+00  0.129979E+00  0.113966E+00  0.113966E+00
  0.129979E+00  0.163607E+00  0.217317E+00  0.292243E+00  0.384674E+00  0.485189E+00
  0.583001E+00  0.670570E+00  0.744410E+00  0.803921E+00  0.850280E+00  0.885539E+00
  0.911831E+00  0.930907E+00  0.944061E+00  0.952247E+00  0.956151E+00  0.956151E+00
  0.952247E+00  0.944061E+00  0.930907E+00  0.911831E+00  0.912635E+00  0.882001E+00
  0.839203E+00  0.781519E+00  0.707044E+00  0.615745E+00  0.511129E+00  0.401859E+00
  0.300361E+00  0.217317E+00  0.157029E+00  0.118040E+00  0.966975E-01  0.899606E-01
  0.966975E-01  0.118040E+00  0.157029E+00  0.217317E+00  0.300361E+00  0.401859E+00
  0.511129E+00  0.615745E+00  0.707044E+00  0.781519E+00  0.839203E+00  0.882001E+00
  0.912635E+00  0.933893E+00  0.948129E+00  0.957107E+00  0.962027E+00  0.963591E+00
  0.962027E+00  0.957107E+00  0.948129E+00  0.933893E+00  0.912635E+00  0.904834E+00
  0.868026E+00  0.815975E+00  0.745591E+00  0.655630E+00  0.548807E+00  0.433817E+00
  0.324121E+00  0.232079E+00  0.163607E+00  0.118040E+00  0.913308E-01  0.792327E-01
  0.792327E-01  0.913308E-01  0.118040E+00  0.163607E+00  0.232079E+00  0.324121E+00
  0.433817E+00  0.548807E+00  0.655630E+00  0.745591E+00  0.815975E+00  0.868026E+00
  0.904834E+00  0.929953E+00  0.946565E+00  0.957117E+00  0.963297E+00  0.966141E+00
  0.966141E+00  0.963297E+00  0.957117E+00  0.946565E+00  0.929953E+00  0.904834E+00
  0.888901E+00  0.843871E+00  0.780540E+00  0.696261E+00  0.592350E+00  0.476436E+00
  0.361682E+00  0.261481E+00  0.183820E+00  0.129979E+00  0.966975E-01  0.792327E-01
  0.738643E-01  0.792327E-01  0.966975E-01  0.129979E+00  0.183820E+00  0.261481E+00
  0.361682E+00  0.476436E+00  0.592350E+00  0.696261E+00  0.780540E+00  0.843871E+00
  0.888901E+00  0.919685E+00  0.940107E+00  0.953239E+00  0.961250E+00  0.965541E+00
  0.966889E+00  0.965541E+00  0.961250E+00  0.953239E+00  0.940107E+00  0.919685E+00
  0.888901E+00  0.863941E+00  0.808606E+00  0.732884E+00  0.636494E+00  0.525078E+00
  0.410136E+00  0.304822E+00  0.218708E+00  0.155522E+00  0.113966E+00  0.899606E-01
  0.792327E-01  0.792327E-01  0.899606E-01  0.113966E+00  0.155522E+00  0.218708E+00
  0.304822E+00  0.410136E+00  0.525078E+00  0.636494E+00  0.732884E+00  0.808606E+00
  0.863941E+00  0.902446E+00  0.928375E+00  0.945353E+00  0.956052E+00  0.962277E+00
  0.965128E+00  0.965128E+00  0.962277E+00  0.956052E+00  0.945353E+00  0.928375E+00
  0.902446E+00  0.863941E+00  0.828782E+00  0.762760E+00  0.677257E+00  0.575505E+00
  0.466115E+00  0.360589E+00  0.269005E+00  0.197159E+00  0.146226E+00  0.113966E+00
  0.966975E-01  0.913308E-01  0.966975E-01  0.113966E+00  0.146226E+00  0.197159E+00
  0.269005E+00  0.360589E+00  0.466115E+00  0.575505E+00  0.677257E+00  0.762760E+00
  0.828782E+00  0.876685E+00  0.909997E+00  0.932440E+00  0.947056E+00  0.956052E+00
  0.960896E+00  0.962421E+00  0.960896E+00  0.956052E+00  0.947056E+00  0.932440E+00
  0.909997E+00  0.876685E+00  0.828782E+00  0.785330E+00  0.712363E+00  0.624232E+00
  0.526112E+00  0.426430E+00  0.334345E+00  0.256807E+00  0.197159E+00  0.155522E+00
  0.129979E+00  0.118040E+00  0.118040E+00  0.129979E+00  0.155522E+00  0.197159E+00
  0.256807E+00  0.334345E+00  0.426430E+00  0.526112E+00  0.624232E+00  0.712363E+00
  0.785330E+00  0.841820E+00  0.883345E+00  0.912663E+00  0.932611E+00  0.945554E+00
  0.953239E+00  0.956802E+00  0.956802E+00  0.953239E+00  0.945554E+00  0.932611E+00
  0.912663E+00  0.883345E+00  0.841820E+00  0.785330E+00  0.741358E+00  0.668868E+00
  0.586439E+00  0.498783E+00  0.412515E+00  0.334345E+00  0.269005E+00  0.218708E+00
  0.183820E+00  0.163607E+00  0.157029E+00  0.163607E+00  0.183820E+00  0.218708E+00
  0.269005E+00  0.334345E+00  0.412515E+00  0.498783E+00  0.586439E+00  0.668868E+00
  0.741358E+00  0.801535E+00  0.849008E+00  0.884808E+00  0.910708E+00  0.928605E+00
  0.940147E+00  0.946565E+00  0.948619E+00  0.946565E+00  0.940147E+00  0.928605E+00
  0.910708E+00  0.884808E+00  0.849008E+00  0.801535E+00  0.741358E+00  0.708408E+00
  0.643805E+00  0.572830E+00  0.498783E+00  0.426430E+00  0.360589E+00  0.304822E+00
  0.261481E+00  0.232079E+00  0.217317E+00  0.217317E+00  0.232079E+00  0.261481E+00
  0.304822E+00  0.360589E+00  0.426430E+00  0.498783E+00  0.572830E+00  0.643805E+00
  0.708408E+00  0.764890E+00  0.812443E+00  0.850949E+00  0.880931E+00  0.903309E+00
  0.919071E+00  0.929061E+00  0.933893E+00  0.933893E+00  0.929061E+00  0.919071E+00
  0.903309E+00  0.880931E+00  0.850949E+00  0.812443E+00  0.764890E+00  0.708408E+00
  0.696202E+00  0.643805E+00  0.586439E+00  0.526112E+00  0.466115E+00  0.410136E+00
  0.361682E+00  0.324121E+00  0.300361E+00  0.292243E+00  0.300361E+00  0.324121E+00
  0.361682E+00  0.410136E+00  0.466115E+00  0.526112E+00  0.586439E+00  0.643805E+00
  0.696202E+00  0.742887E+00  0.783640E+00  0.818380E+00  0.847231E+00  0.870516E+00
  0.888546E+00  0.901455E+00  0.909232E+00  0.911831E+00  0.909232E+00  0.901455E+00
  0.888546E+00  0.870516E+00  0.847231E+00  0.818380E+00  0.783640E+00  0.742887E+00
  0.696202E+00  0.708408E+00  0.668868E+00  0.624232E+00  0.575505E+00  0.525078E+00
  0.476436E+00  0.433817E+00  0.401859E+00  0.384674E+00  0.384674E+00  0.401859E+00
  0.433817E+00  0.476436E+00  0.525078E+00  0.575505E+00  0.624232E+00  0.668868E+00
  0.708408E+00  0.742887E+00  0.772632E+00  0.797929E+00  0.819169E+00  0.836916E+00
  0.851650E+00  0.863434E+00  0.871856E+00  0.876291E+00  0.876291E+00  0.871856E+00
  0.863434E+00  0.851650E+00  0.836916E+00  0.819169E+00  0.797929E+00  0.772632E+00
  0.742887E+00  0.708408E+00  0.741358E+00  0.712363E+00  0.677257E+00  0.636494E+00
  0.592350E+00  0.548807E+00  0.511129E+00  0.485189E+00  0.475896E+00  0.485189E+00
  0.511129E+00  0.548807E+00  0.592350E+00  0.636494E+00  0.677257E+00  0.712363E+00
  0.741358E+00  0.764890E+00  0.783640E+00  0.797929E+00  0.808082E+00  0.814823E+00
  0.819209E+00  0.822259E+00  0.824561E+00  0.826147E+00  0.826732E+00  0.826147E+00
  0.824561E+00  0.822259E+00  0.819209E+00  0.814823E+00  0.808082E+00  0.797929E+00
  0.783640E+00  0.764890E+00  0.741358E+00  0.785330E+00  0.762760E+00  0.732884E+00
  0.696261E+00  0.655630E+00  0.615745E+00  0.583001E+00  0.564277E+00  0.564277E+00
  0.583001E+00  0.615745E+00  0.655630E+00  0.696261E+00  0.732884E+00  0.762760E+00
  0.785330E+00  0.801535E+00  0.812443E+00  0.818380E+00  0.819169E+00  0.814823E+00
  0.806003E+00  0.794169E+00  0.781559E+00  0.770919E+00  0.764817E+00  0.764817E+00
  0.770919E+00  0.781559E+00  0.794169E+00  0.806003E+00  0.814823E+00  0.819169E+00
  0.818380E+00  0.812443E+00  0.801535E+00  0.785330E+00  0.828782E+00  0.808606E+00
  0.780540E+00  0.745591E+00  0.707044E+00  0.670570E+00  0.643764E+00  0.633817E+00
  0.643764E+00  0.670570E+00  0.707044E+00  0.745591E+00  0.780540E+00  0.808606E+00
  0.828782E+00  0.841820E+00  0.849008E+00  0.850949E+00  0.847231E+00  0.836916E+00
  0.819209E+00  0.794169E+00  0.763777E+00  0.733036E+00  0.709580E+00  0.700743E+00
  0.709580E+00  0.733036E+00  0.763777E+00  0.794169E+00  0.819209E+00  0.836916E+00
  0.847231E+00  0.850949E+00  0.849008E+00  0.841820E+00  0.828782E+00  0.863941E+00
  0.843871E+00  0.815975E+00  0.781519E+00  0.744410E+00  0.711682E+00  0.692111E+00
  0.692111E+00  0.711682E+00  0.744410E+00  0.781519E+00  0.815975E+00  0.843871E+00
  0.863941E+00  0.876685E+00  0.883345E+00  0.884808E+00  0.880931E+00  0.870516E+00
  0.851650E+00  0.822259E+00  0.781559E+00  0.733036E+00  0.687087E+00  0.658587E+00
  0.658587E+00  0.687087E+00  0.733036E+00  0.781559E+00  0.822259E+00  0.851650E+00
  0.870516E+00  0.880931E+00  0.884808E+00  0.883345E+00  0.876685E+00  0.863941E+00
  0.888901E+00  0.868026E+00  0.839203E+00  0.803921E+00  0.767405E+00  0.738850E+00
  0.727923E+00  0.738850E+00  0.767405E+00  0.803921E+00  0.839203E+00  0.868026E+00
  0.888901E+00  0.902446E+00  0.909997E+00  0.912663E+00  0.910708E+00  0.903309E+00
  0.888546E+00  0.863434E+00  0.824561E+00  0.770919E+00  0.709580E+00  0.658587E+00
  0.638588E+00  0.658587E+00  0.709580E+00  0.770919E+00  0.824561E+00  0.863434E+00
  0.888546E+00  0.903309E+00  0.910708E+00  0.912663E+00  0.909997E+00  0.902446E+00
  0.888901E+00  0.904834E+00  0.882001E+00  0.850280E+00  0.811996E+00  0.775073E+00
  0.751767E+00  0.751767E+00  0.775073E+00  0.811996E+00  0.850280E+00  0.882001E+00
  0.904834E+00  0.919685E+00  0.928375E+00  0.932440E+00  0.932611E+00  0.928605E+00
  0.919071E+00  0.901455E+00  0.871856E+00  0.826147E+00  0.764817E+00  0.700743E+00
  0.658587E+00  0.658587E+00  0.700743E+00  0.764817E+00  0.826147E+00  0.871856E+00
  0.901455E+00  0.919071E+00  0.928605E+00  0.932611E+00  0.932440E+00  0.928375E+00
  0.919685E+00  0.904834E+00  0.912635E+00  0.885539E+00  0.847584E+00  0.803211E+00
  0.765321E+00  0.750168E+00  0.765321E+00  0.803211E+00  0.847584E+00  0.885539E+00
  0.912635E+00  0.929953E+00  0.940107E+00  0.945353E+00  0.947056E+00  0.945554E+00
  0.940147E+00  0.929061E+00  0.909232E+00  0.876291E+00  0.826732E+00  0.764817E+00
  0.709580E+00  0.687087E+00  0.709580E+00  0.764817E+00  0.826732E+00  0.876291E+00
  0.909232E+00  0.929061E+00  0.940147E+00  0.945554E+00  0.947056E+00  0.945353E+00
  0.940107E+00  0.929953E+00  0.912635E+00  0.911831E+00  0.876291E+00  0.826147E+00
  0.770919E+00  0.733036E+00  0.733036E+00  0.770919E+00  0.826147E+00  0.876291E+00
  0.911831E+00  0.933893E+00  0.946565E+00  0.953239E+00  0.956052E+00  0.956052E+00
  0.953239E+00  0.946565E+00  0.933893E+00  0.911831E+00  0.876291E+00  0.826147E+00
  0.770919E+00  0.733036E+00  0.733036E+00  0.770919E+00  0.826147E+00  0.876291E+00
  0.911831E+00  0.933893E+00  0.946565E+00  0.953239E+00  0.956052E+00  0.956052E+00
  0.953239E+00  0.946565E+00  0.933893E+00  0.911831E+00  0.899477E+00  0.846287E+00
  0.771450E+00  0.698583E+00  0.667685E+00  0.698583E+00  0.771450E+00  0.846287E+00
  0.899477E+00  0.930907E+00  0.948129E+00  0.957117E+00  0.961250E+00  0.962277E+00
  0.960896E+00  0.956802E+00  0.948619E+00  0.933893E+00  0.909232E+00  0.871856E+00
  0.824561E+00  0.781559E+00  0.763777E+00  0.781559E+00  0.824561E+00  0.871856E+00
  0.909232E+00  0.933893E+00  0.948619E+00  0.956802E+00  0.960896E+00  0.962277E+00
  0.961250E+00  0.957117E+00  0.948129E+00  0.930907E+00  0.899477E+00  0.864962E+00
  0.771243E+00  0.648433E+00  0.558353E+00  0.558353E+00  0.648433E+00  0.771243E+00
  0.864962E+00  0.917622E+00  0.944061E+00  0.957107E+00  0.963297E+00  0.965541E+00
  0.965128E+00  0.962421E+00  0.956802E+00  0.946565E+00  0.929061E+00  0.901455E+00
  0.863434E+00  0.822259E+00  0.794169E+00  0.794169E+00  0.822259E+00  0.863434E+00
  0.901455E+00  0.929061E+00  0.946565E+00  0.956802E+00  0.962421E+00  0.965128E+00
  0.965541E+00  0.963297E+00  0.957107E+00  0.944061E+00  0.917622E+00  0.864962E+00
  0.775677E+00  0.595061E+00  0.417237E+00  0.348998E+00  0.417237E+00  0.595061E+00
  0.775677E+00  0.881905E+00  0.930672E+00  0.952247E+00  0.962027E+00  0.966141E+00
  0.966889E+00  0.965128E+00  0.960896E+00  0.953239E+00  0.940147E+00  0.919071E+00
  0.888546E+00  0.851650E+00  0.819209E+00  0.806003E+00  0.819209E+00  0.851650E+00
  0.888546E+00  0.919071E+00  0.940147E+00  0.953239E+00  0.960896E+00  0.965128E+00
  0.966889E+00  0.966141E+00  0.962027E+00  0.952247E+00  0.930672E+00  0.881905E+00
  0.775677E+00  0.560227E+00  0.294237E+00  0.160773E+00  0.160773E+00  0.294237E+00
  0.560227E+00  0.786933E+00  0.895241E+00  0.938496E+00  0.956151E+00  0.963591E+00
  0.966141E+00  0.965541E+00  0.962277E+00  0.956052E+00  0.945554E+00  0.928605E+00
  0.903309E+00  0.870516E+00  0.836916E+00  0.814823E+00  0.814823E+00  0.836916E+00
  0.870516E+00  0.903309E+00  0.928605E+00  0.945554E+00  0.956052E+00  0.962277E+00
  0.965541E+00  0.966141E+00  0.963591E+00  0.956151E+00  0.938496E+00  0.895241E+00
  0.786933E+00  0.560227E+00  0.229049E+00  0.679346E-01  0.369830E-01  0.679346E-01
  0.229049E+00  0.555109E+00  0.799822E+00  0.902628E+00  0.941094E+00  0.956151E+00
  0.962027E+00  0.963297E+00  0.961250E+00  0.956052E+00  0.947056E+00  0.932611E+00
  0.910708E+00  0.880931E+00  0.847231E+00  0.819169E+00  0.808082E+00  0.819169E+00
  0.847231E+00  0.880931E+00  0.910708E+00  0.932611E+00  0.947056E+00  0.956052E+00
  0.961250E+00  0.963297E+00  0.962027E+00  0.956151E+00  0.941094E+00  0.902628E+00
  0.799822E+00  0.555109E+00  0.229049E+00  0.390039E-01  0.778269E-02  0.778269E-02
  0.390039E-01  0.214687E+00  0.564518E+00  0.805505E+00  0.902628E+00  0.938496E+00
  0.952247E+00  0.957107E+00  0.957117E+00  0.953239E+00  0.945353E+00  0.932440E+00
  0.912663E+00  0.884808E+00  0.850949E+00  0.818380E+00  0.797929E+00  0.797929E+00
  0.818380E+00  0.850949E+00  0.884808E+00  0.912663E+00  0.932440E+00  0.945353E+00
  0.953239E+00  0.957117E+00  0.957107E+00  0.952247E+00  0.938496E+00  0.902628E+00
  0.805505E+00  0.564518E+00  0.214687E+00  0.390039E-01  0.280581E-02  0.627272E-03
  0.280581E-02  0.340784E-01  0.217212E+00  0.564518E+00  0.799822E+00  0.895241E+00
  0.930672E+00  0.944061E+00  0.948129E+00  0.946565E+00  0.940107E+00  0.928375E+00
  0.909997E+00  0.883345E+00  0.849008E+00  0.812443E+00  0.783640E+00  0.772632E+00
  0.783640E+00  0.812443E+00  0.849008E+00  0.883345E+00  0.909997E+00  0.928375E+00
  0.940107E+00  0.946565E+00  0.948129E+00  0.944061E+00  0.930672E+00  0.895241E+00
  0.799822E+00  0.564518E+00  0.217212E+00  0.340784E-01  0.280581E-02  0.836674E-04
  0.836674E-04  0.216387E-02  0.340784E-01  0.214687E+00  0.555109E+00  0.786933E+00
  0.881905E+00  0.917622E+00  0.930907E+00  0.933893E+00  0.929953E+00  0.919685E+00
  0.902446E+00  0.876685E+00  0.841820E+00  0.801535E+00  0.764890E+00  0.742887E+00
  0.742887E+00  0.764890E+00  0.801535E+00  0.841820E+00  0.876685E+00  0.902446E+00
  0.919685E+00  0.929953E+00  0.933893E+00  0.930907E+00  0.917622E+00  0.881905E+00
  0.786933E+00  0.555109E+00  0.214687E+00  0.340784E-01  0.216387E-02  0.836674E-04
  0.599485E-05  0.836674E-04  0.280581E-02  0.390039E-01  0.229049E+00  0.560227E+00
  0.775677E+00  0.864962E+00  0.899477E+00  0.911831E+00  0.912635E+00  0.904834E+00
  0.888901E+00  0.863941E+00  0.828782E+00  0.785330E+00  0.741358E+00  0.708408E+00
  0.696202E+00  0.708408E+00  0.741358E+00  0.785330E+00  0.828782E+00  0.863941E+00
  0.888901E+00  0.904834E+00  0.912635E+00  0.911831E+00  0.899477E+00  0.864962E+00
  0.775677E+00  0.560227E+00  0.229049E+00  0.390039E-01  0.280581E-02  0.836674E-04
  0.599485E-05  0.836674E-04  0.627272E-03  0.778269E-02  0.679346E-01  0.294237E+00
  0.595061E+00  0.771243E+00  0.846287E+00  0.876291E+00  0.885539E+00  0.882001E+00
  0.868026E+00  0.843871E+00  0.808606E+00  0.762760E+00  0.712363E+00  0.668868E+00
  0.643805E+00  0.643805E+00  0.668868E+00  0.712363E+00  0.762760E+00  0.808606E+00
  0.843871E+00  0.868026E+00  0.882001E+00  0.885539E+00  0.876291E+00  0.846287E+00
  0.771243E+00  0.595061E+00  0.294237E+00  0.679346E-01  0.778269E-02  0.627272E-03
  0.836674E-04  0.836674E-04  0.627272E-03  0.309728E-02  0.228351E-01  0.128976E+00
  0.386134E+00  0.635102E+00  0.768297E+00  0.826732E+00  0.849646E+00  0.853169E+00
  0.842743E+00  0.820125E+00  0.785300E+00  0.738177E+00  0.682859E+00  0.629920E+00
  0.592139E+00  0.578536E+00  0.592139E+00  0.629920E+00  0.682859E+00  0.738177E+00
  0.785300E+00  0.820125E+00  0.842743E+00  0.853169E+00  0.849646E+00  0.826732E+00
  0.768297E+00  0.635102E+00  0.386134E+00  0.128976E+00  0.228351E-01  0.309728E-02
  0.627272E-03  0.356834E-03  0.627272E-03  0.778269E-02  0.228351E-01  0.871439E-01
  0.264971E+00  0.505925E+00  0.677313E+00  0.764817E+00  0.803713E+00  0.815873E+00
  0.810011E+00  0.789369E+00  0.755020E+00  0.707074E+00  0.648185E+00  0.587415E+00
  0.537909E+00  0.510487E+00  0.510487E+00  0.537909E+00  0.587415E+00  0.648185E+00
  0.707074E+00  0.755020E+00  0.789369E+00  0.810011E+00  0.815873E+00  0.803713E+00
  0.764817E+00  0.677313E+00  0.505925E+00  0.264971E+00  0.871439E-01  0.228351E-01
  0.778269E-02  0.479589E-02  0.479589E-02  0.778269E-02  0.679346E-01  0.128976E+00
  0.264971E+00  0.454286E+00  0.613876E+00  0.709580E+00  0.757348E+00  0.775474E+00
  0.773099E+00  0.753962E+00  0.719732E+00  0.670979E+00  0.609557E+00  0.542904E+00
  0.483640E+00  0.443516E+00  0.429436E+00  0.443516E+00  0.483640E+00  0.542904E+00
  0.609557E+00  0.670979E+00  0.719732E+00  0.753962E+00  0.773099E+00  0.775474E+00
  0.757348E+00  0.709580E+00  0.613876E+00  0.454286E+00  0.264971E+00  0.128976E+00
  0.679346E-01  0.482593E-01  0.444108E-01  0.482593E-01  0.679346E-01  0.294237E+00
  0.386134E+00  0.505925E+00  0.613876E+00  0.687087E+00  0.727310E+00  0.742967E+00
  0.739487E+00  0.719263E+00  0.683598E+00  0.633212E+00  0.569526E+00  0.498600E+00
  0.432040E+00  0.381590E+00  0.354731E+00  0.354731E+00  0.381590E+00  0.432040E+00
  0.498600E+00  0.569526E+00  0.633212E+00  0.683598E+00  0.719263E+00  0.739487E+00
  0.742967E+00  0.727310E+00  0.687087E+00  0.613876E+00  0.505925E+00  0.386134E+00
  0.294237E+00  0.247506E+00  0.233054E+00  0.233054E+00  0.247506E+00  0.294237E+00
  0.595061E+00  0.635102E+00  0.677313E+00  0.709580E+00  0.727310E+00  0.730373E+00
  0.719067E+00  0.693241E+00  0.653061E+00  0.599008E+00  0.532190E+00  0.457556E+00
  0.385618E+00  0.327607E+00  0.290628E+00  0.277980E+00  0.290628E+00  0.327607E+00
  0.385618E+00  0.457556E+00  0.532190E+00  0.599008E+00  0.653061E+00  0.693241E+00
  0.719067E+00  0.730373E+00  0.727310E+00  0.709580E+00  0.677313E+00  0.635102E+00
  0.595061E+00  0.570338E+00  0.562588E+00  0.562078E+00  0.562588E+00  0.570338E+00
  0.595061E+00  0.771243E+00  0.768297E+00  0.764817E+00  0.757348E+00  0.742967E+00
  0.719067E+00  0.683508E+00  0.635341E+00  0.574767E+00  0.502869E+00  0.423859E+00
  0.347211E+00  0.283574E+00  0.239303E+00  0.216781E+00  0.216781E+00  0.239303E+00
  0.283574E+00  0.347211E+00  0.423859E+00  0.502869E+00  0.574767E+00  0.635341E+00
  0.683508E+00  0.719067E+00  0.742967E+00  0.757348E+00  0.764817E+00  0.768297E+00
  0.771243E+00  0.776484E+00  0.783687E+00  0.789090E+00  0.789090E+00  0.783687E+00
  0.776484E+00  0.771243E+00  0.846287E+00  0.826732E+00  0.803713E+00  0.775474E+00
  0.739487E+00  0.693241E+00  0.635341E+00  0.565966E+00  0.486670E+00  0.401709E+00
  0.319849E+00  0.251185E+00  0.201467E+00  0.171861E+00  0.162057E+00  0.171861E+00
  0.201467E+00  0.251185E+00  0.319849E+00  0.401709E+00  0.486670E+00  0.565966E+00
  0.635341E+00  0.693241E+00  0.739487E+00  0.775474E+00  0.803713E+00  0.826732E+00
  0.846287E+00  0.863012E+00  0.876382E+00  0.885164E+00  0.888233E+00  0.885164E+00
  0.876382E+00  0.863012E+00  0.846287E+00  0.876291E+00  0.849646E+00  0.815873E+00
  0.773099E+00  0.719263E+00  0.653061E+00  0.574767E+00  0.486670E+00  0.394002E+00
  0.305714E+00  0.231575E+00  0.176953E+00  0.142065E+00  0.125226E+00  0.125226E+00
  0.142065E+00  0.176953E+00  0.231575E+00  0.305714E+00  0.394002E+00  0.486670E+00
  0.574767E+00  0.653061E+00  0.719263E+00  0.773099E+00  0.815873E+00  0.849646E+00
  0.876291E+00  0.896997E+00  0.912300E+00  0.922395E+00  0.927398E+00  0.927398E+00
  0.922395E+00  0.912300E+00  0.896997E+00  0.876291E+00  0.885539E+00  0.853169E+00
  0.810011E+00  0.753962E+00  0.683598E+00  0.599008E+00  0.502869E+00  0.401709E+00
  0.305714E+00  0.225048E+00  0.165035E+00  0.125397E+00  0.103316E+00  0.962713E-01
  0.103316E+00  0.125397E+00  0.165035E+00  0.225048E+00  0.305714E+00  0.401709E+00
  0.502869E+00  0.599008E+00  0.683598E+00  0.753962E+00  0.810011E+00  0.853169E+00
  0.885539E+00  0.909232E+00  0.925971E+00  0.937027E+00  0.943292E+00  0.945318E+00
  0.943292E+00  0.937027E+00  0.925971E+00  0.909232E+00  0.885539E+00  0.882001E+00
  0.842743E+00  0.789369E+00  0.719732E+00  0.633212E+00  0.532190E+00  0.423859E+00
  0.319849E+00  0.231575E+00  0.165035E+00  0.120077E+00  0.932804E-01  0.809746E-01
  0.809746E-01  0.932804E-01  0.120077E+00  0.165035E+00  0.231575E+00  0.319849E+00
  0.423859E+00  0.532190E+00  0.633212E+00  0.719732E+00  0.789369E+00  0.842743E+00
  0.882001E+00  0.909889E+00  0.929061E+00  0.941667E+00  0.949255E+00  0.952809E+00
  0.952809E+00  0.949255E+00  0.941667E+00  0.929061E+00  0.909889E+00  0.882001E+00
  0.868026E+00  0.820125E+00  0.755020E+00  0.670979E+00  0.569526E+00  0.457556E+00
  0.347211E+00  0.251185E+00  0.176953E+00  0.125397E+00  0.932804E-01  0.762502E-01
  0.709773E-01  0.762502E-01  0.932804E-01  0.125397E+00  0.176953E+00  0.251185E+00
  0.347211E+00  0.457556E+00  0.569526E+00  0.670979E+00  0.755020E+00  0.820125E+00
  0.868026E+00  0.901853E+00  0.924940E+00  0.940147E+00  0.949607E+00  0.954747E+00
  0.956374E+00  0.954747E+00  0.949607E+00  0.940147E+00  0.924940E+00  0.901853E+00
  0.868026E+00  0.843871E+00  0.785300E+00  0.707074E+00  0.609557E+00  0.498600E+00
  0.385618E+00  0.283574E+00  0.201467E+00  0.142065E+00  0.103316E+00  0.809746E-01
  0.709773E-01  0.709773E-01  0.809746E-01  0.103316E+00  0.142065E+00  0.201467E+00
  0.283574E+00  0.385618E+00  0.498600E+00  0.609557E+00  0.707074E+00  0.785300E+00
  0.843871E+00  0.885603E+00  0.914279E+00  0.933366E+00  0.945554E+00  0.952720E+00
  0.956025E+00  0.956025E+00  0.952720E+00  0.945554E+00  0.933366E+00  0.914279E+00
  0.885603E+00  0.843871E+00  0.808606E+00  0.738177E+00  0.648185E+00  0.542904E+00
  0.432040E+00  0.327607E+00  0.239303E+00  0.171861E+00  0.125226E+00  0.962713E-01
  0.809746E-01  0.762502E-01  0.809746E-01  0.962713E-01  0.125226E+00  0.171861E+00
  0.239303E+00  0.327607E+00  0.432040E+00  0.542904E+00  0.648185E+00  0.738177E+00
  0.808606E+00  0.860241E+00  0.896443E+00  0.921000E+00  0.937092E+00  0.947056E+00
  0.952446E+00  0.954147E+00  0.952446E+00  0.947056E+00  0.937092E+00  0.921000E+00
  0.896443E+00  0.860241E+00  0.808606E+00  0.762760E+00  0.682859E+00  0.587415E+00
  0.483640E+00  0.381590E+00  0.290628E+00  0.216781E+00  0.162057E+00  0.125226E+00
  0.103316E+00  0.932804E-01  0.932804E-01  0.103316E+00  0.125226E+00  0.162057E+00
  0.216781E+00  0.290628E+00  0.381590E+00  0.483640E+00  0.587415E+00  0.682859E+00
  0.762760E+00  0.824639E+00  0.869890E+00  0.901650E+00  0.923166E+00  0.937092E+00
  0.945353E+00  0.949183E+00  0.949183E+00  0.945353E+00  0.937092E+00  0.923166E+00
  0.901650E+00  0.869890E+00  0.824639E+00  0.762760E+00  0.712363E+00  0.629920E+00
  0.537909E+00  0.443516E+00  0.354731E+00  0.277980E+00  0.216781E+00  0.171861E+00
  0.142065E+00  0.125397E+00  0.120077E+00  0.125397E+00  0.142065E+00  0.171861E+00
  0.216781E+00  0.277980E+00  0.354731E+00  0.443516E+00  0.537909E+00  0.629920E+00
  0.712363E+00  0.780827E+00  0.834202E+00  0.873792E+00  0.901961E+00  0.921142E+00
  0.933366E+00  0.940107E+00  0.942256E+00  0.940107E+00  0.933366E+00  0.921142E+00
  0.901961E+00  0.873792E+00  0.834202E+00  0.780827E+00  0.712363E+00  0.668868E+00
  0.592139E+00  0.510487E+00  0.429436E+00  0.354731E+00  0.290628E+00  0.239303E+00
  0.201467E+00  0.176953E+00  0.165035E+00  0.165035E+00  0.176953E+00  0.201467E+00
  0.239303E+00  0.290628E+00  0.354731E+00  0.429436E+00  0.510487E+00  0.592139E+00
  0.668868E+00  0.736650E+00  0.793306E+00  0.838351E+00  0.872569E+00  0.897403E+00
  0.914412E+00  0.924940E+00  0.929953E+00  0.929953E+00  0.924940E+00  0.914412E+00
  0.897403E+00  0.872569E+00  0.838351E+00  0.793306E+00  0.736650E+00  0.668868E+00
  0.643805E+00  0.578536E+00  0.510487E+00  0.443516E+00  0.381590E+00  0.327607E+00
  0.283574E+00  0.251185E+00  0.231575E+00  0.225048E+00  0.231575E+00  0.251185E+00
  0.283574E+00  0.327607E+00  0.381590E+00  0.443516E+00  0.510487E+00  0.578536E+00
  0.643805E+00  0.703605E+00  0.756335E+00  0.801078E+00  0.837532E+00  0.865986E+00
  0.887074E+00  0.901506E+00  0.909889E+00  0.912635E+00  0.909889E+00  0.901506E+00
  0.887074E+00  0.865986E+00  0.837532E+00  0.801078E+00  0.756335E+00  0.703605E+00
  0.643805E+00  0.643805E+00  0.592139E+00  0.537909E+00  0.483640E+00  0.432040E+00
  0.385618E+00  0.347211E+00  0.319849E+00  0.305714E+00  0.305714E+00  0.319849E+00
  0.347211E+00  0.385618E+00  0.432040E+00  0.483640E+00  0.537909E+00  0.592139E+00
  0.643805E+00  0.691368E+00  0.734199E+00  0.771957E+00  0.804365E+00  0.831331E+00
  0.852917E+00  0.869174E+00  0.880071E+00  0.885539E+00  0.885539E+00  0.880071E+00
  0.869174E+00  0.852917E+00  0.831331E+00  0.804365E+00  0.771957E+00  0.734199E+00
  0.691368E+00  0.643805E+00  0.668868E+00  0.629920E+00  0.587415E+00  0.542904E+00
  0.498600E+00  0.457556E+00  0.423859E+00  0.401709E+00  0.394002E+00  0.401709E+00
  0.423859E+00  0.457556E+00  0.498600E+00  0.542904E+00  0.587415E+00  0.629920E+00
  0.668868E+00  0.703605E+00  0.734199E+00  0.760865E+00  0.783730E+00  0.803000E+00
  0.818992E+00  0.831886E+00  0.841543E+00  0.847584E+00  0.849646E+00  0.847584E+00
  0.841543E+00  0.831886E+00  0.818992E+00  0.803000E+00  0.783730E+00  0.760865E+00
  0.734199E+00  0.703605E+00  0.668868E+00  0.712363E+00  0.682859E+00  0.648185E+00
  0.609557E+00  0.569526E+00  0.532190E+00  0.502869E+00  0.486670E+00  0.486670E+00
  0.502869E+00  0.532190E+00  0.569526E+00  0.609557E+00  0.648185E+00  0.682859E+00
  0.712363E+00  0.736650E+00  0.756335E+00  0.771957E+00  0.783730E+00  0.791909E+00
  0.797124E+00  0.800266E+00  0.802133E+00  0.803211E+00  0.803713E+00  0.803713E+00
  0.803211E+00  0.802133E+00  0.800266E+00  0.797124E+00  0.791909E+00  0.783730E+00
  0.771957E+00  0.756335E+00  0.736650E+00  0.712363E+00  0.762760E+00  0.738177E+00
  0.707074E+00  0.670979E+00  0.633212E+00  0.599008E+00  0.574767E+00  0.565966E+00
  0.574767E+00  0.599008E+00  0.633212E+00  0.670979E+00  0.707074E+00  0.738177E+00
  0.762760E+00  0.780827E+00  0.793306E+00  0.801078E+00  0.804365E+00  0.803000E+00
  0.797124E+00  0.787639E+00  0.776263E+00  0.765321E+00  0.757348E+00  0.754418E+00
  0.757348E+00  0.765321E+00  0.776263E+00  0.787639E+00  0.797124E+00  0.803000E+00
  0.804365E+00  0.801078E+00  0.793306E+00  0.780827E+00  0.762760E+00  0.808606E+00
  0.785300E+00  0.755020E+00  0.719732E+00  0.683598E+00  0.653061E+00  0.635341E+00
  0.635341E+00  0.653061E+00  0.683598E+00  0.719732E+00  0.755020E+00  0.785300E+00
  0.808606E+00  0.824639E+00  0.834202E+00  0.838351E+00  0.837532E+00  0.831331E+00
  0.818992E+00  0.800266E+00  0.776263E+00  0.750168E+00  0.727310E+00  0.713788E+00
  0.713788E+00  0.727310E+00  0.750168E+00  0.776263E+00  0.800266E+00  0.818992E+00
  0.831331E+00  0.837532E+00  0.838351E+00  0.834202E+00  0.824639E+00  0.808606E+00
  0.843871E+00  0.820125E+00  0.789369E+00  0.753962E+00  0.719263E+00  0.693241E+00
  0.683508E+00  0.693241E+00  0.719263E+00  0.753962E+00  0.789369E+00  0.820125E+00
  0.843871E+00  0.860241E+00  0.869890E+00  0.873792E+00  0.872569E+00  0.865986E+00
  0.852917E+00  0.831886E+00  0.802133E+00  0.765321E+00  0.727310E+00  0.697878E+00
  0.686710E+00  0.697878E+00  0.727310E+00  0.765321E+00  0.802133E+00  0.831886E+00
  0.852917E+00  0.865986E+00  0.872569E+00  0.873792E+00  0.869890E+00  0.860241E+00
  0.843871E+00  0.868026E+00  0.842743E+00  0.810011E+00  0.773099E+00  0.739487E+00
  0.719067E+00  0.719067E+00  0.739487E+00  0.773099E+00  0.810011E+00  0.842743E+00
  0.868026E+00  0.885603E+00  0.896443E+00  0.901650E+00  0.901961E+00  0.897403E+00
  0.887074E+00  0.869174E+00  0.841543E+00  0.803211E+00  0.757348E+00  0.713788E+00
  0.686710E+00  0.686710E+00  0.713788E+00  0.757348E+00  0.803211E+00  0.841543E+00
  0.869174E+00  0.887074E+00  0.897403E+00  0.901961E+00  0.901650E+00  0.896443E+00
  0.885603E+00  0.868026E+00  0.882001E+00  0.853169E+00  0.815873E+00  0.775474E+00
  0.742967E+00  0.730373E+00  0.742967E+00  0.775474E+00  0.815873E+00  0.853169E+00
  0.882001E+00  0.901853E+00  0.914279E+00  0.921000E+00  0.923166E+00  0.921142E+00
  0.914412E+00  0.901506E+00  0.880071E+00  0.847584E+00  0.803713E+00  0.754418E+00
  0.713788E+00  0.697878E+00  0.713788E+00  0.754418E+00  0.803713E+00  0.847584E+00
  0.880071E+00  0.901506E+00  0.914412E+00  0.921142E+00  0.923166E+00  0.921000E+00
  0.914279E+00  0.901853E+00  0.882001E+00  0.885539E+00  0.849646E+00  0.803713E+00
  0.757348E+00  0.727310E+00  0.727310E+00  0.757348E+00  0.803713E+00  0.849646E+00
  0.885539E+00  0.909889E+00  0.924940E+00  0.933366E+00  0.937092E+00  0.937092E+00
  0.933366E+00  0.924940E+00  0.909889E+00  0.885539E+00  0.849646E+00  0.803713E+00
  0.757348E+00  0.727310E+00  0.727310E+00  0.757348E+00  0.803713E+00  0.849646E+00
  0.885539E+00  0.909889E+00  0.924940E+00  0.933366E+00  0.937092E+00  0.937092E+00
  0.933366E+00  0.924940E+00  0.909889E+00  0.885539E+00  0.876291E+00  0.826732E+00
  0.764817E+00  0.709580E+00  0.687087E+00  0.709580E+00  0.764817E+00  0.826732E+00
  0.876291E+00  0.909232E+00  0.929061E+00  0.940147E+00  0.945554E+00  0.947056E+00
  0.945353E+00  0.940107E+00  0.929953E+00  0.912635E+00  0.885539E+00  0.847584E+00
  0.803211E+00  0.765321E+00  0.750168E+00  0.765321E+00  0.803211E+00  0.847584E+00
  0.885539E+00  0.912635E+00  0.929953E+00  0.940107E+00  0.945353E+00  0.947056E+00
  0.945554E+00  0.940147E+00  0.929061E+00  0.909232E+00  0.876291E+00  0.846287E+00
  0.768297E+00  0.677313E+00  0.613876E+00  0.613876E+00  0.677313E+00  0.768297E+00
  0.846287E+00  0.896997E+00  0.925971E+00  0.941667E+00  0.949607E+00  0.952720E+00
  0.952446E+00  0.949183E+00  0.942256E+00  0.929953E+00  0.909889E+00  0.880071E+00
  0.841543E+00  0.802133E+00  0.776263E+00  0.776263E+00  0.802133E+00  0.841543E+00
  0.880071E+00  0.909889E+00  0.929953E+00  0.942256E+00  0.949183E+00  0.952446E+00
  0.952720E+00  0.949607E+00  0.941667E+00  0.925971E+00  0.896997E+00  0.846287E+00
  0.771243E+00  0.635102E+00  0.505925E+00  0.454286E+00  0.505925E+00  0.635102E+00
  0.771243E+00  0.863012E+00  0.912300E+00  0.937027E+00  0.949255E+00  0.954747E+00
  0.956025E+00  0.954147E+00  0.949183E+00  0.940107E+00  0.924940E+00  0.901506E+00
  0.869174E+00  0.831886E+00  0.800266E+00  0.787639E+00  0.800266E+00  0.831886E+00
  0.869174E+00  0.901506E+00  0.924940E+00  0.940107E+00  0.949183E+00  0.954147E+00
  0.956025E+00  0.954747E+00  0.949255E+00  0.937027E+00  0.912300E+00  0.863012E+00
  0.771243E+00  0.595061E+00  0.386134E+00  0.264971E+00  0.264971E+00  0.386134E+00
  0.595061E+00  0.776484E+00  0.876382E+00  0.922395E+00  0.943292E+00  0.952809E+00
  0.956374E+00  0.956025E+00  0.952446E+00  0.945353E+00  0.933366E+00  0.914412E+00
  0.887074E+00  0.852917E+00  0.818992E+00  0.797124E+00  0.797124E+00  0.818992E+00
  0.852917E+00  0.887074E+00  0.914412E+00  0.933366E+00  0.945353E+00  0.952446E+00
  0.956025E+00  0.956374E+00  0.952809E+00  0.943292E+00  0.922395E+00  0.876382E+00
  0.776484E+00  0.595061E+00  0.294237E+00  0.128976E+00  0.871439E-01  0.128976E+00
  0.294237E+00  0.570338E+00  0.783687E+00  0.885164E+00  0.927398E+00  0.945318E+00
  0.952809E+00  0.954747E+00  0.952720E+00  0.947056E+00  0.937092E+00  0.921142E+00
  0.897403E+00  0.865986E+00  0.831331E+00  0.803000E+00  0.791909E+00  0.803000E+00
  0.831331E+00  0.865986E+00  0.897403E+00  0.921142E+00  0.937092E+00  0.947056E+00
  0.952720E+00  0.954747E+00  0.952809E+00  0.945318E+00  0.927398E+00  0.885164E+00
  0.783687E+00  0.570338E+00  0.294237E+00  0.679346E-01  0.228351E-01  0.228351E-01
  0.679346E-01  0.247506E+00  0.562588E+00  0.789090E+00  0.888233E+00  0.927398E+00
  0.943292E+00  0.949255E+00  0.949607E+00  0.945554E+00  0.937092E+00  0.923166E+00
  0.901961E+00  0.872569E+00  0.837532E+00  0.804365E+00  0.783730E+00  0.783730E+00
  0.804365E+00  0.837532E+00  0.872569E+00  0.901961E+00  0.923166E+00  0.937092E+00
  0.945554E+00  0.949607E+00  0.949255E+00  0.943292E+00  0.927398E+00  0.888233E+00
  0.789090E+00  0.562588E+00  0.247506E+00  0.679346E-01  0.778269E-02  0.309728E-02
  0.778269E-02  0.482593E-01  0.233054E+00  0.562078E+00  0.789090E+00  0.885164E+00
  0.922395E+00  0.937027E+00  0.941667E+00  0.940147E+00  0.933366E+00  0.921000E+00
  0.901650E+00  0.873792E+00  0.838351E+00  0.801078E+00  0.771957E+00  0.760865E+00
  0.771957E+00  0.801078E+00  0.838351E+00  0.873792E+00  0.901650E+00  0.921000E+00
  0.933366E+00  0.940147E+00  0.941667E+00  0.937027E+00  0.922395E+00  0.885164E+00
  0.789090E+00  0.562078E+00  0.233054E+00  0.482593E-01  0.778269E-02  0.627272E-03
  0.627272E-03  0.479589E-02  0.444108E-01  0.233054E+00  0.562588E+00  0.783687E+00
  0.876382E+00  0.912300E+00  0.925971E+00  0.929061E+00  0.924940E+00  0.914279E+00
  0.896443E+00  0.869890E+00  0.834202E+00  0.793306E+00  0.756335E+00  0.734199E+00
  0.734199E+00  0.756335E+00  0.793306E+00  0.834202E+00  0.869890E+00  0.896443E+00
  0.914279E+00  0.924940E+00  0.929061E+00  0.925971E+00  0.912300E+00  0.876382E+00
  0.783687E+00  0.562588E+00  0.233054E+00  0.444108E-01  0.479589E-02  0.627272E-03
  0.836674E-04  0.356834E-03  0.479589E-02  0.482593E-01  0.247506E+00  0.570338E+00
  0.776484E+00  0.863012E+00  0.896997E+00  0.909232E+00  0.909889E+00  0.901853E+00
  0.885603E+00  0.860241E+00  0.824639E+00  0.780827E+00  0.736650E+00  0.703605E+00
  0.691368E+00  0.703605E+00  0.736650E+00  0.780827E+00  0.824639E+00  0.860241E+00
  0.885603E+00  0.901853E+00  0.909889E+00  0.909232E+00  0.896997E+00  0.863012E+00
  0.776484E+00  0.570338E+00  0.247506E+00  0.482593E-01  0.479589E-02  0.356834E-03
  0.836674E-04  0.836674E-04  0.627272E-03  0.778269E-02  0.679346E-01  0.294237E+00
  0.595061E+00  0.771243E+00  0.846287E+00  0.876291E+00  0.885539E+00  0.882001E+00
  0.868026E+00  0.843871E+00  0.808606E+00  0.762760E+00  0.712363E+00  0.668868E+00
  0.643805E+00  0.643805E+00  0.668868E+00  0.712363E+00  0.762760E+00  0.808606E+00
  0.843871E+00  0.868026E+00  0.882001E+00  0.885539E+00  0.876291E+00  0.846287E+00
  0.771243E+00  0.595061E+00  0.294237E+00  0.679346E-01  0.778269E-02  0.627272E-03
  0.836674E-04  0.836674E-04  0.280581E-02  0.778269E-02  0.369830E-01  0.160773E+00
  0.417237E+00  0.648433E+00  0.771450E+00  0.826147E+00  0.847584E+00  0.850280E+00
  0.839203E+00  0.815975E+00  0.780540E+00  0.732884E+00  0.677257E+00  0.624232E+00
  0.586439E+00  0.572830E+00  0.586439E+00  0.624232E+00  0.677257E+00  0.732884E+00
  0.780540E+00  0.815975E+00  0.839203E+00  0.850280E+00  0.847584E+00  0.826147E+00
  0.771450E+00  0.648433E+00  0.417237E+00  0.160773E+00  0.369830E-01  0.778269E-02
  0.280581E-02  0.216387E-02  0.280581E-02  0.778269E-02  0.228351E-01  0.871439E-01
  0.264971E+00  0.505925E+00  0.677313E+00  0.764817E+00  0.803713E+00  0.815873E+00
  0.810011E+00  0.789369E+00  0.755020E+00  0.707074E+00  0.648185E+00  0.587415E+00
  0.537909E+00  0.510487E+00  0.510487E+00  0.537909E+00  0.587415E+00  0.648185E+00
  0.707074E+00  0.755020E+00  0.789369E+00  0.810011E+00  0.815873E+00  0.803713E+00
  0.764817E+00  0.677313E+00  0.505925E+00  0.264971E+00  0.871439E-01  0.228351E-01
  0.778269E-02  0.479589E-02  0.479589E-02  0.778269E-02  0.369830E-01  0.871439E-01
  0.215181E+00  0.415066E+00  0.593073E+00  0.700743E+00  0.754418E+00  0.775557E+00
  0.774995E+00  0.757150E+00  0.723970E+00  0.676119E+00  0.615338E+00  0.548909E+00
  0.489555E+00  0.449293E+00  0.435163E+00  0.449293E+00  0.489555E+00  0.548909E+00
  0.615338E+00  0.676119E+00  0.723970E+00  0.757150E+00  0.774995E+00  0.775557E+00
  0.754418E+00  0.700743E+00  0.593073E+00  0.415066E+00  0.215181E+00  0.871439E-01
  0.369830E-01  0.219171E-01  0.187832E-01  0.219171E-01  0.369830E-01  0.160773E+00
  0.264971E+00  0.415066E+00  0.559242E+00  0.658587E+00  0.713788E+00  0.737875E+00
  0.739624E+00  0.723045E+00  0.690167E+00  0.642067E+00  0.580113E+00  0.510013E+00
  0.443365E+00  0.392463E+00  0.365293E+00  0.365293E+00  0.392463E+00  0.443365E+00
  0.510013E+00  0.580113E+00  0.642067E+00  0.690167E+00  0.723045E+00  0.739624E+00
  0.737875E+00  0.713788E+00  0.658587E+00  0.559242E+00  0.415066E+00  0.264971E+00
  0.160773E+00  0.109806E+00  0.915576E-01  0.915576E-01  0.109806E+00  0.160773E+00
  0.417237E+00  0.505925E+00  0.593073E+00  0.658587E+00  0.697878E+00  0.714670E+00
  0.712662E+00  0.693633E+00  0.658698E+00  0.608849E+00  0.545284E+00  0.472532E+00
  0.400887E+00  0.342200E+00  0.304477E+00  0.291536E+00  0.304477E+00  0.342200E+00
  0.400887E+00  0.472532E+00  0.545284E+00  0.608849E+00  0.658698E+00  0.693633E+00
  0.712662E+00  0.714670E+00  0.697878E+00  0.658587E+00  0.593073E+00  0.505925E+00
  0.417237E+00  0.350933E+00  0.315231E+00  0.304696E+00  0.315231E+00  0.350933E+00
  0.417237E+00  0.648433E+00  0.677313E+00  0.700743E+00  0.713788E+00  0.714670E+00
  0.702516E+00  0.676418E+00  0.636073E+00  0.582001E+00  0.515266E+00  0.439572E+00
  0.364024E+00  0.299855E+00  0.254535E+00  0.231293E+00  0.231293E+00  0.254535E+00
  0.299855E+00  0.364024E+00  0.439572E+00  0.515266E+00  0.582001E+00  0.636073E+00
  0.676418E+00  0.702516E+00  0.714670E+00  0.713788E+00  0.700743E+00  0.677313E+00
  0.648433E+00  0.622113E+00  0.604698E+00  0.596986E+00  0.596986E+00  0.604698E+00
  0.622113E+00  0.648433E+00  0.771450E+00  0.764817E+00  0.754418E+00  0.737875E+00
  0.712662E+00  0.676418E+00  0.627813E+00  0.566943E+00  0.494920E+00  0.415065E+00
  0.335484E+00  0.266818E+00  0.216080E+00  0.185464E+00  0.175255E+00  0.185464E+00
  0.216080E+00  0.266818E+00  0.335484E+00  0.415065E+00  0.494920E+00  0.566943E+00
  0.627813E+00  0.676418E+00  0.712662E+00  0.737875E+00  0.754418E+00  0.764817E+00
  0.771450E+00  0.776412E+00  0.780845E+00  0.784361E+00  0.785741E+00  0.784361E+00
  0.780845E+00  0.776412E+00  0.771450E+00  0.826147E+00  0.803713E+00  0.775557E+00
  0.739624E+00  0.693633E+00  0.636073E+00  0.566943E+00  0.487737E+00  0.402107E+00
  0.317665E+00  0.244441E+00  0.189184E+00  0.153291E+00  0.135769E+00  0.135769E+00
  0.153291E+00  0.189184E+00  0.244441E+00  0.317665E+00  0.402107E+00  0.487737E+00
  0.566943E+00  0.636073E+00  0.693633E+00  0.739624E+00  0.775557E+00  0.803713E+00
  0.826147E+00  0.844128E+00  0.858063E+00  0.867735E+00  0.872717E+00  0.872717E+00
  0.867735E+00  0.858063E+00  0.844128E+00  0.826147E+00  0.847584E+00  0.815873E+00
  0.774995E+00  0.723045E+00  0.658698E+00  0.582001E+00  0.494920E+00  0.402107E+00
  0.311663E+00  0.233294E+00  0.173487E+00  0.133230E+00  0.110481E+00  0.103162E+00
  0.110481E+00  0.133230E+00  0.173487E+00  0.233294E+00  0.311663E+00  0.402107E+00
  0.494920E+00  0.582001E+00  0.658698E+00  0.723045E+00  0.774995E+00  0.815873E+00
  0.847584E+00  0.871856E+00  0.889881E+00  0.902353E+00  0.909675E+00  0.912087E+00
  0.909675E+00  0.902353E+00  0.889881E+00  0.871856E+00  0.847584E+00  0.850280E+00
  0.810011E+00  0.757150E+00  0.690167E+00  0.608849E+00  0.515266E+00  0.415065E+00
  0.317665E+00  0.233294E+00  0.168361E+00  0.123697E+00  0.966659E-01  0.841102E-01
  0.841102E-01  0.966659E-01  0.123697E+00  0.168361E+00  0.233294E+00  0.317665E+00
  0.415065E+00  0.515266E+00  0.608849E+00  0.690167E+00  0.757150E+00  0.810011E+00
  0.850280E+00  0.880071E+00  0.901455E+00  0.916105E+00  0.925222E+00  0.929586E+00
  0.929586E+00  0.925222E+00  0.916105E+00  0.901455E+00  0.880071E+00  0.850280E+00
  0.839203E+00  0.789369E+00  0.723970E+00  0.642067E+00  0.545284E+00  0.439572E+00
  0.335484E+00  0.244441E+00  0.173487E+00  0.123697E+00  0.923048E-01  0.754687E-01
  0.702192E-01  0.754687E-01  0.923048E-01  0.123697E+00  0.173487E+00  0.244441E+00
  0.335484E+00  0.439572E+00  0.545284E+00  0.642067E+00  0.723970E+00  0.789369E+00
  0.839203E+00  0.875698E+00  0.901506E+00  0.919071E+00  0.930310E+00  0.936544E+00
  0.938539E+00  0.936544E+00  0.930310E+00  0.919071E+00  0.901506E+00  0.875698E+00
  0.839203E+00  0.815975E+00  0.755020E+00  0.676119E+00  0.580113E+00  0.472532E+00
  0.364024E+00  0.266818E+00  0.189184E+00  0.133230E+00  0.966659E-01  0.754687E-01
  0.659312E-01  0.659312E-01  0.754687E-01  0.966659E-01  0.133230E+00  0.189184E+00
  0.266818E+00  0.364024E+00  0.472532E+00  0.580113E+00  0.676119E+00  0.755020E+00
  0.815975E+00  0.860867E+00  0.892673E+00  0.914412E+00  0.928605E+00  0.937093E+00
  0.941053E+00  0.941053E+00  0.937093E+00  0.928605E+00  0.914412E+00  0.892673E+00
  0.860867E+00  0.815975E+00  0.780540E+00  0.707074E+00  0.615338E+00  0.510013E+00
  0.400887E+00  0.299855E+00  0.216080E+00  0.153291E+00  0.110481E+00  0.841102E-01
  0.702192E-01  0.659312E-01  0.702192E-01  0.841102E-01  0.110481E+00  0.153291E+00
  0.216080E+00  0.299855E+00  0.400887E+00  0.510013E+00  0.615338E+00  0.707074E+00
  0.780540E+00  0.835769E+00  0.875418E+00  0.902860E+00  0.921142E+00  0.932611E+00
  0.938876E+00  0.940864E+00  0.938876E+00  0.932611E+00  0.921142E+00  0.902860E+00
  0.875418E+00  0.835769E+00  0.780540E+00  0.732884E+00  0.648185E+00  0.548909E+00
  0.443365E+00  0.342200E+00  0.254535E+00  0.185464E+00  0.135769E+00  0.103162E+00
  0.841102E-01  0.754687E-01  0.754687E-01  0.841102E-01  0.103162E+00  0.135769E+00
  0.185464E+00  0.254535E+00  0.342200E+00  0.443365E+00  0.548909E+00  0.648185E+00
  0.732884E+00  0.799498E+00  0.848811E+00  0.883758E+00  0.907619E+00  0.923166E+00
  0.932440E+00  0.936757E+00  0.936757E+00  0.932440E+00  0.923166E+00  0.907619E+00
  0.883758E+00  0.848811E+00  0.799498E+00  0.732884E+00  0.677257E+00  0.587415E+00
  0.489555E+00  0.392463E+00  0.304477E+00  0.231293E+00  0.175255E+00  0.135769E+00
  0.110481E+00  0.966659E-01  0.923048E-01  0.966659E-01  0.110481E+00  0.135769E+00
  0.175255E+00  0.231293E+00  0.304477E+00  0.392463E+00  0.489555E+00  0.587415E+00
  0.677257E+00  0.752806E+00  0.811875E+00  0.855590E+00  0.886582E+00  0.907619E+00
  0.921000E+00  0.928375E+00  0.930725E+00  0.928375E+00  0.921000E+00  0.907619E+00
  0.886582E+00  0.855590E+00  0.811875E+00  0.752806E+00  0.677257E+00  0.624232E+00
  0.537909E+00  0.449293E+00  0.365293E+00  0.291536E+00  0.231293E+00  0.185464E+00
  0.153291E+00  0.133230E+00  0.123697E+00  0.123697E+00  0.133230E+00  0.153291E+00
  0.185464E+00  0.231293E+00  0.291536E+00  0.365293E+00  0.449293E+00  0.537909E+00
  0.624232E+00  0.701939E+00  0.767015E+00  0.818294E+00  0.856730E+00  0.884243E+00
  0.902860E+00  0.914279E+00  0.919685E+00  0.919685E+00  0.914279E+00  0.902860E+00
  0.884243E+00  0.856730E+00  0.818294E+00  0.767015E+00  0.701939E+00  0.624232E+00
  0.586439E+00  0.510487E+00  0.435163E+00  0.365293E+00  0.304477E+00  0.254535E+00
  0.216080E+00  0.189184E+00  0.173487E+00  0.168361E+00  0.173487E+00  0.189184E+00
  0.216080E+00  0.254535E+00  0.304477E+00  0.365293E+00  0.435163E+00  0.510487E+00
  0.586439E+00  0.658266E+00  0.722272E+00  0.776261E+00  0.819558E+00  0.852646E+00
  0.876614E+00  0.892673E+00  0.901853E+00  0.904834E+00  0.901853E+00  0.892673E+00
  0.876614E+00  0.852646E+00  0.819558E+00  0.776261E+00  0.722272E+00  0.658266E+00
  0.586439E+00  0.572830E+00  0.510487E+00  0.449293E+00  0.392463E+00  0.342200E+00
  0.299855E+00  0.266818E+00  0.244441E+00  0.233294E+00  0.233294E+00  0.244441E+00
  0.266818E+00  0.299855E+00  0.342200E+00  0.392463E+00  0.449293E+00  0.510487E+00
  0.572830E+00  0.633130E+00  0.688982E+00  0.738712E+00  0.781224E+00  0.816017E+00
  0.843118E+00  0.862867E+00  0.875698E+00  0.882001E+00  0.882001E+00  0.875698E+00
  0.862867E+00  0.843118E+00  0.816017E+00  0.781224E+00  0.738712E+00  0.688982E+00
  0.633130E+00  0.572830E+00  0.586439E+00  0.537909E+00  0.489555E+00  0.443365E+00
  0.400887E+00  0.364024E+00  0.335484E+00  0.317665E+00  0.311663E+00  0.317665E+00
  0.335484E+00  0.364024E+00  0.400887E+00  0.443365E+00  0.489555E+00  0.537909E+00
  0.586439E+00  0.633130E+00  0.676670E+00  0.716350E+00  0.751638E+00  0.782080E+00
  0.807366E+00  0.827277E+00  0.841629E+00  0.850280E+00  0.853169E+00  0.850280E+00
  0.841629E+00  0.827277E+00  0.807366E+00  0.782080E+00  0.751638E+00  0.716350E+00
  0.676670E+00  0.633130E+00  0.586439E+00  0.624232E+00  0.587415E+00  0.548909E+00
  0.510013E+00  0.472532E+00  0.439572E+00  0.415065E+00  0.402107E+00  0.402107E+00
  0.415065E+00  0.439572E+00  0.472532E+00  0.510013E+00  0.548909E+00  0.587415E+00
  0.624232E+00  0.658266E+00  0.688982E+00  0.716350E+00  0.740424E+00  0.761216E+00
  0.778789E+00  0.793206E+00  0.804360E+00  0.811996E+00  0.815873E+00  0.815873E+00
  0.811996E+00  0.804360E+00  0.793206E+00  0.778789E+00  0.761216E+00  0.740424E+00
  0.716350E+00  0.688982E+00  0.658266E+00  0.624232E+00  0.677257E+00  0.648185E+00
  0.615338E+00  0.580113E+00  0.545284E+00  0.515266E+00  0.494920E+00  0.487737E+00
  0.494920E+00  0.515266E+00  0.545284E+00  0.580113E+00  0.615338E+00  0.648185E+00
  0.677257E+00  0.701939E+00  0.722272E+00  0.738712E+00  0.751638E+00  0.761216E+00
  0.767722E+00  0.771741E+00  0.773987E+00  0.775073E+00  0.775474E+00  0.775557E+00
  0.775474E+00  0.775073E+00  0.773987E+00  0.771741E+00  0.767722E+00  0.761216E+00
  0.751638E+00  0.738712E+00  0.722272E+00  0.701939E+00  0.677257E+00  0.732884E+00
  0.707074E+00  0.676119E+00  0.642067E+00  0.608849E+00  0.582001E+00  0.566943E+00
  0.566943E+00  0.582001E+00  0.608849E+00  0.642067E+00  0.676119E+00  0.707074E+00
  0.732884E+00  0.752806E+00  0.767015E+00  0.776261E+00  0.781224E+00  0.782080E+00
  0.778789E+00  0.771741E+00  0.762109E+00  0.751767E+00  0.742967E+00  0.737875E+00
  0.737875E+00  0.742967E+00  0.751767E+00  0.762109E+00  0.771741E+00  0.778789E+00
  0.782080E+00  0.781224E+00  0.776261E+00  0.767015E+00  0.752806E+00  0.732884E+00
  0.780540E+00  0.755020E+00  0.723970E+00  0.690167E+00  0.658698E+00  0.636073E+00
  0.627813E+00  0.636073E+00  0.658698E+00  0.690167E+00  0.723970E+00  0.755020E+00
  0.780540E+00  0.799498E+00  0.811875E+00  0.818294E+00  0.819558E+00  0.816017E+00
  0.807366E+00  0.793206E+00  0.773987E+00  0.751767E+00  0.730373E+00  0.714670E+00
  0.708874E+00  0.714670E+00  0.730373E+00  0.751767E+00  0.773987E+00  0.793206E+00
  0.807366E+00  0.816017E+00  0.819558E+00  0.818294E+00  0.811875E+00  0.799498E+00
  0.780540E+00  0.815975E+00  0.789369E+00  0.757150E+00  0.723045E+00  0.693633E+00
  0.676418E+00  0.676418E+00  0.693633E+00  0.723045E+00  0.757150E+00  0.789369E+00
  0.815975E+00  0.835769E+00  0.848811E+00  0.855590E+00  0.856730E+00  0.852646E+00
  0.843118E+00  0.827277E+00  0.804360E+00  0.775073E+00  0.742967E+00  0.714670E+00
  0.697901E+00  0.697901E+00  0.714670E+00  0.742967E+00  0.775073E+00  0.804360E+00
  0.827277E+00  0.843118E+00  0.852646E+00  0.856730E+00  0.855590E+00  0.848811E+00
  0.835769E+00  0.815975E+00  0.839203E+00  0.810011E+00  0.774995E+00  0.739624E+00
  0.712662E+00  0.702516E+00  0.712662E+00  0.739624E+00  0.774995E+00  0.810011E+00
  0.839203E+00  0.860867E+00  0.875418E+00  0.883758E+00  0.886582E+00  0.884243E+00
  0.876614E+00  0.862867E+00  0.841629E+00  0.811996E+00  0.775474E+00  0.737875E+00
  0.708874E+00  0.697901E+00  0.708874E+00  0.737875E+00  0.775474E+00  0.811996E+00
  0.841629E+00  0.862867E+00  0.876614E+00  0.884243E+00  0.886582E+00  0.883758E+00
  0.875418E+00  0.860867E+00  0.839203E+00  0.850280E+00  0.815873E+00  0.775557E+00
  0.737875E+00  0.714670E+00  0.714670E+00  0.737875E+00  0.775557E+00  0.815873E+00
  0.850280E+00  0.875698E+00  0.892673E+00  0.902860E+00  0.907619E+00  0.907619E+00
  0.902860E+00  0.892673E+00  0.875698E+00  0.850280E+00  0.815873E+00  0.775557E+00
  0.737875E+00  0.714670E+00  0.714670E+00  0.737875E+00  0.775557E+00  0.815873E+00
  0.850280E+00  0.875698E+00  0.892673E+00  0.902860E+00  0.907619E+00  0.907619E+00
  0.902860E+00  0.892673E+00  0.875698E+00  0.850280E+00  0.847584E+00  0.803713E+00
  0.754418E+00  0.713788E+00  0.697878E+00  0.713788E+00  0.754418E+00  0.803713E+00
  0.847584E+00  0.880071E+00  0.901506E+00  0.914412E+00  0.921142E+00  0.923166E+00
  0.921000E+00  0.914279E+00  0.901853E+00  0.882001E+00  0.853169E+00  0.815873E+00
  0.775474E+00  0.742967E+00  0.730373E+00  0.742967E+00  0.775474E+00  0.815873E+00
  0.853169E+00  0.882001E+00  0.901853E+00  0.914279E+00  0.921000E+00  0.923166E+00
  0.921142E+00  0.914412E+00  0.901506E+00  0.880071E+00  0.847584E+00  0.826147E+00
  0.764817E+00  0.700743E+00  0.658587E+00  0.658587E+00  0.700743E+00  0.764817E+00
  0.826147E+00  0.871856E+00  0.901455E+00  0.919071E+00  0.928605E+00  0.932611E+00
  0.932440E+00  0.928375E+00  0.919685E+00  0.904834E+00  0.882001E+00  0.850280E+00
  0.811996E+00  0.775073E+00  0.751767E+00  0.751767E+00  0.775073E+00  0.811996E+00
  0.850280E+00  0.882001E+00  0.904834E+00  0.919685E+00  0.928375E+00  0.932440E+00
  0.932611E+00  0.928605E+00  0.919071E+00  0.901455E+00  0.871856E+00  0.826147E+00
  0.771450E+00  0.677313E+00  0.593073E+00  0.559242E+00  0.593073E+00  0.677313E+00
  0.771450E+00  0.844128E+00  0.889881E+00  0.916105E+00  0.930310E+00  0.937093E+00
  0.938876E+00  0.936757E+00  0.930725E+00  0.919685E+00  0.901853E+00  0.875698E+00
  0.841629E+00  0.804360E+00  0.773987E+00  0.762109E+00  0.773987E+00  0.804360E+00
  0.841629E+00  0.875698E+00  0.901853E+00  0.919685E+00  0.930725E+00  0.936757E+00
  0.938876E+00  0.937093E+00  0.930310E+00  0.916105E+00  0.889881E+00  0.844128E+00
  0.771450E+00  0.648433E+00  0.505925E+00  0.415066E+00  0.415066E+00  0.505925E+00
  0.648433E+00  0.776412E+00  0.858063E+00  0.902353E+00  0.925222E+00  0.936544E+00
  0.941053E+00  0.940864E+00  0.936757E+00  0.928375E+00  0.914279E+00  0.892673E+00
  0.862867E+00  0.827277E+00  0.793206E+00  0.771741E+00  0.771741E+00  0.793206E+00
  0.827277E+00  0.862867E+00  0.892673E+00  0.914279E+00  0.928375E+00  0.936757E+00
  0.940864E+00  0.941053E+00  0.936544E+00  0.925222E+00  0.902353E+00  0.858063E+00
  0.776412E+00  0.648433E+00  0.417237E+00  0.264971E+00  0.215181E+00  0.264971E+00
  0.417237E+00  0.622113E+00  0.780845E+00  0.867735E+00  0.909675E+00  0.929586E+00
  0.938539E+00  0.941053E+00  0.938876E+00  0.932440E+00  0.921000E+00  0.902860E+00
  0.876614E+00  0.843118E+00  0.807366E+00  0.778789E+00  0.767722E+00  0.778789E+00
  0.807366E+00  0.843118E+00  0.876614E+00  0.902860E+00  0.921000E+00  0.932440E+00
  0.938876E+00  0.941053E+00  0.938539E+00  0.929586E+00  0.909675E+00  0.867735E+00
  0.780845E+00  0.622113E+00  0.417237E+00  0.160773E+00  0.871439E-01  0.871439E-01
  0.160773E+00  0.350933E+00  0.604698E+00  0.784361E+00  0.872717E+00  0.912087E+00
  0.929586E+00  0.936544E+00  0.937093E+00  0.932611E+00  0.923166E+00  0.907619E+00
  0.884243E+00  0.852646E+00  0.816017E+00  0.782080E+00  0.761216E+00  0.761216E+00
  0.782080E+00  0.816017E+00  0.852646E+00  0.884243E+00  0.907619E+00  0.923166E+00
  0.932611E+00  0.937093E+00  0.936544E+00  0.929586E+00  0.912087E+00  0.872717E+00
  0.784361E+00  0.604698E+00  0.350933E+00  0.160773E+00  0.369830E-01  0.228351E-01
  0.369830E-01  0.109806E+00  0.315231E+00  0.596986E+00  0.785741E+00  0.872717E+00
  0.909675E+00  0.925222E+00  0.930310E+00  0.928605E+00  0.921142E+00  0.907619E+00
  0.886582E+00  0.856730E+00  0.819558E+00  0.781224E+00  0.751638E+00  0.740424E+00
  0.751638E+00  0.781224E+00  0.819558E+00  0.856730E+00  0.886582E+00  0.907619E+00
  0.921142E+00  0.928605E+00  0.930310E+00  0.925222E+00  0.909675E+00  0.872717E+00
  0.785741E+00  0.596986E+00  0.315231E+00  0.109806E+00  0.369830E-01  0.778269E-02
  0.778269E-02  0.219171E-01  0.915576E-01  0.304696E+00  0.596986E+00  0.784361E+00
  0.867735E+00  0.902353E+00  0.916105E+00  0.919071E+00  0.914412E+00  0.902860E+00
  0.883758E+00  0.855590E+00  0.818294E+00  0.776261E+00  0.738712E+00  0.716350E+00
  0.716350E+00  0.738712E+00  0.776261E+00  0.818294E+00  0.855590E+00  0.883758E+00
  0.902860E+00  0.914412E+00  0.919071E+00  0.916105E+00  0.902353E+00  0.867735E+00
  0.784361E+00  0.596986E+00  0.304696E+00  0.915576E-01  0.219171E-01  0.778269E-02
  0.280581E-02  0.479589E-02  0.187832E-01  0.915576E-01  0.315231E+00  0.604698E+00
  0.780845E+00  0.858063E+00  0.889881E+00  0.901455E+00  0.901506E+00  0.892673E+00
  0.875418E+00  0.848811E+00  0.811875E+00  0.767015E+00  0.722272E+00  0.688982E+00
  0.676670E+00  0.688982E+00  0.722272E+00  0.767015E+00  0.811875E+00  0.848811E+00
  0.875418E+00  0.892673E+00  0.901506E+00  0.901455E+00  0.889881E+00  0.858063E+00
  0.780845E+00  0.604698E+00  0.315231E+00  0.915576E-01  0.187832E-01  0.479589E-02
  0.280581E-02  0.216387E-02  0.479589E-02  0.219171E-01  0.109806E+00  0.350933E+00
  0.622113E+00  0.776412E+00  0.844128E+00  0.871856E+00  0.880071E+00  0.875698E+00
  0.860867E+00  0.835769E+00  0.799498E+00  0.752806E+00  0.701939E+00  0.658266E+00
  0.633130E+00  0.633130E+00  0.658266E+00  0.701939E+00  0.752806E+00  0.799498E+00
  0.835769E+00  0.860867E+00  0.875698E+00  0.880071E+00  0.871856E+00  0.844128E+00
  0.776412E+00  0.622113E+00  0.350933E+00  0.109806E+00  0.219171E-01  0.479589E-02
  0.216387E-02  0.216387E-02  0.280581E-02  0.778269E-02  0.369830E-01  0.160773E+00
  0.417237E+00  0.648433E+00  0.771450E+00  0.826147E+00  0.847584E+00  0.850280E+00
  0.839203E+00  0.815975E+00  0.780540E+00  0.732884E+00  0.677257E+00  0.624232E+00
  0.586439E+00  0.572830E+00  0.586439E+00  0.624232E+00  0.677257E+00  0.732884E+00
  0.780540E+00  0.815975E+00  0.839203E+00  0.850280E+00  0.847584E+00  0.826147E+00
  0.771450E+00  0.648433E+00  0.417237E+00  0.160773E+00  0.369830E-01  0.778269E-02
  0.280581E-02  0.216387E-02  0.280581E-02  0.390039E-01  0.679346E-01  0.160773E+00
  0.348998E+00  0.558353E+00  0.698583E+00  0.770919E+00  0.803211E+00  0.811996E+00
  0.803921E+00  0.781519E+00  0.745591E+00  0.696261E+00  0.636494E+00  0.575505E+00
  0.526112E+00  0.498783E+00  0.498783E+00  0.526112E+00  0.575505E+00  0.636494E+00
  0.696261E+00  0.745591E+00  0.781519E+00  0.803921E+00  0.811996E+00  0.803211E+00
  0.770919E+00  0.698583E+00  0.558353E+00  0.348998E+00  0.160773E+00  0.679346E-01
  0.390039E-01  0.340784E-01  0.340784E-01  0.390039E-01  0.679346E-01  0.128976E+00
  0.264971E+00  0.454286E+00  0.613876E+00  0.709580E+00  0.757348E+00  0.775474E+00
  0.773099E+00  0.753962E+00  0.719732E+00  0.670979E+00  0.609557E+00  0.542904E+00
  0.483640E+00  0.443516E+00  0.429436E+00  0.443516E+00  0.483640E+00  0.542904E+00
  0.609557E+00  0.670979E+00  0.719732E+00  0.753962E+00  0.773099E+00  0.775474E+00
  0.757348E+00  0.709580E+00  0.613876E+00  0.454286E+00  0.264971E+00  0.128976E+00
  0.679346E-01  0.482593E-01  0.444108E-01  0.482593E-01  0.679346E-01  0.160773E+00
  0.264971E+00  0.415066E+00  0.559242E+00  0.658587E+00  0.713788E+00  0.737875E+00
  0.739624E+00  0.723045E+00  0.690167E+00  0.642067E+00  0.580113E+00  0.510013E+00
  0.443365E+00  0.392463E+00  0.365293E+00  0.365293E+00  0.392463E+00  0.443365E+00
  0.510013E+00  0.580113E+00  0.642067E+00  0.690167E+00  0.723045E+00  0.739624E+00
  0.737875E+00  0.713788E+00  0.658587E+00  0.559242E+00  0.415066E+00  0.264971E+00
  0.160773E+00  0.109806E+00  0.915576E-01  0.915576E-01  0.109806E+00  0.160773E+00
  0.348998E+00  0.454286E+00  0.559242E+00  0.638588E+00  0.686710E+00  0.708874E+00
  0.710315E+00  0.693698E+00  0.660569E+00  0.612155E+00  0.549721E+00  0.477656E+00
  0.406142E+00  0.347227E+00  0.309241E+00  0.296196E+00  0.309241E+00  0.347227E+00
  0.406142E+00  0.477656E+00  0.549721E+00  0.612155E+00  0.660569E+00  0.693698E+00
  0.710315E+00  0.708874E+00  0.686710E+00  0.638588E+00  0.559242E+00  0.454286E+00
  0.348998E+00  0.271466E+00  0.229521E+00  0.216884E+00  0.229521E+00  0.271466E+00
  0.348998E+00  0.558353E+00  0.613876E+00  0.658587E+00  0.686710E+00  0.697901E+00
  0.693036E+00  0.672394E+00  0.636300E+00  0.585631E+00  0.521601E+00  0.447741E+00
  0.372906E+00  0.308521E+00  0.262635E+00  0.238988E+00  0.238988E+00  0.262635E+00
  0.308521E+00  0.372906E+00  0.447741E+00  0.521601E+00  0.585631E+00  0.636300E+00
  0.672394E+00  0.693036E+00  0.697901E+00  0.686710E+00  0.658587E+00  0.613876E+00
  0.558353E+00  0.504360E+00  0.464263E+00  0.443838E+00  0.443838E+00  0.464263E+00
  0.504360E+00  0.558353E+00  0.698583E+00  0.709580E+00  0.713788E+00  0.708874E+00
  0.693036E+00  0.664590E+00  0.622600E+00  0.567355E+00  0.499973E+00  0.423467E+00
  0.345579E+00  0.277114E+00  0.225771E+00  0.194467E+00  0.183971E+00  0.194467E+00
  0.225771E+00  0.277114E+00  0.345579E+00  0.423467E+00  0.499973E+00  0.567355E+00
  0.622600E+00  0.664590E+00  0.693036E+00  0.708874E+00  0.713788E+00  0.709580E+00
  0.698583E+00  0.684389E+00  0.671267E+00  0.662448E+00  0.659397E+00  0.662448E+00
  0.671267E+00  0.684389E+00  0.698583E+00  0.770919E+00  0.757348E+00  0.737875E+00
  0.710315E+00  0.672394E+00  0.622600E+00  0.560853E+00  0.488308E+00  0.407871E+00
  0.326445E+00  0.254168E+00  0.198609E+00  0.161995E+00  0.143941E+00  0.143941E+00
  0.161995E+00  0.198609E+00  0.254168E+00  0.326445E+00  0.407871E+00  0.488308E+00
  0.560853E+00  0.622600E+00  0.672394E+00  0.710315E+00  0.737875E+00  0.757348E+00
  0.770919E+00  0.780322E+00  0.786775E+00  0.790939E+00  0.793016E+00  0.793016E+00
  0.790939E+00  0.786775E+00  0.780322E+00  0.770919E+00  0.803211E+00  0.775474E+00
  0.739624E+00  0.693698E+00  0.636300E+00  0.567355E+00  0.488308E+00  0.402546E+00
  0.316781E+00  0.240457E+00  0.180953E+00  0.140247E+00  0.116948E+00  0.109394E+00
  0.116948E+00  0.140247E+00  0.180953E+00  0.240457E+00  0.316781E+00  0.402546E+00
  0.488308E+00  0.567355E+00  0.636300E+00  0.693698E+00  0.739624E+00  0.775474E+00
  0.803211E+00  0.824561E+00  0.840627E+00  0.851935E+00  0.858674E+00  0.860913E+00
  0.858674E+00  0.851935E+00  0.840627E+00  0.824561E+00  0.803211E+00  0.811996E+00
  0.773099E+00  0.723045E+00  0.660569E+00  0.585631E+00  0.499973E+00  0.407871E+00
  0.316781E+00  0.235949E+00  0.172350E+00  0.127860E+00  0.100574E+00  0.877738E-01
  0.877738E-01  0.100574E+00  0.127860E+00  0.172350E+00  0.235949E+00  0.316781E+00
  0.407871E+00  0.499973E+00  0.585631E+00  0.660569E+00  0.723045E+00  0.773099E+00
  0.811996E+00  0.841543E+00  0.863434E+00  0.878923E+00  0.888829E+00  0.893656E+00
  0.893656E+00  0.888829E+00  0.878923E+00  0.863434E+00  0.841543E+00  0.811996E+00
  0.803921E+00  0.753962E+00  0.690167E+00  0.612155E+00  0.521601E+00  0.423467E+00
  0.326445E+00  0.240457E+00  0.172350E+00  0.123849E+00  0.928909E-01  0.761236E-01
  0.708653E-01  0.761236E-01  0.928909E-01  0.123849E+00  0.172350E+00  0.240457E+00
  0.326445E+00  0.423467E+00  0.521601E+00  0.612155E+00  0.690167E+00  0.753962E+00
  0.803921E+00  0.841629E+00  0.869174E+00  0.888546E+00  0.901307E+00  0.908541E+00
  0.910882E+00  0.908541E+00  0.901307E+00  0.888546E+00  0.869174E+00  0.841629E+00
  0.803921E+00  0.781519E+00  0.719732E+00  0.642067E+00  0.549721E+00  0.447741E+00
  0.345579E+00  0.254168E+00  0.180953E+00  0.127860E+00  0.928909E-01  0.724664E-01
  0.632284E-01  0.632284E-01  0.724664E-01  0.928909E-01  0.127860E+00  0.180953E+00
  0.254168E+00  0.345579E+00  0.447741E+00  0.549721E+00  0.642067E+00  0.719732E+00
  0.781519E+00  0.828502E+00  0.862867E+00  0.887074E+00  0.903309E+00  0.913231E+00
  0.917925E+00  0.917925E+00  0.913231E+00  0.903309E+00  0.887074E+00  0.862867E+00
  0.828502E+00  0.781519E+00  0.745591E+00  0.670979E+00  0.580113E+00  0.477656E+00
  0.372906E+00  0.277114E+00  0.198609E+00  0.140247E+00  0.100574E+00  0.761236E-01
  0.632284E-01  0.592448E-01  0.632284E-01  0.761236E-01  0.100574E+00  0.140247E+00
  0.198609E+00  0.277114E+00  0.372906E+00  0.477656E+00  0.580113E+00  0.670979E+00
  0.745591E+00  0.803384E+00  0.846161E+00  0.876614E+00  0.897403E+00  0.910708E+00
  0.918080E+00  0.920437E+00  0.918080E+00  0.910708E+00  0.897403E+00  0.876614E+00
  0.846161E+00  0.803384E+00  0.745591E+00  0.696261E+00  0.609557E+00  0.510013E+00
  0.406142E+00  0.308521E+00  0.225771E+00  0.161995E+00  0.116948E+00  0.877738E-01
  0.708653E-01  0.632284E-01  0.632284E-01  0.708653E-01  0.877738E-01  0.116948E+00
  0.161995E+00  0.225771E+00  0.308521E+00  0.406142E+00  0.510013E+00  0.609557E+00
  0.696261E+00  0.766087E+00  0.819070E+00  0.857489E+00  0.884243E+00  0.901961E+00
  0.912663E+00  0.917684E+00  0.917684E+00  0.912663E+00  0.901961E+00  0.884243E+00
  0.857489E+00  0.819070E+00  0.766087E+00  0.696261E+00  0.636494E+00  0.542904E+00
  0.443365E+00  0.347227E+00  0.262635E+00  0.194467E+00  0.143941E+00  0.109394E+00
  0.877738E-01  0.761236E-01  0.724664E-01  0.761236E-01  0.877738E-01  0.109394E+00
  0.143941E+00  0.194467E+00  0.262635E+00  0.347227E+00  0.443365E+00  0.542904E+00
  0.636494E+00  0.716829E+00  0.780730E+00  0.828684E+00  0.863052E+00  0.886582E+00
  0.901650E+00  0.909997E+00  0.912665E+00  0.909997E+00  0.901650E+00  0.886582E+00
  0.863052E+00  0.828684E+00  0.780730E+00  0.716829E+00  0.636494E+00  0.575505E+00
  0.483640E+00  0.392463E+00  0.309241E+00  0.238988E+00  0.183971E+00  0.143941E+00
  0.116948E+00  0.100574E+00  0.928909E-01  0.928909E-01  0.100574E+00  0.116948E+00
  0.143941E+00  0.183971E+00  0.238988E+00  0.309241E+00  0.392463E+00  0.483640E+00
  0.575505E+00  0.660301E+00  0.732368E+00  0.789514E+00  0.832397E+00  0.863052E+00
  0.883758E+00  0.896443E+00  0.902446E+00  0.902446E+00  0.896443E+00  0.883758E+00
  0.863052E+00  0.832397E+00  0.789514E+00  0.732368E+00  0.660301E+00  0.575505E+00
  0.526112E+00  0.443516E+00  0.365293E+00  0.296196E+00  0.238988E+00  0.194467E+00
  0.161995E+00  0.140247E+00  0.127860E+00  0.123849E+00  0.127860E+00  0.140247E+00
  0.161995E+00  0.194467E+00  0.238988E+00  0.296196E+00  0.365293E+00  0.443516E+00
  0.526112E+00  0.607066E+00  0.680650E+00  0.743026E+00  0.792806E+00  0.830485E+00
  0.857489E+00  0.875418E+00  0.885603E+00  0.888901E+00  0.885603E+00  0.875418E+00
  0.857489E+00  0.830485E+00  0.792806E+00  0.743026E+00  0.680650E+00  0.607066E+00
  0.526112E+00  0.498783E+00  0.429436E+00  0.365293E+00  0.309241E+00  0.262635E+00
  0.225771E+00  0.198609E+00  0.180953E+00  0.172350E+00  0.172350E+00  0.180953E+00
  0.198609E+00  0.225771E+00  0.262635E+00  0.309241E+00  0.365293E+00  0.429436E+00
  0.498783E+00  0.569300E+00  0.636737E+00  0.697512E+00  0.749298E+00  0.791153E+00
  0.823206E+00  0.846161E+00  0.860867E+00  0.868026E+00  0.868026E+00  0.860867E+00
  0.846161E+00  0.823206E+00  0.791153E+00  0.749298E+00  0.697512E+00  0.636737E+00
  0.569300E+00  0.498783E+00  0.498783E+00  0.443516E+00  0.392463E+00  0.347227E+00
  0.308521E+00  0.277114E+00  0.254168E+00  0.240457E+00  0.235949E+00  0.240457E+00
  0.254168E+00  0.277114E+00  0.308521E+00  0.347227E+00  0.392463E+00  0.443516E+00
  0.498783E+00  0.555703E+00  0.611545E+00  0.663959E+00  0.711089E+00  0.751624E+00
  0.784830E+00  0.810442E+00  0.828502E+00  0.839203E+00  0.842743E+00  0.839203E+00
  0.828502E+00  0.810442E+00  0.784830E+00  0.751624E+00  0.711089E+00  0.663959E+00
  0.611545E+00  0.555703E+00  0.498783E+00  0.526112E+00  0.483640E+00  0.443365E+00
  0.406142E+00  0.372906E+00  0.345579E+00  0.326445E+00  0.316781E+00  0.316781E+00
  0.326445E+00  0.345579E+00  0.372906E+00  0.406142E+00  0.443365E+00  0.483640E+00
  0.526112E+00  0.569300E+00  0.611545E+00  0.651578E+00  0.688497E+00  0.721570E+00
  0.750167E+00  0.773732E+00  0.791772E+00  0.803921E+00  0.810011E+00  0.810011E+00
  0.803921E+00  0.791772E+00  0.773732E+00  0.750167E+00  0.721570E+00  0.688497E+00
  0.651578E+00  0.611545E+00  0.569300E+00  0.526112E+00  0.575505E+00  0.542904E+00
  0.510013E+00  0.477656E+00  0.447741E+00  0.423467E+00  0.407871E+00  0.402546E+00
  0.407871E+00  0.423467E+00  0.447741E+00  0.477656E+00  0.510013E+00  0.542904E+00
  0.575505E+00  0.607066E+00  0.636737E+00  0.663959E+00  0.688497E+00  0.710244E+00
  0.729141E+00  0.745125E+00  0.757992E+00  0.767405E+00  0.773099E+00  0.774995E+00
  0.773099E+00  0.767405E+00  0.757992E+00  0.745125E+00  0.729141E+00  0.710244E+00
  0.688497E+00  0.663959E+00  0.636737E+00  0.607066E+00  0.575505E+00  0.636494E+00
  0.609557E+00  0.580113E+00  0.549721E+00  0.521601E+00  0.499973E+00  0.488308E+00
  0.488308E+00  0.499973E+00  0.521601E+00  0.549721E+00  0.580113E+00  0.609557E+00
  0.636494E+00  0.660301E+00  0.680650E+00  0.697512E+00  0.711089E+00  0.721570E+00
  0.729141E+00  0.734179E+00  0.737237E+00  0.738850E+00  0.739487E+00  0.739624E+00
  0.739624E+00  0.739487E+00  0.738850E+00  0.737237E+00  0.734179E+00  0.729141E+00
  0.721570E+00  0.711089E+00  0.697512E+00  0.680650E+00  0.660301E+00  0.636494E+00
  0.696261E+00  0.670979E+00  0.642067E+00  0.612155E+00  0.585631E+00  0.567355E+00
  0.560853E+00  0.567355E+00  0.585631E+00  0.612155E+00  0.642067E+00  0.670979E+00
  0.696261E+00  0.716829E+00  0.732368E+00  0.743026E+00  0.749298E+00  0.751624E+00
  0.750167E+00  0.745125E+00  0.737237E+00  0.727923E+00  0.719067E+00  0.712662E+00
  0.710315E+00  0.712662E+00  0.719067E+00  0.727923E+00  0.737237E+00  0.745125E+00
  0.750167E+00  0.751624E+00  0.749298E+00  0.743026E+00  0.732368E+00  0.716829E+00
  0.696261E+00  0.745591E+00  0.719732E+00  0.690167E+00  0.660569E+00  0.636300E+00
  0.622600E+00  0.622600E+00  0.636300E+00  0.660569E+00  0.690167E+00  0.719732E+00
  0.745591E+00  0.766087E+00  0.780730E+00  0.789514E+00  0.792806E+00  0.791153E+00
  0.784830E+00  0.773732E+00  0.757992E+00  0.738850E+00  0.719067E+00  0.702516E+00
  0.693036E+00  0.693036E+00  0.702516E+00  0.719067E+00  0.738850E+00  0.757992E+00
  0.773732E+00  0.784830E+00  0.791153E+00  0.792806E+00  0.789514E+00  0.780730E+00
  0.766087E+00  0.745591E+00  0.781519E+00  0.753962E+00  0.723045E+00  0.693698E+00
  0.672394E+00  0.664590E+00  0.672394E+00  0.693698E+00  0.723045E+00  0.753962E+00
  0.781519E+00  0.803384E+00  0.819070E+00  0.828684E+00  0.832397E+00  0.830485E+00
  0.823206E+00  0.810442E+00  0.791772E+00  0.767405E+00  0.739487E+00  0.712662E+00
  0.693036E+00  0.685815E+00  0.693036E+00  0.712662E+00  0.739487E+00  0.767405E+00
  0.791772E+00  0.810442E+00  0.823206E+00  0.830485E+00  0.832397E+00  0.828684E+00
  0.819070E+00  0.803384E+00  0.781519E+00  0.803921E+00  0.773099E+00  0.739624E+00
  0.710315E+00  0.693036E+00  0.693036E+00  0.710315E+00  0.739624E+00  0.773099E+00
  0.803921E+00  0.828502E+00  0.846161E+00  0.857489E+00  0.863052E+00  0.863052E+00
  0.857489E+00  0.846161E+00  0.828502E+00  0.803921E+00  0.773099E+00  0.739624E+00
  0.710315E+00  0.693036E+00  0.693036E+00  0.710315E+00  0.739624E+00  0.773099E+00
  0.803921E+00  0.828502E+00  0.846161E+00  0.857489E+00  0.863052E+00  0.863052E+00
  0.857489E+00  0.846161E+00  0.828502E+00  0.803921E+00  0.811996E+00  0.775474E+00
  0.737875E+00  0.708874E+00  0.697901E+00  0.708874E+00  0.737875E+00  0.775474E+00
  0.811996E+00  0.841629E+00  0.862867E+00  0.876614E+00  0.884243E+00  0.886582E+00
  0.883758E+00  0.875418E+00  0.860867E+00  0.839203E+00  0.810011E+00  0.774995E+00
  0.739624E+00  0.712662E+00  0.702516E+00  0.712662E+00  0.739624E+00  0.774995E+00
  0.810011E+00  0.839203E+00  0.860867E+00  0.875418E+00  0.883758E+00  0.886582E+00
  0.884243E+00  0.876614E+00  0.862867E+00  0.841629E+00  0.811996E+00  0.803211E+00
  0.757348E+00  0.713788E+00  0.686710E+00  0.686710E+00  0.713788E+00  0.757348E+00
  0.803211E+00  0.841543E+00  0.869174E+00  0.887074E+00  0.897403E+00  0.901961E+00
  0.901650E+00  0.896443E+00  0.885603E+00  0.868026E+00  0.842743E+00  0.810011E+00
  0.773099E+00  0.739487E+00  0.719067E+00  0.719067E+00  0.739487E+00  0.773099E+00
  0.810011E+00  0.842743E+00  0.868026E+00  0.885603E+00  0.896443E+00  0.901650E+00
  0.901961E+00  0.897403E+00  0.887074E+00  0.869174E+00  0.841543E+00  0.803211E+00
  0.770919E+00  0.709580E+00  0.658587E+00  0.638588E+00  0.658587E+00  0.709580E+00
  0.770919E+00  0.824561E+00  0.863434E+00  0.888546E+00  0.903309E+00  0.910708E+00
  0.912663E+00  0.909997E+00  0.902446E+00  0.888901E+00  0.868026E+00  0.839203E+00
  0.803921E+00  0.767405E+00  0.738850E+00  0.727923E+00  0.738850E+00  0.767405E+00
  0.803921E+00  0.839203E+00  0.868026E+00  0.888901E+00  0.902446E+00  0.909997E+00
  0.912663E+00  0.910708E+00  0.903309E+00  0.888546E+00  0.863434E+00  0.824561E+00
  0.770919E+00  0.698583E+00  0.613876E+00  0.559242E+00  0.559242E+00  0.613876E+00
  0.698583E+00  0.780322E+00  0.840627E+00  0.878923E+00  0.901307E+00  0.913231E+00
  0.918080E+00  0.917684E+00  0.912665E+00  0.902446E+00  0.885603E+00  0.860867E+00
  0.828502E+00  0.791772E+00  0.757992E+00  0.737237E+00  0.737237E+00  0.757992E+00
  0.791772E+00  0.828502E+00  0.860867E+00  0.885603E+00  0.902446E+00  0.912665E+00
  0.917684E+00  0.918080E+00  0.913231E+00  0.901307E+00  0.878923E+00  0.840627E+00
  0.780322E+00  0.698583E+00  0.558353E+00  0.454286E+00  0.415066E+00  0.454286E+00
  0.558353E+00  0.684389E+00  0.786775E+00  0.851935E+00  0.888829E+00  0.908541E+00
  0.917925E+00  0.920437E+00  0.917684E+00  0.909997E+00  0.896443E+00  0.875418E+00
  0.846161E+00  0.810442E+00  0.773732E+00  0.745125E+00  0.734179E+00  0.745125E+00
  0.773732E+00  0.810442E+00  0.846161E+00  0.875418E+00  0.896443E+00  0.909997E+00
  0.917684E+00  0.920437E+00  0.917925E+00  0.908541E+00  0.888829E+00  0.851935E+00
  0.786775E+00  0.684389E+00  0.558353E+00  0.348998E+00  0.264971E+00  0.264971E+00
  0.348998E+00  0.504360E+00  0.671267E+00  0.790939E+00  0.858674E+00  0.893656E+00
  0.910882E+00  0.917925E+00  0.918080E+00  0.912663E+00  0.901650E+00  0.883758E+00
  0.857489E+00  0.823206E+00  0.784830E+00  0.750167E+00  0.729141E+00  0.729141E+00
  0.750167E+00  0.784830E+00  0.823206E+00  0.857489E+00  0.883758E+00  0.901650E+00
  0.912663E+00  0.918080E+00  0.917925E+00  0.910882E+00  0.893656E+00  0.858674E+00
  0.790939E+00  0.671267E+00  0.504360E+00  0.348998E+00  0.160773E+00  0.128976E+00
  0.160773E+00  0.271466E+00  0.464263E+00  0.662448E+00  0.793016E+00  0.860913E+00
  0.893656E+00  0.908541E+00  0.913231E+00  0.910708E+00  0.901961E+00  0.886582E+00
  0.863052E+00  0.830485E+00  0.791153E+00  0.751624E+00  0.721570E+00  0.710244E+00
  0.721570E+00  0.751624E+00  0.791153E+00  0.830485E+00  0.863052E+00  0.886582E+00
  0.901961E+00  0.910708E+00  0.913231E+00  0.908541E+00  0.893656E+00  0.860913E+00
  0.793016E+00  0.662448E+00  0.464263E+00  0.271466E+00  0.160773E+00  0.679346E-01
  0.679346E-01  0.109806E+00  0.229521E+00  0.443838E+00  0.659397E+00  0.793016E+00
  0.858674E+00  0.888829E+00  0.901307E+00  0.903309E+00  0.897403E+00  0.884243E+00
  0.863052E+00  0.832397E+00  0.792806E+00  0.749298E+00  0.711089E+00  0.688497E+00
  0.688497E+00  0.711089E+00  0.749298E+00  0.792806E+00  0.832397E+00  0.863052E+00
  0.884243E+00  0.897403E+00  0.903309E+00  0.901307E+00  0.888829E+00  0.858674E+00
  0.793016E+00  0.659397E+00  0.443838E+00  0.229521E+00  0.109806E+00  0.679346E-01
  0.390039E-01  0.482593E-01  0.915576E-01  0.216884E+00  0.443838E+00  0.662448E+00
  0.790939E+00  0.851935E+00  0.878923E+00  0.888546E+00  0.887074E+00  0.876614E+00
  0.857489E+00  0.828684E+00  0.789514E+00  0.743026E+00  0.697512E+00  0.663959E+00
  0.651578E+00  0.663959E+00  0.697512E+00  0.743026E+00  0.789514E+00  0.828684E+00
  0.857489E+00  0.876614E+00  0.887074E+00  0.888546E+00  0.878923E+00  0.851935E+00
  0.790939E+00  0.662448E+00  0.443838E+00  0.216884E+00  0.915576E-01  0.482593E-01
  0.390039E-01  0.340784E-01  0.444108E-01  0.915576E-01  0.229521E+00  0.464263E+00
  0.671267E+00  0.786775E+00  0.840627E+00  0.863434E+00  0.869174E+00  0.862867E+00
  0.846161E+00  0.819070E+00  0.780730E+00  0.732368E+00  0.680650E+00  0.636737E+00
  0.611545E+00  0.611545E+00  0.636737E+00  0.680650E+00  0.732368E+00  0.780730E+00
  0.819070E+00  0.846161E+00  0.862867E+00  0.869174E+00  0.863434E+00  0.840627E+00
  0.786775E+00  0.671267E+00  0.464263E+00  0.229521E+00  0.915576E-01  0.444108E-01
  0.340784E-01  0.340784E-01  0.340784E-01  0.482593E-01  0.109806E+00  0.271466E+00
  0.504360E+00  0.684389E+00  0.780322E+00  0.824561E+00  0.841543E+00  0.841629E+00
  0.828502E+00  0.803384E+00  0.766087E+00  0.716829E+00  0.660301E+00  0.607066E+00
  0.569300E+00  0.555703E+00  0.569300E+00  0.607066E+00  0.660301E+00  0.716829E+00
  0.766087E+00  0.803384E+00  0.828502E+00  0.841629E+00  0.841543E+00  0.824561E+00
  0.780322E+00  0.684389E+00  0.504360E+00  0.271466E+00  0.109806E+00  0.482593E-01
  0.340784E-01  0.338326E-01  0.340784E-01  0.390039E-01  0.679346E-01  0.160773E+00
  0.348998E+00  0.558353E+00  0.698583E+00  0.770919E+00  0.803211E+00  0.811996E+00
  0.803921E+00  0.781519E+00  0.745591E+00  0.696261E+00  0.636494E+00  0.575505E+00
  0.526112E+00  0.498783E+00  0.498783E+00  0.526112E+00  0.575505E+00  0.636494E+00
  0.696261E+00  0.745591E+00  0.781519E+00  0.803921E+00  0.811996E+00  0.803211E+00
  0.770919E+00  0.698583E+00  0.558353E+00  0.348998E+00  0.160773E+00  0.679346E-01
  0.390039E-01  0.340784E-01  0.340784E-01  0.390039E-01  0.229049E+00  0.294237E+00
  0.417237E+00  0.558353E+00  0.667685E+00  0.733036E+00  0.765321E+00  0.775073E+00
  0.767405E+00  0.744410E+00  0.707044E+00  0.655630E+00  0.592350E+00  0.525078E+00
  0.466115E+00  0.426430E+00  0.412515E+00  0.426430E+00  0.466115E+00  0.525078E+00
  0.592350E+00  0.655630E+00  0.707044E+00  0.744410E+00  0.767405E+00  0.775073E+00
  0.765321E+00  0.733036E+00  0.667685E+00  0.558353E+00  0.417237E+00  0.294237E+00
  0.229049E+00  0.214687E+00  0.217212E+00  0.214687E+00  0.229049E+00  0.294237E+00
  0.386134E+00  0.505925E+00  0.613876E+00  0.687087E+00  0.727310E+00  0.742967E+00
  0.739487E+00  0.719263E+00  0.683598E+00  0.633212E+00  0.569526E+00  0.498600E+00
  0.432040E+00  0.381590E+00  0.354731E+00  0.354731E+00  0.381590E+00  0.432040E+00
  0.498600E+00  0.569526E+00  0.633212E+00  0.683598E+00  0.719263E+00  0.739487E+00
  0.742967E+00  0.727310E+00  0.687087E+00  0.613876E+00  0.505925E+00  0.386134E+00
  0.294237E+00  0.247506E+00  0.233054E+00  0.233054E+00  0.247506E+00  0.294237E+00
  0.417237E+00  0.505925E+00  0.593073E+00  0.658587E+00  0.697878E+00  0.714670E+00
  0.712662E+00  0.693633E+00  0.658698E+00  0.608849E+00  0.545284E+00  0.472532E+00
  0.400887E+00  0.342200E+00  0.304477E+00  0.291536E+00  0.304477E+00  0.342200E+00
  0.400887E+00  0.472532E+00  0.545284E+00  0.608849E+00  0.658698E+00  0.693633E+00
  0.712662E+00  0.714670E+00  0.697878E+00  0.658587E+00  0.593073E+00  0.505925E+00
  0.417237E+00  0.350933E+00  0.315231E+00  0.304696E+00  0.315231E+00  0.350933E+00
  0.417237E+00  0.558353E+00  0.613876E+00  0.658587E+00  0.686710E+00  0.697901E+00
  0.693036E+00  0.672394E+00  0.636300E+00  0.585631E+00  0.521601E+00  0.447741E+00
  0.372906E+00  0.308521E+00  0.262635E+00  0.238988E+00  0.238988E+00  0.262635E+00
  0.308521E+00  0.372906E+00  0.447741E+00  0.521601E+00  0.585631E+00  0.636300E+00
  0.672394E+00  0.693036E+00  0.697901E+00  0.686710E+00  0.658587E+00  0.613876E+00
  0.558353E+00  0.504360E+00  0.464263E+00  0.443838E+00  0.443838E+00  0.464263E+00
  0.504360E+00  0.558353E+00  0.667685E+00  0.687087E+00  0.697878E+00  0.697901E+00
  0.685815E+00  0.660328E+00  0.620732E+00  0.567446E+00  0.501651E+00  0.426317E+00
  0.349066E+00  0.280716E+00  0.229171E+00  0.197613E+00  0.187010E+00  0.197613E+00
  0.229171E+00  0.280716E+00  0.349066E+00  0.426317E+00  0.501651E+00  0.567446E+00
  0.620732E+00  0.660328E+00  0.685815E+00  0.697901E+00  0.697878E+00  0.687087E+00
  0.667685E+00  0.643880E+00  0.621549E+00  0.606031E+00  0.600524E+00  0.606031E+00
  0.621549E+00  0.643880E+00  0.667685E+00  0.733036E+00  0.727310E+00  0.714670E+00
  0.693036E+00  0.660328E+00  0.615168E+00  0.557521E+00  0.488490E+00  0.410778E+00
  0.331037E+00  0.259404E+00  0.203763E+00  0.166758E+00  0.148389E+00  0.148389E+00
  0.166758E+00  0.203763E+00  0.259404E+00  0.331037E+00  0.410778E+00  0.488490E+00
  0.557521E+00  0.615168E+00  0.660328E+00  0.693036E+00  0.714670E+00  0.727310E+00
  0.733036E+00  0.733870E+00  0.731923E+00  0.729236E+00  0.727435E+00  0.727435E+00
  0.729236E+00  0.731923E+00  0.733870E+00  0.733036E+00  0.765321E+00  0.742967E+00
  0.712662E+00  0.672394E+00  0.620732E+00  0.557521E+00  0.483928E+00  0.402753E+00
  0.320079E+00  0.245252E+00  0.186104E+00  0.145151E+00  0.121460E+00  0.113729E+00
  0.121460E+00  0.145151E+00  0.186104E+00  0.245252E+00  0.320079E+00  0.402753E+00
  0.483928E+00  0.557521E+00  0.620732E+00  0.672394E+00  0.712662E+00  0.742967E+00
  0.765321E+00  0.781559E+00  0.793025E+00  0.800604E+00  0.804888E+00  0.806267E+00
  0.804888E+00  0.800604E+00  0.793025E+00  0.781559E+00  0.765321E+00  0.775073E+00
  0.739487E+00  0.693633E+00  0.636300E+00  0.567446E+00  0.488490E+00  0.402753E+00
  0.316458E+00  0.238331E+00  0.175818E+00  0.131505E+00  0.104008E+00  0.909892E-01
  0.909892E-01  0.104008E+00  0.131505E+00  0.175818E+00  0.238331E+00  0.316458E+00
  0.402753E+00  0.488490E+00  0.567446E+00  0.636300E+00  0.693633E+00  0.739487E+00
  0.775073E+00  0.802133E+00  0.822259E+00  0.836570E+00  0.845759E+00  0.850245E+00
  0.850245E+00  0.845759E+00  0.836570E+00  0.822259E+00  0.802133E+00  0.775073E+00
  0.767405E+00  0.719263E+00  0.658698E+00  0.585631E+00  0.501651E+00  0.410778E+00
  0.320079E+00  0.238331E+00  0.172460E+00  0.124903E+00  0.942128E-01  0.774401E-01
  0.721514E-01  0.774401E-01  0.942128E-01  0.124903E+00  0.172460E+00  0.238331E+00
  0.320079E+00  0.410778E+00  0.501651E+00  0.585631E+00  0.658698E+00  0.719263E+00
  0.767405E+00  0.804360E+00  0.831886E+00  0.851650E+00  0.864917E+00  0.872543E+00
  0.875029E+00  0.872543E+00  0.864917E+00  0.851650E+00  0.831886E+00  0.804360E+00
  0.767405E+00  0.744410E+00  0.683598E+00  0.608849E+00  0.521601E+00  0.426317E+00
  0.331037E+00  0.245252E+00  0.175818E+00  0.124903E+00  0.910503E-01  0.711363E-01
  0.620888E-01  0.620888E-01  0.711363E-01  0.910503E-01  0.124903E+00  0.175818E+00
  0.245252E+00  0.331037E+00  0.426317E+00  0.521601E+00  0.608849E+00  0.683598E+00
  0.744410E+00  0.791772E+00  0.827277E+00  0.852917E+00  0.870516E+00  0.881476E+00
  0.886724E+00  0.886724E+00  0.881476E+00  0.870516E+00  0.852917E+00  0.827277E+00
  0.791772E+00  0.744410E+00  0.707044E+00  0.633212E+00  0.545284E+00  0.447741E+00
  0.349066E+00  0.259404E+00  0.186104E+00  0.131505E+00  0.942128E-01  0.711363E-01
  0.589448E-01  0.551780E-01  0.589448E-01  0.711363E-01  0.942128E-01  0.131505E+00
  0.186104E+00  0.259404E+00  0.349066E+00  0.447741E+00  0.545284E+00  0.633212E+00
  0.707044E+00  0.765762E+00  0.810442E+00  0.843118E+00  0.865986E+00  0.880931E+00
  0.889340E+00  0.892051E+00  0.889340E+00  0.880931E+00  0.865986E+00  0.843118E+00
  0.810442E+00  0.765762E+00  0.707044E+00  0.655630E+00  0.569526E+00  0.472532E+00
  0.372906E+00  0.280716E+00  0.203763E+00  0.145151E+00  0.104008E+00  0.774401E-01
  0.620888E-01  0.551780E-01  0.551780E-01  0.620888E-01  0.774401E-01  0.104008E+00
  0.145151E+00  0.203763E+00  0.280716E+00  0.372906E+00  0.472532E+00  0.569526E+00
  0.655630E+00  0.726635E+00  0.781976E+00  0.823206E+00  0.852646E+00  0.872569E+00
  0.884808E+00  0.890613E+00  0.890613E+00  0.884808E+00  0.872569E+00  0.852646E+00
  0.823206E+00  0.781976E+00  0.726635E+00  0.655630E+00  0.592350E+00  0.498600E+00
  0.400887E+00  0.308521E+00  0.229171E+00  0.166758E+00  0.121460E+00  0.909892E-01
  0.721514E-01  0.620888E-01  0.589448E-01  0.620888E-01  0.721514E-01  0.909892E-01
  0.121460E+00  0.166758E+00  0.229171E+00  0.308521E+00  0.400887E+00  0.498600E+00
  0.592350E+00  0.674555E+00  0.741465E+00  0.792854E+00  0.830485E+00  0.856730E+00
  0.873792E+00  0.883345E+00  0.886415E+00  0.883345E+00  0.873792E+00  0.856730E+00
  0.830485E+00  0.792854E+00  0.741465E+00  0.674555E+00  0.592350E+00  0.525078E+00
  0.432040E+00  0.342200E+00  0.262635E+00  0.197613E+00  0.148389E+00  0.113729E+00
  0.909892E-01  0.774401E-01  0.711363E-01  0.711363E-01  0.774401E-01  0.909892E-01
  0.113729E+00  0.148389E+00  0.197613E+00  0.262635E+00  0.342200E+00  0.432040E+00
  0.525078E+00  0.613096E+00  0.689542E+00  0.751302E+00  0.798359E+00  0.832397E+00
  0.855590E+00  0.869890E+00  0.876685E+00  0.876685E+00  0.869890E+00  0.855590E+00
  0.832397E+00  0.798359E+00  0.751302E+00  0.689542E+00  0.613096E+00  0.525078E+00
  0.466115E+00  0.381590E+00  0.304477E+00  0.238988E+00  0.187010E+00  0.148389E+00
  0.121460E+00  0.104008E+00  0.942128E-01  0.910503E-01  0.942128E-01  0.104008E+00
  0.121460E+00  0.148389E+00  0.187010E+00  0.238988E+00  0.304477E+00  0.381590E+00
  0.466115E+00  0.551750E+00  0.631625E+00  0.700534E+00  0.756099E+00  0.798359E+00
  0.828684E+00  0.848811E+00  0.860241E+00  0.863941E+00  0.860241E+00  0.848811E+00
  0.828684E+00  0.798359E+00  0.756099E+00  0.700534E+00  0.631625E+00  0.551750E+00
  0.466115E+00  0.426430E+00  0.354731E+00  0.291536E+00  0.238988E+00  0.197613E+00
  0.166758E+00  0.145151E+00  0.131505E+00  0.124903E+00  0.124903E+00  0.131505E+00
  0.145151E+00  0.166758E+00  0.197613E+00  0.238988E+00  0.291536E+00  0.354731E+00
  0.426430E+00  0.502683E+00  0.578216E+00  0.647787E+00  0.707624E+00  0.755998E+00
  0.792854E+00  0.819070E+00  0.835769E+00  0.843871E+00  0.843871E+00  0.835769E+00
  0.819070E+00  0.792854E+00  0.755998E+00  0.707624E+00  0.647787E+00  0.578216E+00
  0.502683E+00  0.426430E+00  0.412515E+00  0.354731E+00  0.304477E+00  0.262635E+00
  0.229171E+00  0.203763E+00  0.186104E+00  0.175818E+00  0.172460E+00  0.175818E+00
  0.186104E+00  0.203763E+00  0.229171E+00  0.262635E+00  0.304477E+00  0.354731E+00
  0.412515E+00  0.475622E+00  0.540677E+00  0.603784E+00  0.661396E+00  0.710989E+00
  0.751277E+00  0.781976E+00  0.803384E+00  0.815975E+00  0.820125E+00  0.815975E+00
  0.803384E+00  0.781976E+00  0.751277E+00  0.710989E+00  0.661396E+00  0.603784E+00
  0.540677E+00  0.475622E+00  0.412515E+00  0.426430E+00  0.381590E+00  0.342200E+00
  0.308521E+00  0.280716E+00  0.259404E+00  0.245252E+00  0.238331E+00  0.238331E+00
  0.245252E+00  0.259404E+00  0.280716E+00  0.308521E+00  0.342200E+00  0.381590E+00
  0.426430E+00  0.475622E+00  0.527183E+00  0.578695E+00  0.627760E+00  0.672303E+00
  0.710759E+00  0.742102E+00  0.765762E+00  0.781519E+00  0.789369E+00  0.789369E+00
  0.781519E+00  0.765762E+00  0.742102E+00  0.710759E+00  0.672303E+00  0.627760E+00
  0.578695E+00  0.527183E+00  0.475622E+00  0.426430E+00  0.466115E+00  0.432040E+00
  0.400887E+00  0.372906E+00  0.349066E+00  0.331037E+00  0.320079E+00  0.316458E+00
  0.320079E+00  0.331037E+00  0.349066E+00  0.372906E+00  0.400887E+00  0.432040E+00
  0.466115E+00  0.502683E+00  0.540677E+00  0.578695E+00  0.615394E+00  0.649635E+00
  0.680479E+00  0.707087E+00  0.728638E+00  0.744410E+00  0.753962E+00  0.757150E+00
  0.753962E+00  0.744410E+00  0.728638E+00  0.707087E+00  0.680479E+00  0.649635E+00
  0.615394E+00  0.578695E+00  0.540677E+00  0.502683E+00  0.466115E+00  0.525078E+00
  0.498600E+00  0.472532E+00  0.447741E+00  0.426317E+00  0.410778E+00  0.402753E+00
  0.402753E+00  0.410778E+00  0.426317E+00  0.447741E+00  0.472532E+00  0.498600E+00
  0.525078E+00  0.551750E+00  0.578216E+00  0.603784E+00  0.627760E+00  0.649635E+00
  0.669144E+00  0.686171E+00  0.700498E+00  0.711682E+00  0.719263E+00  0.723045E+00
  0.723045E+00  0.719263E+00  0.711682E+00  0.700498E+00  0.686171E+00  0.669144E+00
  0.649635E+00  0.627760E+00  0.603784E+00  0.578216E+00  0.551750E+00  0.525078E+00
  0.592350E+00  0.569526E+00  0.545284E+00  0.521601E+00  0.501651E+00  0.488490E+00
  0.483928E+00  0.488490E+00  0.501651E+00  0.521601E+00  0.545284E+00  0.569526E+00
  0.592350E+00  0.613096E+00  0.631625E+00  0.647787E+00  0.661396E+00  0.672303E+00
  0.680479E+00  0.686171E+00  0.689879E+00  0.692111E+00  0.693241E+00  0.693633E+00
  0.693698E+00  0.693633E+00  0.693241E+00  0.692111E+00  0.689879E+00  0.686171E+00
  0.680479E+00  0.672303E+00  0.661396E+00  0.647787E+00  0.631625E+00  0.613096E+00
  0.592350E+00  0.655630E+00  0.633212E+00  0.608849E+00  0.585631E+00  0.567446E+00
  0.557521E+00  0.557521E+00  0.567446E+00  0.585631E+00  0.608849E+00  0.633212E+00
  0.655630E+00  0.674555E+00  0.689542E+00  0.700534E+00  0.707624E+00  0.710989E+00
  0.710759E+00  0.707087E+00  0.700498E+00  0.692111E+00  0.683508E+00  0.676418E+00
  0.672394E+00  0.672394E+00  0.676418E+00  0.683508E+00  0.692111E+00  0.700498E+00
  0.707087E+00  0.710759E+00  0.710989E+00  0.707624E+00  0.700534E+00  0.689542E+00
  0.674555E+00  0.655630E+00  0.707044E+00  0.683598E+00  0.658698E+00  0.636300E+00
  0.620732E+00  0.615168E+00  0.620732E+00  0.636300E+00  0.658698E+00  0.683598E+00
  0.707044E+00  0.726635E+00  0.741465E+00  0.751302E+00  0.756099E+00  0.755998E+00
  0.751277E+00  0.742102E+00  0.728638E+00  0.711682E+00  0.693241E+00  0.676418E+00
  0.664590E+00  0.660328E+00  0.664590E+00  0.676418E+00  0.693241E+00  0.711682E+00
  0.728638E+00  0.742102E+00  0.751277E+00  0.755998E+00  0.756099E+00  0.751302E+00
  0.741465E+00  0.726635E+00  0.707044E+00  0.744410E+00  0.719263E+00  0.693633E+00
  0.672394E+00  0.660328E+00  0.660328E+00  0.672394E+00  0.693633E+00  0.719263E+00
  0.744410E+00  0.765762E+00  0.781976E+00  0.792854E+00  0.798359E+00  0.798359E+00
  0.792854E+00  0.781976E+00  0.765762E+00  0.744410E+00  0.719263E+00  0.693633E+00
  0.672394E+00  0.660328E+00  0.660328E+00  0.672394E+00  0.693633E+00  0.719263E+00
  0.744410E+00  0.765762E+00  0.781976E+00  0.792854E+00  0.798359E+00  0.798359E+00
  0.792854E+00  0.781976E+00  0.765762E+00  0.744410E+00  0.767405E+00  0.739487E+00
  0.712662E+00  0.693036E+00  0.685815E+00  0.693036E+00  0.712662E+00  0.739487E+00
  0.767405E+00  0.791772E+00  0.810442E+00  0.823206E+00  0.830485E+00  0.832397E+00
  0.828684E+00  0.819070E+00  0.803384E+00  0.781519E+00  0.753962E+00  0.723045E+00
  0.693698E+00  0.672394E+00  0.664590E+00  0.672394E+00  0.693698E+00  0.723045E+00
  0.753962E+00  0.781519E+00  0.803384E+00  0.819070E+00  0.828684E+00  0.832397E+00
  0.830485E+00  0.823206E+00  0.810442E+00  0.791772E+00  0.767405E+00  0.775073E+00
  0.742967E+00  0.714670E+00  0.697901E+00  0.697901E+00  0.714670E+00  0.742967E+00
  0.775073E+00  0.804360E+00  0.827277E+00  0.843118E+00  0.852646E+00  0.856730E+00
  0.855590E+00  0.848811E+00  0.835769E+00  0.815975E+00  0.789369E+00  0.757150E+00
  0.723045E+00  0.693633E+00  0.676418E+00  0.676418E+00  0.693633E+00  0.723045E+00
  0.757150E+00  0.789369E+00  0.815975E+00  0.835769E+00  0.848811E+00  0.855590E+00
  0.856730E+00  0.852646E+00  0.843118E+00  0.827277E+00  0.804360E+00  0.775073E+00
  0.765321E+00  0.727310E+00  0.697878E+00  0.686710E+00  0.697878E+00  0.727310E+00
  0.765321E+00  0.802133E+00  0.831886E+00  0.852917E+00  0.865986E+00  0.872569E+00
  0.873792E+00  0.869890E+00  0.860241E+00  0.843871E+00  0.820125E+00  0.789369E+00
  0.753962E+00  0.719263E+00  0.693241E+00  0.683508E+00  0.693241E+00  0.719263E+00
  0.753962E+00  0.789369E+00  0.820125E+00  0.843871E+00  0.860241E+00  0.869890E+00
  0.873792E+00  0.872569E+00  0.865986E+00  0.852917E+00  0.831886E+00  0.802133E+00
  0.765321E+00  0.733036E+00  0.687087E+00  0.658587E+00  0.658587E+00  0.687087E+00
  0.733036E+00  0.781559E+00  0.822259E+00  0.851650E+00  0.870516E+00  0.880931E+00
  0.884808E+00  0.883345E+00  0.876685E+00  0.863941E+00  0.843871E+00  0.815975E+00
  0.781519E+00  0.744410E+00  0.711682E+00  0.692111E+00  0.692111E+00  0.711682E+00
  0.744410E+00  0.781519E+00  0.815975E+00  0.843871E+00  0.863941E+00  0.876685E+00
  0.883345E+00  0.884808E+00  0.880931E+00  0.870516E+00  0.851650E+00  0.822259E+00
  0.781559E+00  0.733036E+00  0.667685E+00  0.613876E+00  0.593073E+00  0.613876E+00
  0.667685E+00  0.733870E+00  0.793025E+00  0.836570E+00  0.864917E+00  0.881476E+00
  0.889340E+00  0.890613E+00  0.886415E+00  0.876685E+00  0.860241E+00  0.835769E+00
  0.803384E+00  0.765762E+00  0.728638E+00  0.700498E+00  0.689879E+00  0.700498E+00
  0.728638E+00  0.765762E+00  0.803384E+00  0.835769E+00  0.860241E+00  0.876685E+00
  0.886415E+00  0.890613E+00  0.889340E+00  0.881476E+00  0.864917E+00  0.836570E+00
  0.793025E+00  0.733870E+00  0.667685E+00  0.558353E+00  0.505925E+00  0.505925E+00
  0.558353E+00  0.643880E+00  0.731923E+00  0.800604E+00  0.845759E+00  0.872543E+00
  0.886724E+00  0.892051E+00  0.890613E+00  0.883345E+00  0.869890E+00  0.848811E+00
  0.819070E+00  0.781976E+00  0.742102E+00  0.707087E+00  0.686171E+00  0.686171E+00
  0.707087E+00  0.742102E+00  0.781976E+00  0.819070E+00  0.848811E+00  0.869890E+00
  0.883345E+00  0.890613E+00  0.892051E+00  0.886724E+00  0.872543E+00  0.845759E+00
  0.800604E+00  0.731923E+00  0.643880E+00  0.558353E+00  0.417237E+00  0.386134E+00
  0.417237E+00  0.504360E+00  0.621549E+00  0.729236E+00  0.804888E+00  0.850245E+00
  0.875029E+00  0.886724E+00  0.889340E+00  0.884808E+00  0.873792E+00  0.855590E+00
  0.828684E+00  0.792854E+00  0.751277E+00  0.710759E+00  0.680479E+00  0.669144E+00
  0.680479E+00  0.710759E+00  0.751277E+00  0.792854E+00  0.828684E+00  0.855590E+00
  0.873792E+00  0.884808E+00  0.889340E+00  0.886724E+00  0.875029E+00  0.850245E+00
  0.804888E+00  0.729236E+00  0.621549E+00  0.504360E+00  0.417237E+00  0.294237E+00
  0.294237E+00  0.350933E+00  0.464263E+00  0.606031E+00  0.727435E+00  0.806267E+00
  0.850245E+00  0.872543E+00  0.881476E+00  0.880931E+00  0.872569E+00  0.856730E+00
  0.832397E+00  0.798359E+00  0.755998E+00  0.710989E+00  0.672303E+00  0.649635E+00
  0.649635E+00  0.672303E+00  0.710989E+00  0.755998E+00  0.798359E+00  0.832397E+00
  0.856730E+00  0.872569E+00  0.880931E+00  0.881476E+00  0.872543E+00  0.850245E+00
  0.806267E+00  0.727435E+00  0.606031E+00  0.464263E+00  0.350933E+00  0.294237E+00
  0.229049E+00  0.247506E+00  0.315231E+00  0.443838E+00  0.600524E+00  0.727435E+00
  0.804888E+00  0.845759E+00  0.864917E+00  0.870516E+00  0.865986E+00  0.852646E+00
  0.830485E+00  0.798359E+00  0.756099E+00  0.707624E+00  0.661396E+00  0.627760E+00
  0.615394E+00  0.627760E+00  0.661396E+00  0.707624E+00  0.756099E+00  0.798359E+00
  0.830485E+00  0.852646E+00  0.865986E+00  0.870516E+00  0.864917E+00  0.845759E+00
  0.804888E+00  0.727435E+00  0.600524E+00  0.443838E+00  0.315231E+00  0.247506E+00
  0.229049E+00  0.214687E+00  0.233054E+00  0.304696E+00  0.443838E+00  0.606031E+00
  0.729236E+00  0.800604E+00  0.836570E+00  0.851650E+00  0.852917E+00  0.843118E+00
  0.823206E+00  0.792854E+00  0.751302E+00  0.700534E+00  0.647787E+00  0.603784E+00
  0.578695E+00  0.578695E+00  0.603784E+00  0.647787E+00  0.700534E+00  0.751302E+00
  0.792854E+00  0.823206E+00  0.843118E+00  0.852917E+00  0.851650E+00  0.836570E+00
  0.800604E+00  0.729236E+00  0.606031E+00  0.443838E+00  0.304696E+00  0.233054E+00
  0.214687E+00  0.214687E+00  0.217212E+00  0.233054E+00  0.315231E+00  0.464263E+00
  0.621549E+00  0.731923E+00  0.793025E+00  0.822259E+00  0.831886E+00  0.827277E+00
  0.810442E+00  0.781976E+00  0.741465E+00  0.689542E+00  0.631625E+00  0.578216E+00
  0.540677E+00  0.527183E+00  0.540677E+00  0.578216E+00  0.631625E+00  0.689542E+00
  0.741465E+00  0.781976E+00  0.810442E+00  0.827277E+00  0.831886E+00  0.822259E+00
  0.793025E+00  0.731923E+00  0.621549E+00  0.464263E+00  0.315231E+00  0.233054E+00
  0.217212E+00  0.223792E+00  0.217212E+00  0.214687E+00  0.247506E+00  0.350933E+00
  0.504360E+00  0.643880E+00  0.733870E+00  0.781559E+00  0.802133E+00  0.804360E+00
  0.791772E+00  0.765762E+00  0.726635E+00  0.674555E+00  0.613096E+00  0.551750E+00
  0.502683E+00  0.475622E+00  0.475622E+00  0.502683E+00  0.551750E+00  0.613096E+00
  0.674555E+00  0.726635E+00  0.765762E+00  0.791772E+00  0.804360E+00  0.802133E+00
  0.781559E+00  0.733870E+00  0.643880E+00  0.504360E+00  0.350933E+00  0.247506E+00
  0.214687E+00  0.223792E+00  0.223792E+00  0.214687E+00  0.229049E+00  0.294237E+00
  0.417237E+00  0.558353E+00  0.667685E+00  0.733036E+00  0.765321E+00  0.775073E+00
  0.767405E+00  0.744410E+00  0.707044E+00  0.655630E+00  0.592350E+00  0.525078E+00
  0.466115E+00  0.426430E+00  0.412515E+00  0.426430E+00  0.466115E+00  0.525078E+00
  0.592350E+00  0.655630E+00  0.707044E+00  0.744410E+00  0.767405E+00  0.775073E+00
  0.765321E+00  0.733036E+00  0.667685E+00  0.558353E+00  0.417237E+00  0.294237E+00
  0.229049E+00  0.214687E+00  0.217212E+00  0.214687E+00  0.229049E+00  0.560227E+00
  0.595061E+00  0.648433E+00  0.698583E+00  0.733036E+00  0.750168E+00  0.751767E+00
  0.738850E+00  0.711682E+00  0.670570E+00  0.615745E+00  0.548807E+00  0.476436E+00
  0.410136E+00  0.360589E+00  0.334345E+00  0.334345E+00  0.360589E+00  0.410136E+00
  0.476436E+00  0.548807E+00  0.615745E+00  0.670570E+00  0.711682E+00  0.738850E+00
  0.751767E+00  0.750168E+00  0.733036E+00  0.698583E+00  0.648433E+00  0.595061E+00
  0.560227E+00  0.555109E+00  0.564518E+00  0.564518E+00  0.555109E+00  0.560227E+00
  0.595061E+00  0.635102E+00  0.677313E+00  0.709580E+00  0.727310E+00  0.730373E+00
  0.719067E+00  0.693241E+00  0.653061E+00  0.599008E+00  0.532190E+00  0.457556E+00
  0.385618E+00  0.327607E+00  0.290628E+00  0.277980E+00  0.290628E+00  0.327607E+00
  0.385618E+00  0.457556E+00  0.532190E+00  0.599008E+00  0.653061E+00  0.693241E+00
  0.719067E+00  0.730373E+00  0.727310E+00  0.709580E+00  0.677313E+00  0.635102E+00
  0.595061E+00  0.570338E+00  0.562588E+00  0.562078E+00  0.562588E+00  0.570338E+00
  0.595061E+00  0.648433E+00  0.677313E+00  0.700743E+00  0.713788E+00  0.714670E+00
  0.702516E+00  0.676418E+00  0.636073E+00  0.582001E+00  0.515266E+00  0.439572E+00
  0.364024E+00  0.299855E+00  0.254535E+00  0.231293E+00  0.231293E+00  0.254535E+00
  0.299855E+00  0.364024E+00  0.439572E+00  0.515266E+00  0.582001E+00  0.636073E+00
  0.676418E+00  0.702516E+00  0.714670E+00  0.713788E+00  0.700743E+00  0.677313E+00
  0.648433E+00  0.622113E+00  0.604698E+00  0.596986E+00  0.596986E+00  0.604698E+00
  0.622113E+00  0.648433E+00  0.698583E+00  0.709580E+00  0.713788E+00  0.708874E+00
  0.693036E+00  0.664590E+00  0.622600E+00  0.567355E+00  0.499973E+00  0.423467E+00
  0.345579E+00  0.277114E+00  0.225771E+00  0.194467E+00  0.183971E+00  0.194467E+00
  0.225771E+00  0.277114E+00  0.345579E+00  0.423467E+00  0.499973E+00  0.567355E+00
  0.622600E+00  0.664590E+00  0.693036E+00  0.708874E+00  0.713788E+00  0.709580E+00
  0.698583E+00  0.684389E+00  0.671267E+00  0.662448E+00  0.659397E+00  0.662448E+00
  0.671267E+00  0.684389E+00  0.698583E+00  0.733036E+00  0.727310E+00  0.714670E+00
  0.693036E+00  0.660328E+00  0.615168E+00  0.557521E+00  0.488490E+00  0.410778E+00
  0.331037E+00  0.259404E+00  0.203763E+00  0.166758E+00  0.148389E+00  0.148389E+00
  0.166758E+00  0.203763E+00  0.259404E+00  0.331037E+00  0.410778E+00  0.488490E+00
  0.557521E+00  0.615168E+00  0.660328E+00  0.693036E+00  0.714670E+00  0.727310E+00
  0.733036E+00  0.733870E+00  0.731923E+00  0.729236E+00  0.727435E+00  0.727435E+00
  0.729236E+00  0.731923E+00  0.733870E+00  0.733036E+00  0.750168E+00  0.730373E+00
  0.702516E+00  0.664590E+00  0.615168E+00  0.554070E+00  0.482394E+00  0.402789E+00
  0.321192E+00  0.246929E+00  0.187947E+00  0.146918E+00  0.123080E+00  0.115279E+00
  0.123080E+00  0.146918E+00  0.187947E+00  0.246929E+00  0.321192E+00  0.402789E+00
  0.482394E+00  0.554070E+00  0.615168E+00  0.664590E+00  0.702516E+00  0.730373E+00
  0.750168E+00  0.763777E+00  0.772689E+00  0.778058E+00  0.780815E+00  0.781645E+00
  0.780815E+00  0.778058E+00  0.772689E+00  0.763777E+00  0.750168E+00  0.751767E+00
  0.719067E+00  0.676418E+00  0.622600E+00  0.557521E+00  0.482394E+00  0.400088E+00
  0.316323E+00  0.239673E+00  0.177818E+00  0.133646E+00  0.106027E+00  0.928661E-01
  0.928661E-01  0.106027E+00  0.133646E+00  0.177818E+00  0.239673E+00  0.316323E+00
  0.400088E+00  0.482394E+00  0.557521E+00  0.622600E+00  0.676418E+00  0.719067E+00
  0.751767E+00  0.776263E+00  0.794169E+00  0.806658E+00  0.814523E+00  0.818302E+00
  0.818302E+00  0.814523E+00  0.806658E+00  0.794169E+00  0.776263E+00  0.751767E+00
  0.738850E+00  0.693241E+00  0.636073E+00  0.567355E+00  0.488490E+00  0.402789E+00
  0.316323E+00  0.237321E+00  0.172910E+00  0.125991E+00  0.954644E-01  0.786511E-01
  0.733228E-01  0.786511E-01  0.954644E-01  0.125991E+00  0.172910E+00  0.237321E+00
  0.316323E+00  0.402789E+00  0.488490E+00  0.567355E+00  0.636073E+00  0.693241E+00
  0.738850E+00  0.773987E+00  0.800266E+00  0.819209E+00  0.831960E+00  0.839294E+00
  0.841684E+00  0.839294E+00  0.831960E+00  0.819209E+00  0.800266E+00  0.773987E+00
  0.738850E+00  0.711682E+00  0.653061E+00  0.582001E+00  0.499973E+00  0.410778E+00
  0.321192E+00  0.239673E+00  0.172910E+00  0.123481E+00  0.903669E-01  0.707651E-01
  0.618185E-01  0.618185E-01  0.707651E-01  0.903669E-01  0.123481E+00  0.172910E+00
  0.239673E+00  0.321192E+00  0.410778E+00  0.499973E+00  0.582001E+00  0.653061E+00
  0.711682E+00  0.757992E+00  0.793206E+00  0.818992E+00  0.836916E+00  0.848185E+00
  0.853612E+00  0.853612E+00  0.848185E+00  0.836916E+00  0.818992E+00  0.793206E+00
  0.757992E+00  0.711682E+00  0.670570E+00  0.599008E+00  0.515266E+00  0.423467E+00
  0.331037E+00  0.246929E+00  0.177818E+00  0.125991E+00  0.903669E-01  0.682293E-01
  0.565142E-01  0.528940E-01  0.565142E-01  0.682293E-01  0.903669E-01  0.125991E+00
  0.177818E+00  0.246929E+00  0.331037E+00  0.423467E+00  0.515266E+00  0.599008E+00
  0.670570E+00  0.728638E+00  0.773732E+00  0.807366E+00  0.831331E+00  0.847231E+00
  0.856271E+00  0.859200E+00  0.856271E+00  0.847231E+00  0.831331E+00  0.807366E+00
  0.773732E+00  0.728638E+00  0.670570E+00  0.615745E+00  0.532190E+00  0.439572E+00
  0.345579E+00  0.259404E+00  0.187947E+00  0.133646E+00  0.954644E-01  0.707651E-01
  0.565142E-01  0.501219E-01  0.501219E-01  0.565142E-01  0.707651E-01  0.954644E-01
  0.133646E+00  0.187947E+00  0.259404E+00  0.345579E+00  0.439572E+00  0.532190E+00
  0.615745E+00  0.686054E+00  0.742102E+00  0.784830E+00  0.816017E+00  0.837532E+00
  0.850949E+00  0.857373E+00  0.857373E+00  0.850949E+00  0.837532E+00  0.816017E+00
  0.784830E+00  0.742102E+00  0.686054E+00  0.615745E+00  0.548807E+00  0.457556E+00
  0.364024E+00  0.277114E+00  0.203763E+00  0.146918E+00  0.106027E+00  0.786511E-01
  0.618185E-01  0.528940E-01  0.501219E-01  0.528940E-01  0.618185E-01  0.786511E-01
  0.106027E+00  0.146918E+00  0.203763E+00  0.277114E+00  0.364024E+00  0.457556E+00
  0.548807E+00  0.630305E+00  0.698049E+00  0.751277E+00  0.791153E+00  0.819558E+00
  0.838351E+00  0.849008E+00  0.852456E+00  0.849008E+00  0.838351E+00  0.819558E+00
  0.791153E+00  0.751277E+00  0.698049E+00  0.630305E+00  0.548807E+00  0.476436E+00
  0.385618E+00  0.299855E+00  0.225771E+00  0.166758E+00  0.123080E+00  0.928661E-01
  0.733228E-01  0.618185E-01  0.565142E-01  0.565142E-01  0.618185E-01  0.733228E-01
  0.928661E-01  0.123080E+00  0.166758E+00  0.225771E+00  0.299855E+00  0.385618E+00
  0.476436E+00  0.564139E+00  0.641901E+00  0.706074E+00  0.755998E+00  0.792806E+00
  0.818294E+00  0.834202E+00  0.841820E+00  0.841820E+00  0.834202E+00  0.818294E+00
  0.792806E+00  0.755998E+00  0.706074E+00  0.641901E+00  0.564139E+00  0.476436E+00
  0.410136E+00  0.327607E+00  0.254535E+00  0.194467E+00  0.148389E+00  0.115279E+00
  0.928661E-01  0.786511E-01  0.707651E-01  0.682293E-01  0.707651E-01  0.786511E-01
  0.928661E-01  0.115279E+00  0.148389E+00  0.194467E+00  0.254535E+00  0.327607E+00
  0.410136E+00  0.496028E+00  0.578122E+00  0.650538E+00  0.710083E+00  0.756099E+00
  0.789514E+00  0.811875E+00  0.824639E+00  0.828782E+00  0.824639E+00  0.811875E+00
  0.789514E+00  0.756099E+00  0.710083E+00  0.650538E+00  0.578122E+00  0.496028E+00
  0.410136E+00  0.360589E+00  0.290628E+00  0.231293E+00  0.183971E+00  0.148389E+00
  0.123080E+00  0.106027E+00  0.954644E-01  0.903669E-01  0.903669E-01  0.954644E-01
  0.106027E+00  0.123080E+00  0.148389E+00  0.183971E+00  0.231293E+00  0.290628E+00
  0.360589E+00  0.437682E+00  0.516486E+00  0.591005E+00  0.656429E+00  0.710083E+00
  0.751302E+00  0.780730E+00  0.799498E+00  0.808606E+00  0.808606E+00  0.799498E+00
  0.780730E+00  0.751302E+00  0.710083E+00  0.656429E+00  0.591005E+00  0.516486E+00
  0.437682E+00  0.360589E+00  0.334345E+00  0.277980E+00  0.231293E+00  0.194467E+00
  0.166758E+00  0.146918E+00  0.133646E+00  0.125991E+00  0.123481E+00  0.125991E+00
  0.133646E+00  0.146918E+00  0.166758E+00  0.194467E+00  0.231293E+00  0.277980E+00
  0.334345E+00  0.398817E+00  0.468131E+00  0.537707E+00  0.602790E+00  0.659629E+00
  0.706074E+00  0.741465E+00  0.766087E+00  0.780540E+00  0.785300E+00  0.780540E+00
  0.766087E+00  0.741465E+00  0.706074E+00  0.659629E+00  0.602790E+00  0.537707E+00
  0.468131E+00  0.398817E+00  0.334345E+00  0.334345E+00  0.290628E+00  0.254535E+00
  0.225771E+00  0.203763E+00  0.187947E+00  0.177818E+00  0.172910E+00  0.172910E+00
  0.177818E+00  0.187947E+00  0.203763E+00  0.225771E+00  0.254535E+00  0.290628E+00
  0.334345E+00  0.385222E+00  0.441640E+00  0.500785E+00  0.559099E+00  0.613075E+00
  0.659954E+00  0.698049E+00  0.726635E+00  0.745591E+00  0.755020E+00  0.755020E+00
  0.745591E+00  0.726635E+00  0.698049E+00  0.659954E+00  0.613075E+00  0.559099E+00
  0.500785E+00  0.441640E+00  0.385222E+00  0.334345E+00  0.360589E+00  0.327607E+00
  0.299855E+00  0.277114E+00  0.259404E+00  0.246929E+00  0.239673E+00  0.237321E+00
  0.239673E+00  0.246929E+00  0.259404E+00  0.277114E+00  0.299855E+00  0.327607E+00
  0.360589E+00  0.398817E+00  0.441640E+00  0.487565E+00  0.534423E+00  0.579769E+00
  0.621313E+00  0.657192E+00  0.686054E+00  0.707044E+00  0.719732E+00  0.723970E+00
  0.719732E+00  0.707044E+00  0.686054E+00  0.657192E+00  0.621313E+00  0.579769E+00
  0.534423E+00  0.487565E+00  0.441640E+00  0.398817E+00  0.360589E+00  0.410136E+00
  0.385618E+00  0.364024E+00  0.345579E+00  0.331037E+00  0.321192E+00  0.316323E+00
  0.316323E+00  0.321192E+00  0.331037E+00  0.345579E+00  0.364024E+00  0.385618E+00
  0.410136E+00  0.437682E+00  0.468131E+00  0.500785E+00  0.534423E+00  0.567592E+00
  0.598933E+00  0.627275E+00  0.651514E+00  0.670570E+00  0.683598E+00  0.690167E+00
  0.690167E+00  0.683598E+00  0.670570E+00  0.651514E+00  0.627275E+00  0.598933E+00
  0.567592E+00  0.534423E+00  0.500785E+00  0.468131E+00  0.437682E+00  0.410136E+00
  0.476436E+00  0.457556E+00  0.439572E+00  0.423467E+00  0.410778E+00  0.402789E+00
  0.400088E+00  0.402789E+00  0.410778E+00  0.423467E+00  0.439572E+00  0.457556E+00
  0.476436E+00  0.496028E+00  0.516486E+00  0.537707E+00  0.559099E+00  0.579769E+00
  0.598933E+00  0.616176E+00  0.631262E+00  0.643764E+00  0.653061E+00  0.658698E+00
  0.660569E+00  0.658698E+00  0.653061E+00  0.643764E+00  0.631262E+00  0.616176E+00
  0.598933E+00  0.579769E+00  0.559099E+00  0.537707E+00  0.516486E+00  0.496028E+00
  0.476436E+00  0.548807E+00  0.532190E+00  0.515266E+00  0.499973E+00  0.488490E+00
  0.482394E+00  0.482394E+00  0.488490E+00  0.499973E+00  0.515266E+00  0.532190E+00
  0.548807E+00  0.564139E+00  0.578122E+00  0.591005E+00  0.602790E+00  0.613075E+00
  0.621313E+00  0.627275E+00  0.631262E+00  0.633817E+00  0.635341E+00  0.636073E+00
  0.636300E+00  0.636300E+00  0.636073E+00  0.635341E+00  0.633817E+00  0.631262E+00
  0.627275E+00  0.621313E+00  0.613075E+00  0.602790E+00  0.591005E+00  0.578122E+00
  0.564139E+00  0.548807E+00  0.615745E+00  0.599008E+00  0.582001E+00  0.567355E+00
  0.557521E+00  0.554070E+00  0.557521E+00  0.567355E+00  0.582001E+00  0.599008E+00
  0.615745E+00  0.630305E+00  0.641901E+00  0.650538E+00  0.656429E+00  0.659629E+00
  0.659954E+00  0.657192E+00  0.651514E+00  0.643764E+00  0.635341E+00  0.627813E+00
  0.622600E+00  0.620732E+00  0.622600E+00  0.627813E+00  0.635341E+00  0.643764E+00
  0.651514E+00  0.657192E+00  0.659954E+00  0.659629E+00  0.656429E+00  0.650538E+00
  0.641901E+00  0.630305E+00  0.615745E+00  0.670570E+00  0.653061E+00  0.636073E+00
  0.622600E+00  0.615168E+00  0.615168E+00  0.622600E+00  0.636073E+00  0.653061E+00
  0.670570E+00  0.686054E+00  0.698049E+00  0.706074E+00  0.710083E+00  0.710083E+00
  0.706074E+00  0.698049E+00  0.686054E+00  0.670570E+00  0.653061E+00  0.636073E+00
  0.622600E+00  0.615168E+00  0.615168E+00  0.622600E+00  0.636073E+00  0.653061E+00
  0.670570E+00  0.686054E+00  0.698049E+00  0.706074E+00  0.710083E+00  0.710083E+00
  0.706074E+00  0.698049E+00  0.686054E+00  0.670570E+00  0.711682E+00  0.693241E+00
  0.676418E+00  0.664590E+00  0.660328E+00  0.664590E+00  0.676418E+00  0.693241E+00
  0.711682E+00  0.728638E+00  0.742102E+00  0.751277E+00  0.755998E+00  0.756099E+00
  0.751302E+00  0.741465E+00  0.726635E+00  0.707044E+00  0.683598E+00  0.658698E+00
  0.636300E+00  0.620732E+00  0.615168E+00  0.620732E+00  0.636300E+00  0.658698E+00
  0.683598E+00  0.707044E+00  0.726635E+00  0.741465E+00  0.751302E+00  0.756099E+00
  0.755998E+00  0.751277E+00  0.742102E+00  0.728638E+00  0.711682E+00  0.738850E+00
  0.719067E+00  0.702516E+00  0.693036E+00  0.693036E+00  0.702516E+00  0.719067E+00
  0.738850E+00  0.757992E+00  0.773732E+00  0.784830E+00  0.791153E+00  0.792806E+00
  0.789514E+00  0.780730E+00  0.766087E+00  0.745591E+00  0.719732E+00  0.690167E+00
  0.660569E+00  0.636300E+00  0.622600E+00  0.622600E+00  0.636300E+00  0.660569E+00
  0.690167E+00  0.719732E+00  0.745591E+00  0.766087E+00  0.780730E+00  0.789514E+00
  0.792806E+00  0.791153E+00  0.784830E+00  0.773732E+00  0.757992E+00  0.738850E+00
  0.751767E+00  0.730373E+00  0.714670E+00  0.708874E+00  0.714670E+00  0.730373E+00
  0.751767E+00  0.773987E+00  0.793206E+00  0.807366E+00  0.816017E+00  0.819558E+00
  0.818294E+00  0.811875E+00  0.799498E+00  0.780540E+00  0.755020E+00  0.723970E+00
  0.690167E+00  0.658698E+00  0.636073E+00  0.627813E+00  0.636073E+00  0.658698E+00
  0.690167E+00  0.723970E+00  0.755020E+00  0.780540E+00  0.799498E+00  0.811875E+00
  0.818294E+00  0.819558E+00  0.816017E+00  0.807366E+00  0.793206E+00  0.773987E+00
  0.751767E+00  0.750168E+00  0.727310E+00  0.713788E+00  0.713788E+00  0.727310E+00
  0.750168E+00  0.776263E+00  0.800266E+00  0.818992E+00  0.831331E+00  0.837532E+00
  0.838351E+00  0.834202E+00  0.824639E+00  0.808606E+00  0.785300E+00  0.755020E+00
  0.719732E+00  0.683598E+00  0.653061E+00  0.635341E+00  0.635341E+00  0.653061E+00
  0.683598E+00  0.719732E+00  0.755020E+00  0.785300E+00  0.808606E+00  0.824639E+00
  0.834202E+00  0.838351E+00  0.837532E+00  0.831331E+00  0.818992E+00  0.800266E+00
  0.776263E+00  0.750168E+00  0.733036E+00  0.709580E+00  0.700743E+00  0.709580E+00
  0.733036E+00  0.763777E+00  0.794169E+00  0.819209E+00  0.836916E+00  0.847231E+00
  0.850949E+00  0.849008E+00  0.841820E+00  0.828782E+00  0.808606E+00  0.780540E+00
  0.745591E+00  0.707044E+00  0.670570E+00  0.643764E+00  0.633817E+00  0.643764E+00
  0.670570E+00  0.707044E+00  0.745591E+00  0.780540E+00  0.808606E+00  0.828782E+00
  0.841820E+00  0.849008E+00  0.850949E+00  0.847231E+00  0.836916E+00  0.819209E+00
  0.794169E+00  0.763777E+00  0.733036E+00  0.698583E+00  0.677313E+00  0.677313E+00
  0.698583E+00  0.733870E+00  0.772689E+00  0.806658E+00  0.831960E+00  0.848185E+00
  0.856271E+00  0.857373E+00  0.852456E+00  0.841820E+00  0.824639E+00  0.799498E+00
  0.766087E+00  0.726635E+00  0.686054E+00  0.651514E+00  0.631262E+00  0.631262E+00
  0.651514E+00  0.686054E+00  0.726635E+00  0.766087E+00  0.799498E+00  0.824639E+00
  0.841820E+00  0.852456E+00  0.857373E+00  0.856271E+00  0.848185E+00  0.831960E+00
  0.806658E+00  0.772689E+00  0.733870E+00  0.698583E+00  0.648433E+00  0.635102E+00
  0.648433E+00  0.684389E+00  0.731923E+00  0.778058E+00  0.814523E+00  0.839294E+00
  0.853612E+00  0.859200E+00  0.857373E+00  0.849008E+00  0.834202E+00  0.811875E+00
  0.780730E+00  0.741465E+00  0.698049E+00  0.657192E+00  0.627275E+00  0.616176E+00
  0.627275E+00  0.657192E+00  0.698049E+00  0.741465E+00  0.780730E+00  0.811875E+00
  0.834202E+00  0.849008E+00  0.857373E+00  0.859200E+00  0.853612E+00  0.839294E+00
  0.814523E+00  0.778058E+00  0.731923E+00  0.684389E+00  0.648433E+00  0.595061E+00
  0.595061E+00  0.622113E+00  0.671267E+00  0.729236E+00  0.780815E+00  0.818302E+00
  0.841684E+00  0.853612E+00  0.856271E+00  0.850949E+00  0.838351E+00  0.818294E+00
  0.789514E+00  0.751302E+00  0.706074E+00  0.659954E+00  0.621313E+00  0.598933E+00
  0.598933E+00  0.621313E+00  0.659954E+00  0.706074E+00  0.751302E+00  0.789514E+00
  0.818294E+00  0.838351E+00  0.850949E+00  0.856271E+00  0.853612E+00  0.841684E+00
  0.818302E+00  0.780815E+00  0.729236E+00  0.671267E+00  0.622113E+00  0.595061E+00
  0.560227E+00  0.570338E+00  0.604698E+00  0.662448E+00  0.727435E+00  0.781645E+00
  0.818302E+00  0.839294E+00  0.848185E+00  0.847231E+00  0.837532E+00  0.819558E+00
  0.792806E+00  0.756099E+00  0.710083E+00  0.659629E+00  0.613075E+00  0.579769E+00
  0.567592E+00  0.579769E+00  0.613075E+00  0.659629E+00  0.710083E+00  0.756099E+00
  0.792806E+00  0.819558E+00  0.837532E+00  0.847231E+00  0.848185E+00  0.839294E+00
  0.818302E+00  0.781645E+00  0.727435E+00  0.662448E+00  0.604698E+00  0.570338E+00
  0.560227E+00  0.555109E+00  0.562588E+00  0.596986E+00  0.659397E+00  0.727435E+00
  0.780815E+00  0.814523E+00  0.831960E+00  0.836916E+00  0.831331E+00  0.816017E+00
  0.791153E+00  0.755998E+00  0.710083E+00  0.656429E+00  0.602790E+00  0.559099E+00
  0.534423E+00  0.534423E+00  0.559099E+00  0.602790E+00  0.656429E+00  0.710083E+00
  0.755998E+00  0.791153E+00  0.816017E+00  0.831331E+00  0.836916E+00  0.831960E+00
  0.814523E+00  0.780815E+00  0.727435E+00  0.659397E+00  0.596986E+00  0.562588E+00
  0.555109E+00  0.555109E+00  0.564518E+00  0.562078E+00  0.596986E+00  0.662448E+00
  0.729236E+00  0.778058E+00  0.806658E+00  0.819209E+00  0.818992E+00  0.807366E+00
  0.784830E+00  0.751277E+00  0.706074E+00  0.650538E+00  0.591005E+00  0.537707E+00
  0.500785E+00  0.487565E+00  0.500785E+00  0.537707E+00  0.591005E+00  0.650538E+00
  0.706074E+00  0.751277E+00  0.784830E+00  0.807366E+00  0.818992E+00  0.819209E+00
  0.806658E+00  0.778058E+00  0.729236E+00  0.662448E+00  0.596986E+00  0.562078E+00
  0.564518E+00  0.573444E+00  0.564518E+00  0.564518E+00  0.562588E+00  0.604698E+00
  0.671267E+00  0.731923E+00  0.772689E+00  0.794169E+00  0.800266E+00  0.793206E+00
  0.773732E+00  0.742102E+00  0.698049E+00  0.641901E+00  0.578122E+00  0.516486E+00
  0.468131E+00  0.441640E+00  0.441640E+00  0.468131E+00  0.516486E+00  0.578122E+00
  0.641901E+00  0.698049E+00  0.742102E+00  0.773732E+00  0.793206E+00  0.800266E+00
  0.794169E+00  0.772689E+00  0.731923E+00  0.671267E+00  0.604698E+00  0.562588E+00
  0.564518E+00  0.587777E+00  0.587777E+00  0.564518E+00  0.555109E+00  0.570338E+00
  0.622113E+00  0.684389E+00  0.733870E+00  0.763777E+00  0.776263E+00  0.773987E+00
  0.757992E+00  0.728638E+00  0.686054E+00  0.630305E+00  0.564139E+00  0.496028E+00
  0.437682E+00  0.398817E+00  0.385222E+00  0.398817E+00  0.437682E+00  0.496028E+00
  0.564139E+00  0.630305E+00  0.686054E+00  0.728638E+00  0.757992E+00  0.773987E+00
  0.776263E+00  0.763777E+00  0.733870E+00  0.684389E+00  0.622113E+00  0.570338E+00
  0.555109E+00  0.573444E+00  0.587777E+00  0.573444E+00  0.555109E+00  0.560227E+00
  0.595061E+00  0.648433E+00  0.698583E+00  0.733036E+00  0.750168E+00  0.751767E+00
  0.738850E+00  0.711682E+00  0.670570E+00  0.615745E+00  0.548807E+00  0.476436E+00
  0.410136E+00  0.360589E+00  0.334345E+00  0.334345E+00  0.360589E+00  0.410136E+00
  0.476436E+00  0.548807E+00  0.615745E+00  0.670570E+00  0.711682E+00  0.738850E+00
  0.751767E+00  0.750168E+00  0.733036E+00  0.698583E+00  0.648433E+00  0.595061E+00
  0.560227E+00  0.555109E+00  0.564518E+00  0.564518E+00  0.555109E+00  0.560227E+00
  0.775677E+00  0.771243E+00  0.771450E+00  0.770919E+00  0.765321E+00  0.751767E+00
  0.727923E+00  0.692111E+00  0.643764E+00  0.583001E+00  0.511129E+00  0.433817E+00
  0.361682E+00  0.304822E+00  0.269005E+00  0.256807E+00  0.269005E+00  0.304822E+00
  0.361682E+00  0.433817E+00  0.511129E+00  0.583001E+00  0.643764E+00  0.692111E+00
  0.727923E+00  0.751767E+00  0.765321E+00  0.770919E+00  0.771450E+00  0.771243E+00
  0.775677E+00  0.786933E+00  0.799822E+00  0.805505E+00  0.799822E+00  0.786933E+00
  0.775677E+00  0.771243E+00  0.768297E+00  0.764817E+00  0.757348E+00  0.742967E+00
  0.719067E+00  0.683508E+00  0.635341E+00  0.574767E+00  0.502869E+00  0.423859E+00
  0.347211E+00  0.283574E+00  0.239303E+00  0.216781E+00  0.216781E+00  0.239303E+00
  0.283574E+00  0.347211E+00  0.423859E+00  0.502869E+00  0.574767E+00  0.635341E+00
  0.683508E+00  0.719067E+00  0.742967E+00  0.757348E+00  0.764817E+00  0.768297E+00
  0.771243E+00  0.776484E+00  0.783687E+00  0.789090E+00  0.789090E+00  0.783687E+00
  0.776484E+00  0.771243E+00  0.771450E+00  0.764817E+00  0.754418E+00  0.737875E+00
  0.712662E+00  0.676418E+00  0.627813E+00  0.566943E+00  0.494920E+00  0.415065E+00
  0.335484E+00  0.266818E+00  0.216080E+00  0.185464E+00  0.175255E+00  0.185464E+00
  0.216080E+00  0.266818E+00  0.335484E+00  0.415065E+00  0.494920E+00  0.566943E+00
  0.627813E+00  0.676418E+00  0.712662E+00  0.737875E+00  0.754418E+00  0.764817E+00
  0.771450E+00  0.776412E+00  0.780845E+00  0.784361E+00  0.785741E+00  0.784361E+00
  0.780845E+00  0.776412E+00  0.771450E+00  0.770919E+00  0.757348E+00  0.737875E+00
  0.710315E+00  0.672394E+00  0.622600E+00  0.560853E+00  0.488308E+00  0.407871E+00
  0.326445E+00  0.254168E+00  0.198609E+00  0.161995E+00  0.143941E+00  0.143941E+00
  0.161995E+00  0.198609E+00  0.254168E+00  0.326445E+00  0.407871E+00  0.488308E+00
  0.560853E+00  0.622600E+00  0.672394E+00  0.710315E+00  0.737875E+00  0.757348E+00
  0.770919E+00  0.780322E+00  0.786775E+00  0.790939E+00  0.793016E+00  0.793016E+00
  0.790939E+00  0.786775E+00  0.780322E+00  0.770919E+00  0.765321E+00  0.742967E+00
  0.712662E+00  0.672394E+00  0.620732E+00  0.557521E+00  0.483928E+00  0.402753E+00
  0.320079E+00  0.245252E+00  0.186104E+00  0.145151E+00  0.121460E+00  0.113729E+00
  0.121460E+00  0.145151E+00  0.186104E+00  0.245252E+00  0.320079E+00  0.402753E+00
  0.483928E+00  0.557521E+00  0.620732E+00  0.672394E+00  0.712662E+00  0.742967E+00
  0.765321E+00  0.781559E+00  0.793025E+00  0.800604E+00  0.804888E+00  0.806267E+00
  0.804888E+00  0.800604E+00  0.793025E+00  0.781559E+00  0.765321E+00  0.751767E+00
  0.719067E+00  0.676418E+00  0.622600E+00  0.557521E+00  0.482394E+00  0.400088E+00
  0.316323E+00  0.239673E+00  0.177818E+00  0.133646E+00  0.106027E+00  0.928661E-01
  0.928661E-01  0.106027E+00  0.133646E+00  0.177818E+00  0.239673E+00  0.316323E+00
  0.400088E+00  0.482394E+00  0.557521E+00  0.622600E+00  0.676418E+00  0.719067E+00
  0.751767E+00  0.776263E+00  0.794169E+00  0.806658E+00  0.814523E+00  0.818302E+00
  0.818302E+00  0.814523E+00  0.806658E+00  0.794169E+00  0.776263E+00  0.751767E+00
  0.727923E+00  0.683508E+00  0.627813E+00  0.560853E+00  0.483928E+00  0.400088E+00
  0.315086E+00  0.237021E+00  0.173124E+00  0.126442E+00  0.959732E-01  0.791367E-01
  0.737893E-01  0.791367E-01  0.959732E-01  0.126442E+00  0.173124E+00  0.237021E+00
  0.315086E+00  0.400088E+00  0.483928E+00  0.560853E+00  0.627813E+00  0.683508E+00
  0.727923E+00  0.762109E+00  0.787639E+00  0.806003E+00  0.818328E+00  0.825394E+00
  0.827691E+00  0.825394E+00  0.818328E+00  0.806003E+00  0.787639E+00  0.762109E+00
  0.727923E+00  0.692111E+00  0.635341E+00  0.566943E+00  0.488308E+00  0.402753E+00
  0.316323E+00  0.237021E+00  0.171608E+00  0.122944E+00  0.902148E-01  0.707612E-01
  0.618510E-01  0.618510E-01  0.707612E-01  0.902148E-01  0.122944E+00  0.171608E+00
  0.237021E+00  0.316323E+00  0.402753E+00  0.488308E+00  0.566943E+00  0.635341E+00
  0.692111E+00  0.737237E+00  0.771741E+00  0.797124E+00  0.814823E+00  0.825964E+00
  0.831330E+00  0.831330E+00  0.825964E+00  0.814823E+00  0.797124E+00  0.771741E+00
  0.737237E+00  0.692111E+00  0.643764E+00  0.574767E+00  0.494920E+00  0.407871E+00
  0.320079E+00  0.239673E+00  0.173124E+00  0.122944E+00  0.883211E-01  0.667477E-01
  0.553107E-01  0.517735E-01  0.553107E-01  0.667477E-01  0.883211E-01  0.122944E+00
  0.173124E+00  0.239673E+00  0.320079E+00  0.407871E+00  0.494920E+00  0.574767E+00
  0.643764E+00  0.700498E+00  0.745125E+00  0.778789E+00  0.803000E+00  0.819169E+00
  0.828396E+00  0.831390E+00  0.828396E+00  0.819169E+00  0.803000E+00  0.778789E+00
  0.745125E+00  0.700498E+00  0.643764E+00  0.583001E+00  0.502869E+00  0.415065E+00
  0.326445E+00  0.245252E+00  0.177818E+00  0.126442E+00  0.902148E-01  0.667477E-01
  0.532247E-01  0.471758E-01  0.471758E-01  0.532247E-01  0.667477E-01  0.902148E-01
  0.126442E+00  0.177818E+00  0.245252E+00  0.326445E+00  0.415065E+00  0.502869E+00
  0.583001E+00  0.651514E+00  0.707087E+00  0.750167E+00  0.782080E+00  0.804365E+00
  0.818380E+00  0.825123E+00  0.825123E+00  0.818380E+00  0.804365E+00  0.782080E+00
  0.750167E+00  0.707087E+00  0.651514E+00  0.583001E+00  0.511129E+00  0.423859E+00
  0.335484E+00  0.254168E+00  0.186104E+00  0.133646E+00  0.959732E-01  0.707612E-01
  0.553107E-01  0.471758E-01  0.446642E-01  0.471758E-01  0.553107E-01  0.707612E-01
  0.959732E-01  0.133646E+00  0.186104E+00  0.254168E+00  0.335484E+00  0.423859E+00
  0.511129E+00  0.590259E+00  0.657192E+00  0.710759E+00  0.751624E+00  0.781224E+00
  0.801078E+00  0.812443E+00  0.816137E+00  0.812443E+00  0.801078E+00  0.781224E+00
  0.751624E+00  0.710759E+00  0.657192E+00  0.590259E+00  0.511129E+00  0.433817E+00
  0.347211E+00  0.266818E+00  0.198609E+00  0.145151E+00  0.106027E+00  0.791367E-01
  0.618510E-01  0.517735E-01  0.471758E-01  0.471758E-01  0.517735E-01  0.618510E-01
  0.791367E-01  0.106027E+00  0.145151E+00  0.198609E+00  0.266818E+00  0.347211E+00
  0.433817E+00  0.518853E+00  0.595540E+00  0.659954E+00  0.710989E+00  0.749298E+00
  0.776261E+00  0.793306E+00  0.801535E+00  0.801535E+00  0.793306E+00  0.776261E+00
  0.749298E+00  0.710989E+00  0.659954E+00  0.595540E+00  0.518853E+00  0.433817E+00
  0.361682E+00  0.283574E+00  0.216080E+00  0.161995E+00  0.121460E+00  0.928661E-01
  0.737893E-01  0.618510E-01  0.553107E-01  0.532247E-01  0.553107E-01  0.618510E-01
  0.737893E-01  0.928661E-01  0.121460E+00  0.161995E+00  0.216080E+00  0.283574E+00
  0.361682E+00  0.444766E+00  0.525774E+00  0.598611E+00  0.659629E+00  0.707624E+00
  0.743026E+00  0.767015E+00  0.780827E+00  0.785330E+00  0.780827E+00  0.767015E+00
  0.743026E+00  0.707624E+00  0.659629E+00  0.598611E+00  0.525774E+00  0.444766E+00
  0.361682E+00  0.304822E+00  0.239303E+00  0.185464E+00  0.143941E+00  0.113729E+00
  0.928661E-01  0.791367E-01  0.707612E-01  0.667477E-01  0.667477E-01  0.707612E-01
  0.791367E-01  0.928661E-01  0.113729E+00  0.143941E+00  0.185464E+00  0.239303E+00
  0.304822E+00  0.379088E+00  0.456937E+00  0.532288E+00  0.599900E+00  0.656429E+00
  0.700534E+00  0.732368E+00  0.752806E+00  0.762760E+00  0.762760E+00  0.752806E+00
  0.732368E+00  0.700534E+00  0.656429E+00  0.599900E+00  0.532288E+00  0.456937E+00
  0.379088E+00  0.304822E+00  0.269005E+00  0.216781E+00  0.175255E+00  0.143941E+00
  0.121460E+00  0.106027E+00  0.959732E-01  0.902148E-01  0.883211E-01  0.902148E-01
  0.959732E-01  0.106027E+00  0.121460E+00  0.143941E+00  0.175255E+00  0.216781E+00
  0.269005E+00  0.330950E+00  0.399717E+00  0.470762E+00  0.538975E+00  0.599900E+00
  0.650538E+00  0.689542E+00  0.716829E+00  0.732884E+00  0.738177E+00  0.732884E+00
  0.716829E+00  0.689542E+00  0.650538E+00  0.599900E+00  0.538975E+00  0.470762E+00
  0.399717E+00  0.330950E+00  0.269005E+00  0.256807E+00  0.216781E+00  0.185464E+00
  0.161995E+00  0.145151E+00  0.133646E+00  0.126442E+00  0.122944E+00  0.122944E+00
  0.126442E+00  0.133646E+00  0.145151E+00  0.161995E+00  0.185464E+00  0.216781E+00
  0.256807E+00  0.305649E+00  0.362163E+00  0.423688E+00  0.486359E+00  0.545913E+00
  0.598611E+00  0.641901E+00  0.674555E+00  0.696261E+00  0.707074E+00  0.707074E+00
  0.696261E+00  0.674555E+00  0.641901E+00  0.598611E+00  0.545913E+00  0.486359E+00
  0.423688E+00  0.362163E+00  0.305649E+00  0.256807E+00  0.269005E+00  0.239303E+00
  0.216080E+00  0.198609E+00  0.186104E+00  0.177818E+00  0.173124E+00  0.171608E+00
  0.173124E+00  0.177818E+00  0.186104E+00  0.198609E+00  0.216080E+00  0.239303E+00
  0.269005E+00  0.305649E+00  0.349086E+00  0.398166E+00  0.450587E+00  0.503166E+00
  0.552474E+00  0.595540E+00  0.630305E+00  0.655630E+00  0.670979E+00  0.676119E+00
  0.670979E+00  0.655630E+00  0.630305E+00  0.595540E+00  0.552474E+00  0.503166E+00
  0.450587E+00  0.398166E+00  0.349086E+00  0.305649E+00  0.269005E+00  0.304822E+00
  0.283574E+00  0.266818E+00  0.254168E+00  0.245252E+00  0.239673E+00  0.237021E+00
  0.237021E+00  0.239673E+00  0.245252E+00  0.254168E+00  0.266818E+00  0.283574E+00
  0.304822E+00  0.330950E+00  0.362163E+00  0.398166E+00  0.437862E+00  0.479330E+00
  0.520146E+00  0.557842E+00  0.590259E+00  0.615745E+00  0.633212E+00  0.642067E+00
  0.642067E+00  0.633212E+00  0.615745E+00  0.590259E+00  0.557842E+00  0.520146E+00
  0.479330E+00  0.437862E+00  0.398166E+00  0.362163E+00  0.330950E+00  0.304822E+00
  0.361682E+00  0.347211E+00  0.335484E+00  0.326445E+00  0.320079E+00  0.316323E+00
  0.315086E+00  0.316323E+00  0.320079E+00  0.326445E+00  0.335484E+00  0.347211E+00
  0.361682E+00  0.379088E+00  0.399717E+00  0.423688E+00  0.450587E+00  0.479330E+00
  0.508428E+00  0.536362E+00  0.561693E+00  0.583001E+00  0.599008E+00  0.608849E+00
  0.612155E+00  0.608849E+00  0.599008E+00  0.583001E+00  0.561693E+00  0.536362E+00
  0.508428E+00  0.479330E+00  0.450587E+00  0.423688E+00  0.399717E+00  0.379088E+00
  0.361682E+00  0.433817E+00  0.423859E+00  0.415065E+00  0.407871E+00  0.402753E+00
  0.400088E+00  0.400088E+00  0.402753E+00  0.407871E+00  0.415065E+00  0.423859E+00
  0.433817E+00  0.444766E+00  0.456937E+00  0.470762E+00  0.486359E+00  0.503166E+00
  0.520146E+00  0.536362E+00  0.551240E+00  0.564277E+00  0.574767E+00  0.582001E+00
  0.585631E+00  0.585631E+00  0.582001E+00  0.574767E+00  0.564277E+00  0.551240E+00
  0.536362E+00  0.520146E+00  0.503166E+00  0.486359E+00  0.470762E+00  0.456937E+00
  0.444766E+00  0.433817E+00  0.511129E+00  0.502869E+00  0.494920E+00  0.488308E+00
  0.483928E+00  0.482394E+00  0.483928E+00  0.488308E+00  0.494920E+00  0.502869E+00
  0.511129E+00  0.518853E+00  0.525774E+00  0.532288E+00  0.538975E+00  0.545913E+00
  0.552474E+00  0.557842E+00  0.561693E+00  0.564277E+00  0.565966E+00  0.566943E+00
  0.567355E+00  0.567446E+00  0.567355E+00  0.566943E+00  0.565966E+00  0.564277E+00
  0.561693E+00  0.557842E+00  0.552474E+00  0.545913E+00  0.538975E+00  0.532288E+00
  0.525774E+00  0.518853E+00  0.511129E+00  0.583001E+00  0.574767E+00  0.566943E+00
  0.560853E+00  0.557521E+00  0.557521E+00  0.560853E+00  0.566943E+00  0.574767E+00
  0.583001E+00  0.590259E+00  0.595540E+00  0.598611E+00  0.599900E+00  0.599900E+00
  0.598611E+00  0.595540E+00  0.590259E+00  0.583001E+00  0.574767E+00  0.566943E+00
  0.560853E+00  0.557521E+00  0.557521E+00  0.560853E+00  0.566943E+00  0.574767E+00
  0.583001E+00  0.590259E+00  0.595540E+00  0.598611E+00  0.599900E+00  0.599900E+00
  0.598611E+00  0.595540E+00  0.590259E+00  0.583001E+00  0.643764E+00  0.635341E+00
  0.627813E+00  0.622600E+00  0.620732E+00  0.622600E+00  0.627813E+00  0.635341E+00
  0.643764E+00  0.651514E+00  0.657192E+00  0.659954E+00  0.659629E+00  0.656429E+00
  0.650538E+00  0.641901E+00  0.630305E+00  0.615745E+00  0.599008E+00  0.582001E+00
  0.567355E+00  0.557521E+00  0.554070E+00  0.557521E+00  0.567355E+00  0.582001E+00
  0.599008E+00  0.615745E+00  0.630305E+00  0.641901E+00  0.650538E+00  0.656429E+00
  0.659629E+00  0.659954E+00  0.657192E+00  0.651514E+00  0.643764E+00  0.692111E+00
  0.683508E+00  0.676418E+00  0.672394E+00  0.672394E+00  0.676418E+00  0.683508E+00
  0.692111E+00  0.700498E+00  0.707087E+00  0.710759E+00  0.710989E+00  0.707624E+00
  0.700534E+00  0.689542E+00  0.674555E+00  0.655630E+00  0.633212E+00  0.608849E+00
  0.585631E+00  0.567446E+00  0.557521E+00  0.557521E+00  0.567446E+00  0.585631E+00
  0.608849E+00  0.633212E+00  0.655630E+00  0.674555E+00  0.689542E+00  0.700534E+00
  0.707624E+00  0.710989E+00  0.710759E+00  0.707087E+00  0.700498E+00  0.692111E+00
  0.727923E+00  0.719067E+00  0.712662E+00  0.710315E+00  0.712662E+00  0.719067E+00
  0.727923E+00  0.737237E+00  0.745125E+00  0.750167E+00  0.751624E+00  0.749298E+00
  0.743026E+00  0.732368E+00  0.716829E+00  0.696261E+00  0.670979E+00  0.642067E+00
  0.612155E+00  0.585631E+00  0.567355E+00  0.560853E+00  0.567355E+00  0.585631E+00
  0.612155E+00  0.642067E+00  0.670979E+00  0.696261E+00  0.716829E+00  0.732368E+00
  0.743026E+00  0.749298E+00  0.751624E+00  0.750167E+00  0.745125E+00  0.737237E+00
  0.727923E+00  0.751767E+00  0.742967E+00  0.737875E+00  0.737875E+00  0.742967E+00
  0.751767E+00  0.762109E+00  0.771741E+00  0.778789E+00  0.782080E+00  0.781224E+00
  0.776261E+00  0.767015E+00  0.752806E+00  0.732884E+00  0.707074E+00  0.676119E+00
  0.642067E+00  0.608849E+00  0.582001E+00  0.566943E+00  0.566943E+00  0.582001E+00
  0.608849E+00  0.642067E+00  0.676119E+00  0.707074E+00  0.732884E+00  0.752806E+00
  0.767015E+00  0.776261E+00  0.781224E+00  0.782080E+00  0.778789E+00  0.771741E+00
  0.762109E+00  0.751767E+00  0.765321E+00  0.757348E+00  0.754418E+00  0.757348E+00
  0.765321E+00  0.776263E+00  0.787639E+00  0.797124E+00  0.803000E+00  0.804365E+00
  0.801078E+00  0.793306E+00  0.780827E+00  0.762760E+00  0.738177E+00  0.707074E+00
  0.670979E+00  0.633212E+00  0.599008E+00  0.574767E+00  0.565966E+00  0.574767E+00
  0.599008E+00  0.633212E+00  0.670979E+00  0.707074E+00  0.738177E+00  0.762760E+00
  0.780827E+00  0.793306E+00  0.801078E+00  0.804365E+00  0.803000E+00  0.797124E+00
  0.787639E+00  0.776263E+00  0.765321E+00  0.770919E+00  0.764817E+00  0.764817E+00
  0.770919E+00  0.781559E+00  0.794169E+00  0.806003E+00  0.814823E+00  0.819169E+00
  0.818380E+00  0.812443E+00  0.801535E+00  0.785330E+00  0.762760E+00  0.732884E+00
  0.696261E+00  0.655630E+00  0.615745E+00  0.583001E+00  0.564277E+00  0.564277E+00
  0.583001E+00  0.615745E+00  0.655630E+00  0.696261E+00  0.732884E+00  0.762760E+00
  0.785330E+00  0.801535E+00  0.812443E+00  0.818380E+00  0.819169E+00  0.814823E+00
  0.806003E+00  0.794169E+00  0.781559E+00  0.770919E+00  0.771450E+00  0.768297E+00
  0.771450E+00  0.780322E+00  0.793025E+00  0.806658E+00  0.818328E+00  0.825964E+00
  0.828396E+00  0.825123E+00  0.816137E+00  0.801535E+00  0.780827E+00  0.752806E+00
  0.716829E+00  0.674555E+00  0.630305E+00  0.590259E+00  0.561693E+00  0.551240E+00
  0.561693E+00  0.590259E+00  0.630305E+00  0.674555E+00  0.716829E+00  0.752806E+00
  0.780827E+00  0.801535E+00  0.816137E+00  0.825123E+00  0.828396E+00  0.825964E+00
  0.818328E+00  0.806658E+00  0.793025E+00  0.780322E+00  0.771450E+00  0.771243E+00
  0.771243E+00  0.776412E+00  0.786775E+00  0.800604E+00  0.814523E+00  0.825394E+00
  0.831330E+00  0.831390E+00  0.825123E+00  0.812443E+00  0.793306E+00  0.767015E+00
  0.732368E+00  0.689542E+00  0.641901E+00  0.595540E+00  0.557842E+00  0.536362E+00
  0.536362E+00  0.557842E+00  0.595540E+00  0.641901E+00  0.689542E+00  0.732368E+00
  0.767015E+00  0.793306E+00  0.812443E+00  0.825123E+00  0.831390E+00  0.831330E+00
  0.825394E+00  0.814523E+00  0.800604E+00  0.786775E+00  0.776412E+00  0.771243E+00
  0.775677E+00  0.776484E+00  0.780845E+00  0.790939E+00  0.804888E+00  0.818302E+00
  0.827691E+00  0.831330E+00  0.828396E+00  0.818380E+00  0.801078E+00  0.776261E+00
  0.743026E+00  0.700534E+00  0.650538E+00  0.598611E+00  0.552474E+00  0.520146E+00
  0.508428E+00  0.520146E+00  0.552474E+00  0.598611E+00  0.650538E+00  0.700534E+00
  0.743026E+00  0.776261E+00  0.801078E+00  0.818380E+00  0.828396E+00  0.831330E+00
  0.827691E+00  0.818302E+00  0.804888E+00  0.790939E+00  0.780845E+00  0.776484E+00
  0.775677E+00  0.786933E+00  0.783687E+00  0.784361E+00  0.793016E+00  0.806267E+00
  0.818302E+00  0.825394E+00  0.825964E+00  0.819169E+00  0.804365E+00  0.781224E+00
  0.749298E+00  0.707624E+00  0.656429E+00  0.599900E+00  0.545913E+00  0.503166E+00
  0.479330E+00  0.479330E+00  0.503166E+00  0.545913E+00  0.599900E+00  0.656429E+00
  0.707624E+00  0.749298E+00  0.781224E+00  0.804365E+00  0.819169E+00  0.825964E+00
  0.825394E+00  0.818302E+00  0.806267E+00  0.793016E+00  0.784361E+00  0.783687E+00
  0.786933E+00  0.786933E+00  0.799822E+00  0.789090E+00  0.785741E+00  0.793016E+00
  0.804888E+00  0.814523E+00  0.818328E+00  0.814823E+00  0.803000E+00  0.782080E+00
  0.751624E+00  0.710989E+00  0.659629E+00  0.599900E+00  0.538975E+00  0.486359E+00
  0.450587E+00  0.437862E+00  0.450587E+00  0.486359E+00  0.538975E+00  0.599900E+00
  0.659629E+00  0.710989E+00  0.751624E+00  0.782080E+00  0.803000E+00  0.814823E+00
  0.818328E+00  0.814523E+00  0.804888E+00  0.793016E+00  0.785741E+00  0.789090E+00
  0.799822E+00  0.805754E+00  0.799822E+00  0.805505E+00  0.789090E+00  0.784361E+00
  0.790939E+00  0.800604E+00  0.806658E+00  0.806003E+00  0.797124E+00  0.778789E+00
  0.750167E+00  0.710759E+00  0.659954E+00  0.598611E+00  0.532288E+00  0.470762E+00
  0.423688E+00  0.398166E+00  0.398166E+00  0.423688E+00  0.470762E+00  0.532288E+00
  0.598611E+00  0.659954E+00  0.710759E+00  0.750167E+00  0.778789E+00  0.797124E+00
  0.806003E+00  0.806658E+00  0.800604E+00  0.790939E+00  0.784361E+00  0.789090E+00
  0.805505E+00  0.820760E+00  0.820760E+00  0.805505E+00  0.799822E+00  0.783687E+00
  0.780845E+00  0.786775E+00  0.793025E+00  0.794169E+00  0.787639E+00  0.771741E+00
  0.745125E+00  0.707087E+00  0.657192E+00  0.595540E+00  0.525774E+00  0.456937E+00
  0.399717E+00  0.362163E+00  0.349086E+00  0.362163E+00  0.399717E+00  0.456937E+00
  0.525774E+00  0.595540E+00  0.657192E+00  0.707087E+00  0.745125E+00  0.771741E+00
  0.787639E+00  0.794169E+00  0.793025E+00  0.786775E+00  0.780845E+00  0.783687E+00
  0.799822E+00  0.820760E+00  0.830327E+00  0.820760E+00  0.799822E+00  0.786933E+00
  0.776484E+00  0.776412E+00  0.780322E+00  0.781559E+00  0.776263E+00  0.762109E+00
  0.737237E+00  0.700498E+00  0.651514E+00  0.590259E+00  0.518853E+00  0.444766E+00
  0.379088E+00  0.330950E+00  0.305649E+00  0.305649E+00  0.330950E+00  0.379088E+00
  0.444766E+00  0.518853E+00  0.590259E+00  0.651514E+00  0.700498E+00  0.737237E+00
  0.762109E+00  0.776263E+00  0.781559E+00  0.780322E+00  0.776412E+00  0.776484E+00
  0.786933E+00  0.805754E+00  0.820760E+00  0.820760E+00  0.805754E+00  0.786933E+00
  0.775677E+00  0.771243E+00  0.771450E+00  0.770919E+00  0.765321E+00  0.751767E+00
  0.727923E+00  0.692111E+00  0.643764E+00  0.583001E+00  0.511129E+00  0.433817E+00
  0.361682E+00  0.304822E+00  0.269005E+00  0.256807E+00  0.269005E+00  0.304822E+00
  0.361682E+00  0.433817E+00  0.511129E+00  0.583001E+00  0.643764E+00  0.692111E+00
  0.727923E+00  0.751767E+00  0.765321E+00  0.770919E+00  0.771450E+00  0.771243E+00
  0.775677E+00  0.786933E+00  0.799822E+00  0.805505E+00  0.799822E+00  0.786933E+00
  0.775677E+00  0.864962E+00  0.846287E+00  0.826147E+00  0.803211E+00  0.775073E+00
  0.738850E+00  0.692111E+00  0.633817E+00  0.564277E+00  0.485189E+00  0.401859E+00
  0.324121E+00  0.261481E+00  0.218708E+00  0.197159E+00  0.197159E+00  0.218708E+00
  0.261481E+00  0.324121E+00  0.401859E+00  0.485189E+00  0.564277E+00  0.633817E+00
  0.692111E+00  0.738850E+00  0.775073E+00  0.803211E+00  0.826147E+00  0.846287E+00
  0.864962E+00  0.881905E+00  0.895241E+00  0.902628E+00  0.902628E+00  0.895241E+00
  0.881905E+00  0.864962E+00  0.846287E+00  0.826732E+00  0.803713E+00  0.775474E+00
  0.739487E+00  0.693241E+00  0.635341E+00  0.565966E+00  0.486670E+00  0.401709E+00
  0.319849E+00  0.251185E+00  0.201467E+00  0.171861E+00  0.162057E+00  0.171861E+00
  0.201467E+00  0.251185E+00  0.319849E+00  0.401709E+00  0.486670E+00  0.565966E+00
  0.635341E+00  0.693241E+00  0.739487E+00  0.775474E+00  0.803713E+00  0.826732E+00
  0.846287E+00  0.863012E+00  0.876382E+00  0.885164E+00  0.888233E+00  0.885164E+00
  0.876382E+00  0.863012E+00  0.846287E+00  0.826147E+00  0.803713E+00  0.775557E+00
  0.739624E+00  0.693633E+00  0.636073E+00  0.566943E+00  0.487737E+00  0.402107E+00
  0.317665E+00  0.244441E+00  0.189184E+00  0.153291E+00  0.135769E+00  0.135769E+00
  0.153291E+00  0.189184E+00  0.244441E+00  0.317665E+00  0.402107E+00  0.487737E+00
  0.566943E+00  0.636073E+00  0.693633E+00  0.739624E+00  0.775557E+00  0.803713E+00
  0.826147E+00  0.844128E+00  0.858063E+00  0.867735E+00  0.872717E+00  0.872717E+00
  0.867735E+00  0.858063E+00  0.844128E+00  0.826147E+00  0.803211E+00  0.775474E+00
  0.739624E+00  0.693698E+00  0.636300E+00  0.567355E+00  0.488308E+00  0.402546E+00
  0.316781E+00  0.240457E+00  0.180953E+00  0.140247E+00  0.116948E+00  0.109394E+00
  0.116948E+00  0.140247E+00  0.180953E+00  0.240457E+00  0.316781E+00  0.402546E+00
  0.488308E+00  0.567355E+00  0.636300E+00  0.693698E+00  0.739624E+00  0.775474E+00
  0.803211E+00  0.824561E+00  0.840627E+00  0.851935E+00  0.858674E+00  0.860913E+00
  0.858674E+00  0.851935E+00  0.840627E+00  0.824561E+00  0.803211E+00  0.775073E+00
  0.739487E+00  0.693633E+00  0.636300E+00  0.567446E+00  0.488490E+00  0.402753E+00
  0.316458E+00  0.238331E+00  0.175818E+00  0.131505E+00  0.104008E+00  0.909892E-01
  0.909892E-01  0.104008E+00  0.131505E+00  0.175818E+00  0.238331E+00  0.316458E+00
  0.402753E+00  0.488490E+00  0.567446E+00  0.636300E+00  0.693633E+00  0.739487E+00
  0.775073E+00  0.802133E+00  0.822259E+00  0.836570E+00  0.845759E+00  0.850245E+00
  0.850245E+00  0.845759E+00  0.836570E+00  0.822259E+00  0.802133E+00  0.775073E+00
  0.738850E+00  0.693241E+00  0.636073E+00  0.567355E+00  0.488490E+00  0.402789E+00
  0.316323E+00  0.237321E+00  0.172910E+00  0.125991E+00  0.954644E-01  0.786511E-01
  0.733228E-01  0.786511E-01  0.954644E-01  0.125991E+00  0.172910E+00  0.237321E+00
  0.316323E+00  0.402789E+00  0.488490E+00  0.567355E+00  0.636073E+00  0.693241E+00
  0.738850E+00  0.773987E+00  0.800266E+00  0.819209E+00  0.831960E+00  0.839294E+00
  0.841684E+00  0.839294E+00  0.831960E+00  0.819209E+00  0.800266E+00  0.773987E+00
  0.738850E+00  0.692111E+00  0.635341E+00  0.566943E+00  0.488308E+00  0.402753E+00
  0.316323E+00  0.237021E+00  0.171608E+00  0.122944E+00  0.902148E-01  0.707612E-01
  0.618510E-01  0.618510E-01  0.707612E-01  0.902148E-01  0.122944E+00  0.171608E+00
  0.237021E+00  0.316323E+00  0.402753E+00  0.488308E+00  0.566943E+00  0.635341E+00
  0.692111E+00  0.737237E+00  0.771741E+00  0.797124E+00  0.814823E+00  0.825964E+00
  0.831330E+00  0.831330E+00  0.825964E+00  0.814823E+00  0.797124E+00  0.771741E+00
  0.737237E+00  0.692111E+00  0.633817E+00  0.565966E+00  0.487737E+00  0.402546E+00
  0.316458E+00  0.237321E+00  0.171608E+00  0.121966E+00  0.876797E-01  0.662978E-01
  0.549524E-01  0.514414E-01  0.549524E-01  0.662978E-01  0.876797E-01  0.121966E+00
  0.171608E+00  0.237321E+00  0.316458E+00  0.402546E+00  0.487737E+00  0.565966E+00
  0.633817E+00  0.689879E+00  0.734179E+00  0.767722E+00  0.791909E+00  0.808082E+00
  0.817315E+00  0.820310E+00  0.817315E+00  0.808082E+00  0.791909E+00  0.767722E+00
  0.734179E+00  0.689879E+00  0.633817E+00  0.564277E+00  0.486670E+00  0.402107E+00
  0.316781E+00  0.238331E+00  0.172910E+00  0.122944E+00  0.876797E-01  0.648386E-01
  0.516883E-01  0.458132E-01  0.458132E-01  0.516883E-01  0.648386E-01  0.876797E-01
  0.122944E+00  0.172910E+00  0.238331E+00  0.316781E+00  0.402107E+00  0.486670E+00
  0.564277E+00  0.631262E+00  0.686171E+00  0.729141E+00  0.761216E+00  0.783730E+00
  0.797929E+00  0.804767E+00  0.804767E+00  0.797929E+00  0.783730E+00  0.761216E+00
  0.729141E+00  0.686171E+00  0.631262E+00  0.564277E+00  0.485189E+00  0.401709E+00
  0.317665E+00  0.240457E+00  0.175818E+00  0.125991E+00  0.902148E-01  0.662978E-01
  0.516883E-01  0.440359E-01  0.416834E-01  0.440359E-01  0.516883E-01  0.662978E-01
  0.902148E-01  0.125991E+00  0.175818E+00  0.240457E+00  0.317665E+00  0.401709E+00
  0.485189E+00  0.561693E+00  0.627275E+00  0.680479E+00  0.721570E+00  0.751638E+00
  0.771957E+00  0.783640E+00  0.787445E+00  0.783640E+00  0.771957E+00  0.751638E+00
  0.721570E+00  0.680479E+00  0.627275E+00  0.561693E+00  0.485189E+00  0.401859E+00
  0.319849E+00  0.244441E+00  0.180953E+00  0.131505E+00  0.954644E-01  0.707612E-01
  0.549524E-01  0.458132E-01  0.416834E-01  0.416834E-01  0.458132E-01  0.549524E-01
  0.707612E-01  0.954644E-01  0.131505E+00  0.180953E+00  0.244441E+00  0.319849E+00
  0.401859E+00  0.483344E+00  0.557842E+00  0.621313E+00  0.672303E+00  0.711089E+00
  0.738712E+00  0.756335E+00  0.764890E+00  0.764890E+00  0.756335E+00  0.738712E+00
  0.711089E+00  0.672303E+00  0.621313E+00  0.557842E+00  0.483344E+00  0.401859E+00
  0.324121E+00  0.251185E+00  0.189184E+00  0.140247E+00  0.104008E+00  0.786511E-01
  0.618510E-01  0.514414E-01  0.458132E-01  0.440359E-01  0.458132E-01  0.514414E-01
  0.618510E-01  0.786511E-01  0.104008E+00  0.140247E+00  0.189184E+00  0.251185E+00
  0.324121E+00  0.402996E+00  0.481145E+00  0.552474E+00  0.613075E+00  0.661396E+00
  0.697512E+00  0.722272E+00  0.736650E+00  0.741358E+00  0.736650E+00  0.722272E+00
  0.697512E+00  0.661396E+00  0.613075E+00  0.552474E+00  0.481145E+00  0.402996E+00
  0.324121E+00  0.261481E+00  0.201467E+00  0.153291E+00  0.116948E+00  0.909892E-01
  0.733228E-01  0.618510E-01  0.549524E-01  0.516883E-01  0.516883E-01  0.549524E-01
  0.618510E-01  0.733228E-01  0.909892E-01  0.116948E+00  0.153291E+00  0.201467E+00
  0.261481E+00  0.331053E+00  0.405504E+00  0.478920E+00  0.545913E+00  0.602790E+00
  0.647787E+00  0.680650E+00  0.701939E+00  0.712363E+00  0.712363E+00  0.701939E+00
  0.680650E+00  0.647787E+00  0.602790E+00  0.545913E+00  0.478920E+00  0.405504E+00
  0.331053E+00  0.261481E+00  0.218708E+00  0.171861E+00  0.135769E+00  0.109394E+00
  0.909892E-01  0.786511E-01  0.707612E-01  0.662978E-01  0.648386E-01  0.662978E-01
  0.707612E-01  0.786511E-01  0.909892E-01  0.109394E+00  0.135769E+00  0.171861E+00
  0.218708E+00  0.275912E+00  0.341058E+00  0.409915E+00  0.477448E+00  0.538975E+00
  0.591005E+00  0.631625E+00  0.660301E+00  0.677257E+00  0.682859E+00  0.677257E+00
  0.660301E+00  0.631625E+00  0.591005E+00  0.538975E+00  0.477448E+00  0.409915E+00
  0.341058E+00  0.275912E+00  0.218708E+00  0.197159E+00  0.162057E+00  0.135769E+00
  0.116948E+00  0.104008E+00  0.954644E-01  0.902148E-01  0.876797E-01  0.876797E-01
  0.902148E-01  0.954644E-01  0.104008E+00  0.116948E+00  0.135769E+00  0.162057E+00
  0.197159E+00  0.241692E+00  0.294936E+00  0.354538E+00  0.416815E+00  0.477448E+00
  0.532288E+00  0.578122E+00  0.613096E+00  0.636494E+00  0.648185E+00  0.648185E+00
  0.636494E+00  0.613096E+00  0.578122E+00  0.532288E+00  0.477448E+00  0.416815E+00
  0.354538E+00  0.294936E+00  0.241692E+00  0.197159E+00  0.197159E+00  0.171861E+00
  0.153291E+00  0.140247E+00  0.131505E+00  0.125991E+00  0.122944E+00  0.121966E+00
  0.122944E+00  0.125991E+00  0.131505E+00  0.140247E+00  0.153291E+00  0.171861E+00
  0.197159E+00  0.230108E+00  0.270956E+00  0.318864E+00  0.371730E+00  0.426352E+00
  0.478920E+00  0.525774E+00  0.564139E+00  0.592350E+00  0.609557E+00  0.615338E+00
  0.609557E+00  0.592350E+00  0.564139E+00  0.525774E+00  0.478920E+00  0.426352E+00
  0.371730E+00  0.318864E+00  0.270956E+00  0.230108E+00  0.197159E+00  0.218708E+00
  0.201467E+00  0.189184E+00  0.180953E+00  0.175818E+00  0.172910E+00  0.171608E+00
  0.171608E+00  0.172910E+00  0.175818E+00  0.180953E+00  0.189184E+00  0.201467E+00
  0.218708E+00  0.241692E+00  0.270956E+00  0.306530E+00  0.347614E+00  0.392362E+00
  0.437967E+00  0.481145E+00  0.518853E+00  0.548807E+00  0.569526E+00  0.580113E+00
  0.580113E+00  0.569526E+00  0.548807E+00  0.518853E+00  0.481145E+00  0.437967E+00
  0.392362E+00  0.347614E+00  0.306530E+00  0.270956E+00  0.241692E+00  0.218708E+00
  0.261481E+00  0.251185E+00  0.244441E+00  0.240457E+00  0.238331E+00  0.237321E+00
  0.237021E+00  0.237321E+00  0.238331E+00  0.240457E+00  0.244441E+00  0.251185E+00
  0.261481E+00  0.275912E+00  0.294936E+00  0.318864E+00  0.347614E+00  0.380383E+00
  0.415512E+00  0.450686E+00  0.483344E+00  0.511129E+00  0.532190E+00  0.545284E+00
  0.549721E+00  0.545284E+00  0.532190E+00  0.511129E+00  0.483344E+00  0.450686E+00
  0.415512E+00  0.380383E+00  0.347614E+00  0.318864E+00  0.294936E+00  0.275912E+00
  0.261481E+00  0.324121E+00  0.319849E+00  0.317665E+00  0.316781E+00  0.316458E+00
  0.316323E+00  0.316323E+00  0.316458E+00  0.316781E+00  0.317665E+00  0.319849E+00
  0.324121E+00  0.331053E+00  0.341058E+00  0.354538E+00  0.371730E+00  0.392362E+00
  0.415512E+00  0.439792E+00  0.463594E+00  0.485189E+00  0.502869E+00  0.515266E+00
  0.521601E+00  0.521601E+00  0.515266E+00  0.502869E+00  0.485189E+00  0.463594E+00
  0.439792E+00  0.415512E+00  0.392362E+00  0.371730E+00  0.354538E+00  0.341058E+00
  0.331053E+00  0.324121E+00  0.401859E+00  0.401709E+00  0.402107E+00  0.402546E+00
  0.402753E+00  0.402789E+00  0.402753E+00  0.402546E+00  0.402107E+00  0.401709E+00
  0.401859E+00  0.402996E+00  0.405504E+00  0.409915E+00  0.416815E+00  0.426352E+00
  0.437967E+00  0.450686E+00  0.463594E+00  0.475896E+00  0.486670E+00  0.494920E+00
  0.499973E+00  0.501651E+00  0.499973E+00  0.494920E+00  0.486670E+00  0.475896E+00
  0.463594E+00  0.450686E+00  0.437967E+00  0.426352E+00  0.416815E+00  0.409915E+00
  0.405504E+00  0.402996E+00  0.401859E+00  0.485189E+00  0.486670E+00  0.487737E+00
  0.488308E+00  0.488490E+00  0.488490E+00  0.488308E+00  0.487737E+00  0.486670E+00
  0.485189E+00  0.483344E+00  0.481145E+00  0.478920E+00  0.477448E+00  0.477448E+00
  0.478920E+00  0.481145E+00  0.483344E+00  0.485189E+00  0.486670E+00  0.487737E+00
  0.488308E+00  0.488490E+00  0.488490E+00  0.488308E+00  0.487737E+00  0.486670E+00
  0.485189E+00  0.483344E+00  0.481145E+00  0.478920E+00  0.477448E+00  0.477448E+00
  0.478920E+00  0.481145E+00  0.483344E+00  0.485189E+00  0.564277E+00  0.565966E+00
  0.566943E+00  0.567355E+00  0.567446E+00  0.567355E+00  0.566943E+00  0.565966E+00
  0.564277E+00  0.561693E+00  0.557842E+00  0.552474E+00  0.545913E+00  0.538975E+00
  0.532288E+00  0.525774E+00  0.518853E+00  0.511129E+00  0.502869E+00  0.494920E+00
  0.488308E+00  0.483928E+00  0.482394E+00  0.483928E+00  0.488308E+00  0.494920E+00
  0.502869E+00  0.511129E+00  0.518853E+00  0.525774E+00  0.532288E+00  0.538975E+00
  0.545913E+00  0.552474E+00  0.557842E+00  0.561693E+00  0.564277E+00  0.633817E+00
  0.635341E+00  0.636073E+00  0.636300E+00  0.636300E+00  0.636073E+00  0.635341E+00
  0.633817E+00  0.631262E+00  0.627275E+00  0.621313E+00  0.613075E+00  0.602790E+00
  0.591005E+00  0.578122E+00  0.564139E+00  0.548807E+00  0.532190E+00  0.515266E+00
  0.499973E+00  0.488490E+00  0.482394E+00  0.482394E+00  0.488490E+00  0.499973E+00
  0.515266E+00  0.532190E+00  0.548807E+00  0.564139E+00  0.578122E+00  0.591005E+00
  0.602790E+00  0.613075E+00  0.621313E+00  0.627275E+00  0.631262E+00  0.633817E+00
  0.692111E+00  0.693241E+00  0.693633E+00  0.693698E+00  0.693633E+00  0.693241E+00
  0.692111E+00  0.689879E+00  0.686171E+00  0.680479E+00  0.672303E+00  0.661396E+00
  0.647787E+00  0.631625E+00  0.613096E+00  0.592350E+00  0.569526E+00  0.545284E+00
  0.521601E+00  0.501651E+00  0.488490E+00  0.483928E+00  0.488490E+00  0.501651E+00
  0.521601E+00  0.545284E+00  0.569526E+00  0.592350E+00  0.613096E+00  0.631625E+00
  0.647787E+00  0.661396E+00  0.672303E+00  0.680479E+00  0.686171E+00  0.689879E+00
  0.692111E+00  0.738850E+00  0.739487E+00  0.739624E+00  0.739624E+00  0.739487E+00
  0.738850E+00  0.737237E+00  0.734179E+00  0.729141E+00  0.721570E+00  0.711089E+00
  0.697512E+00  0.680650E+00  0.660301E+00  0.636494E+00  0.609557E+00  0.580113E+00
  0.549721E+00  0.521601E+00  0.499973E+00  0.488308E+00  0.488308E+00  0.499973E+00
  0.521601E+00  0.549721E+00  0.580113E+00  0.609557E+00  0.636494E+00  0.660301E+00
  0.680650E+00  0.697512E+00  0.711089E+00  0.721570E+00  0.729141E+00  0.734179E+00
  0.737237E+00  0.738850E+00  0.775073E+00  0.775474E+00  0.775557E+00  0.775474E+00
  0.775073E+00  0.773987E+00  0.771741E+00  0.767722E+00  0.761216E+00  0.751638E+00
  0.738712E+00  0.722272E+00  0.701939E+00  0.677257E+00  0.648185E+00  0.615338E+00
  0.580113E+00  0.545284E+00  0.515266E+00  0.494920E+00  0.487737E+00  0.494920E+00
  0.515266E+00  0.545284E+00  0.580113E+00  0.615338E+00  0.648185E+00  0.677257E+00
  0.701939E+00  0.722272E+00  0.738712E+00  0.751638E+00  0.761216E+00  0.767722E+00
  0.771741E+00  0.773987E+00  0.775073E+00  0.803211E+00  0.803713E+00  0.803713E+00
  0.803211E+00  0.802133E+00  0.800266E+00  0.797124E+00  0.791909E+00  0.783730E+00
  0.771957E+00  0.756335E+00  0.736650E+00  0.712363E+00  0.682859E+00  0.648185E+00
  0.609557E+00  0.569526E+00  0.532190E+00  0.502869E+00  0.486670E+00  0.486670E+00
  0.502869E+00  0.532190E+00  0.569526E+00  0.609557E+00  0.648185E+00  0.682859E+00
  0.712363E+00  0.736650E+00  0.756335E+00  0.771957E+00  0.783730E+00  0.791909E+00
  0.797124E+00  0.800266E+00  0.802133E+00  0.803211E+00  0.826147E+00  0.826732E+00
  0.826147E+00  0.824561E+00  0.822259E+00  0.819209E+00  0.814823E+00  0.808082E+00
  0.797929E+00  0.783640E+00  0.764890E+00  0.741358E+00  0.712363E+00  0.677257E+00
  0.636494E+00  0.592350E+00  0.548807E+00  0.511129E+00  0.485189E+00  0.475896E+00
  0.485189E+00  0.511129E+00  0.548807E+00  0.592350E+00  0.636494E+00  0.677257E+00
  0.712363E+00  0.741358E+00  0.764890E+00  0.783640E+00  0.797929E+00  0.808082E+00
  0.814823E+00  0.819209E+00  0.822259E+00  0.824561E+00  0.826147E+00  0.846287E+00
  0.846287E+00  0.844128E+00  0.840627E+00  0.836570E+00  0.831960E+00  0.825964E+00
  0.817315E+00  0.804767E+00  0.787445E+00  0.764890E+00  0.736650E+00  0.701939E+00
  0.660301E+00  0.613096E+00  0.564139E+00  0.518853E+00  0.483344E+00  0.463594E+00
  0.463594E+00  0.483344E+00  0.518853E+00  0.564139E+00  0.613096E+00  0.660301E+00
  0.701939E+00  0.736650E+00  0.764890E+00  0.787445E+00  0.804767E+00  0.817315E+00
  0.825964E+00  0.831960E+00  0.836570E+00  0.840627E+00  0.844128E+00  0.846287E+00
  0.864962E+00  0.863012E+00  0.858063E+00  0.851935E+00  0.845759E+00  0.839294E+00
  0.831330E+00  0.820310E+00  0.804767E+00  0.783640E+00  0.756335E+00  0.722272E+00
  0.680650E+00  0.631625E+00  0.578122E+00  0.525774E+00  0.481145E+00  0.450686E+00
  0.439792E+00  0.450686E+00  0.481145E+00  0.525774E+00  0.578122E+00  0.631625E+00
  0.680650E+00  0.722272E+00  0.756335E+00  0.783640E+00  0.804767E+00  0.820310E+00
  0.831330E+00  0.839294E+00  0.845759E+00  0.851935E+00  0.858063E+00  0.863012E+00
  0.864962E+00  0.881905E+00  0.876382E+00  0.867735E+00  0.858674E+00  0.850245E+00
  0.841684E+00  0.831330E+00  0.817315E+00  0.797929E+00  0.771957E+00  0.738712E+00
  0.697512E+00  0.647787E+00  0.591005E+00  0.532288E+00  0.478920E+00  0.437967E+00
  0.415512E+00  0.415512E+00  0.437967E+00  0.478920E+00  0.532288E+00  0.591005E+00
  0.647787E+00  0.697512E+00  0.738712E+00  0.771957E+00  0.797929E+00  0.817315E+00
  0.831330E+00  0.841684E+00  0.850245E+00  0.858674E+00  0.867735E+00  0.876382E+00
  0.881905E+00  0.881905E+00  0.895241E+00  0.885164E+00  0.872717E+00  0.860913E+00
  0.850245E+00  0.839294E+00  0.825964E+00  0.808082E+00  0.783730E+00  0.751638E+00
  0.711089E+00  0.661396E+00  0.602790E+00  0.538975E+00  0.477448E+00  0.426352E+00
  0.392362E+00  0.380383E+00  0.392362E+00  0.426352E+00  0.477448E+00  0.538975E+00
  0.602790E+00  0.661396E+00  0.711089E+00  0.751638E+00  0.783730E+00  0.808082E+00
  0.825964E+00  0.839294E+00  0.850245E+00  0.860913E+00  0.872717E+00  0.885164E+00
  0.895241E+00  0.899163E+00  0.895241E+00  0.902628E+00  0.888233E+00  0.872717E+00
  0.858674E+00  0.845759E+00  0.831960E+00  0.814823E+00  0.791909E+00  0.761216E+00
  0.721570E+00  0.672303E+00  0.613075E+00  0.545913E+00  0.477448E+00  0.416815E+00
  0.371730E+00  0.347614E+00  0.347614E+00  0.371730E+00  0.416815E+00  0.477448E+00
  0.545913E+00  0.613075E+00  0.672303E+00  0.721570E+00  0.761216E+00  0.791909E+00
  0.814823E+00  0.831960E+00  0.845759E+00  0.858674E+00  0.872717E+00  0.888233E+00
  0.902628E+00  0.911439E+00  0.911439E+00  0.902628E+00  0.902628E+00  0.885164E+00
  0.867735E+00  0.851935E+00  0.836570E+00  0.819209E+00  0.797124E+00  0.767722E+00
  0.729141E+00  0.680479E+00  0.621313E+00  0.552474E+00  0.478920E+00  0.409915E+00
  0.354538E+00  0.318864E+00  0.306530E+00  0.318864E+00  0.354538E+00  0.409915E+00
  0.478920E+00  0.552474E+00  0.621313E+00  0.680479E+00  0.729141E+00  0.767722E+00
  0.797124E+00  0.819209E+00  0.836570E+00  0.851935E+00  0.867735E+00  0.885164E+00
  0.902628E+00  0.915868E+00  0.920791E+00  0.915868E+00  0.902628E+00  0.895241E+00
  0.876382E+00  0.858063E+00  0.840627E+00  0.822259E+00  0.800266E+00  0.771741E+00
  0.734179E+00  0.686171E+00  0.627275E+00  0.557842E+00  0.481145E+00  0.405504E+00
  0.341058E+00  0.294936E+00  0.270956E+00  0.270956E+00  0.294936E+00  0.341058E+00
  0.405504E+00  0.481145E+00  0.557842E+00  0.627275E+00  0.686171E+00  0.734179E+00
  0.771741E+00  0.800266E+00  0.822259E+00  0.840627E+00  0.858063E+00  0.876382E+00
  0.895241E+00  0.911439E+00  0.920791E+00  0.920791E+00  0.911439E+00  0.895241E+00
  0.881905E+00  0.863012E+00  0.844128E+00  0.824561E+00  0.802133E+00  0.773987E+00
  0.737237E+00  0.689879E+00  0.631262E+00  0.561693E+00  0.483344E+00  0.402996E+00
  0.331053E+00  0.275912E+00  0.241692E+00  0.230108E+00  0.241692E+00  0.275912E+00
  0.331053E+00  0.402996E+00  0.483344E+00  0.561693E+00  0.631262E+00  0.689879E+00
  0.737237E+00  0.773987E+00  0.802133E+00  0.824561E+00  0.844128E+00  0.863012E+00
  0.881905E+00  0.899163E+00  0.911439E+00  0.915868E+00  0.911439E+00  0.899163E+00
  0.881905E+00  0.864962E+00  0.846287E+00  0.826147E+00  0.803211E+00  0.775073E+00
  0.738850E+00  0.692111E+00  0.633817E+00  0.564277E+00  0.485189E+00  0.401859E+00
  0.324121E+00  0.261481E+00  0.218708E+00  0.197159E+00  0.197159E+00  0.218708E+00
  0.261481E+00  0.324121E+00  0.401859E+00  0.485189E+00  0.564277E+00  0.633817E+00
  0.692111E+00  0.738850E+00  0.775073E+00  0.803211E+00  0.826147E+00  0.846287E+00
  0.864962E+00  0.881905E+00  0.895241E+00  0.902628E+00  0.902628E+00  0.895241E+00
  0.881905E+00  0.864962E+00  0.899477E+00  0.876291E+00  0.847584E+00  0.811996E+00
  0.767405E+00  0.711682E+00  0.643764E+00  0.564277E+00  0.475896E+00  0.384674E+00
  0.300361E+00  0.232079E+00  0.183820E+00  0.155522E+00  0.146226E+00  0.155522E+00
  0.183820E+00  0.232079E+00  0.300361E+00  0.384674E+00  0.475896E+00  0.564277E+00
  0.643764E+00  0.711682E+00  0.767405E+00  0.811996E+00  0.847584E+00  0.876291E+00
  0.899477E+00  0.917622E+00  0.930672E+00  0.938496E+00  0.941094E+00  0.938496E+00
  0.930672E+00  0.917622E+00  0.899477E+00  0.876291E+00  0.849646E+00  0.815873E+00
  0.773099E+00  0.719263E+00  0.653061E+00  0.574767E+00  0.486670E+00  0.394002E+00
  0.305714E+00  0.231575E+00  0.176953E+00  0.142065E+00  0.125226E+00  0.125226E+00
  0.142065E+00  0.176953E+00  0.231575E+00  0.305714E+00  0.394002E+00  0.486670E+00
  0.574767E+00  0.653061E+00  0.719263E+00  0.773099E+00  0.815873E+00  0.849646E+00
  0.876291E+00  0.896997E+00  0.912300E+00  0.922395E+00  0.927398E+00  0.927398E+00
  0.922395E+00  0.912300E+00  0.896997E+00  0.876291E+00  0.847584E+00  0.815873E+00
  0.774995E+00  0.723045E+00  0.658698E+00  0.582001E+00  0.494920E+00  0.402107E+00
  0.311663E+00  0.233294E+00  0.173487E+00  0.133230E+00  0.110481E+00  0.103162E+00
  0.110481E+00  0.133230E+00  0.173487E+00  0.233294E+00  0.311663E+00  0.402107E+00
  0.494920E+00  0.582001E+00  0.658698E+00  0.723045E+00  0.774995E+00  0.815873E+00
  0.847584E+00  0.871856E+00  0.889881E+00  0.902353E+00  0.909675E+00  0.912087E+00
  0.909675E+00  0.902353E+00  0.889881E+00  0.871856E+00  0.847584E+00  0.811996E+00
  0.773099E+00  0.723045E+00  0.660569E+00  0.585631E+00  0.499973E+00  0.407871E+00
  0.316781E+00  0.235949E+00  0.172350E+00  0.127860E+00  0.100574E+00  0.877738E-01
  0.877738E-01  0.100574E+00  0.127860E+00  0.172350E+00  0.235949E+00  0.316781E+00
  0.407871E+00  0.499973E+00  0.585631E+00  0.660569E+00  0.723045E+00  0.773099E+00
  0.811996E+00  0.841543E+00  0.863434E+00  0.878923E+00  0.888829E+00  0.893656E+00
  0.893656E+00  0.888829E+00  0.878923E+00  0.863434E+00  0.841543E+00  0.811996E+00
  0.767405E+00  0.719263E+00  0.658698E+00  0.585631E+00  0.501651E+00  0.410778E+00
  0.320079E+00  0.238331E+00  0.172460E+00  0.124903E+00  0.942128E-01  0.774401E-01
  0.721514E-01  0.774401E-01  0.942128E-01  0.124903E+00  0.172460E+00  0.238331E+00
  0.320079E+00  0.410778E+00  0.501651E+00  0.585631E+00  0.658698E+00  0.719263E+00
  0.767405E+00  0.804360E+00  0.831886E+00  0.851650E+00  0.864917E+00  0.872543E+00
  0.875029E+00  0.872543E+00  0.864917E+00  0.851650E+00  0.831886E+00  0.804360E+00
  0.767405E+00  0.711682E+00  0.653061E+00  0.582001E+00  0.499973E+00  0.410778E+00
  0.321192E+00  0.239673E+00  0.172910E+00  0.123481E+00  0.903669E-01  0.707651E-01
  0.618185E-01  0.618185E-01  0.707651E-01  0.903669E-01  0.123481E+00  0.172910E+00
  0.239673E+00  0.321192E+00  0.410778E+00  0.499973E+00  0.582001E+00  0.653061E+00
  0.711682E+00  0.757992E+00  0.793206E+00  0.818992E+00  0.836916E+00  0.848185E+00
  0.853612E+00  0.853612E+00  0.848185E+00  0.836916E+00  0.818992E+00  0.793206E+00
  0.757992E+00  0.711682E+00  0.643764E+00  0.574767E+00  0.494920E+00  0.407871E+00
  0.320079E+00  0.239673E+00  0.173124E+00  0.122944E+00  0.883211E-01  0.667477E-01
  0.553107E-01  0.517735E-01  0.553107E-01  0.667477E-01  0.883211E-01  0.122944E+00
  0.173124E+00  0.239673E+00  0.320079E+00  0.407871E+00  0.494920E+00  0.574767E+00
  0.643764E+00  0.700498E+00  0.745125E+00  0.778789E+00  0.803000E+00  0.819169E+00
  0.828396E+00  0.831390E+00  0.828396E+00  0.819169E+00  0.803000E+00  0.778789E+00
  0.745125E+00  0.700498E+00  0.643764E+00  0.564277E+00  0.486670E+00  0.402107E+00
  0.316781E+00  0.238331E+00  0.172910E+00  0.122944E+00  0.876797E-01  0.648386E-01
  0.516883E-01  0.458132E-01  0.458132E-01  0.516883E-01  0.648386E-01  0.876797E-01
  0.122944E+00  0.172910E+00  0.238331E+00  0.316781E+00  0.402107E+00  0.486670E+00
  0.564277E+00  0.631262E+00  0.686171E+00  0.729141E+00  0.761216E+00  0.783730E+00
  0.797929E+00  0.804767E+00  0.804767E+00  0.797929E+00  0.783730E+00  0.761216E+00
  0.729141E+00  0.686171E+00  0.631262E+00  0.564277E+00  0.475896E+00  0.394002E+00
  0.311663E+00  0.235949E+00  0.172460E+00  0.123481E+00  0.883211E-01  0.648386E-01
  0.505171E-01  0.430300E-01  0.407317E-01  0.430300E-01  0.505171E-01  0.648386E-01
  0.883211E-01  0.123481E+00  0.172460E+00  0.235949E+00  0.311663E+00  0.394002E+00
  0.475896E+00  0.551240E+00  0.616176E+00  0.669144E+00  0.710244E+00  0.740424E+00
  0.760865E+00  0.772632E+00  0.776465E+00  0.772632E+00  0.760865E+00  0.740424E+00
  0.710244E+00  0.669144E+00  0.616176E+00  0.551240E+00  0.475896E+00  0.384674E+00
  0.305714E+00  0.233294E+00  0.172350E+00  0.124903E+00  0.903669E-01  0.667477E-01
  0.516883E-01  0.430300E-01  0.391398E-01  0.391398E-01  0.430300E-01  0.516883E-01
  0.667477E-01  0.903669E-01  0.124903E+00  0.172350E+00  0.233294E+00  0.305714E+00
  0.384674E+00  0.463594E+00  0.536362E+00  0.598933E+00  0.649635E+00  0.688497E+00
  0.716350E+00  0.734199E+00  0.742887E+00  0.742887E+00  0.734199E+00  0.716350E+00
  0.688497E+00  0.649635E+00  0.598933E+00  0.536362E+00  0.463594E+00  0.384674E+00
  0.300361E+00  0.231575E+00  0.173487E+00  0.127860E+00  0.942128E-01  0.707651E-01
  0.553107E-01  0.458132E-01  0.407317E-01  0.391398E-01  0.407317E-01  0.458132E-01
  0.553107E-01  0.707651E-01  0.942128E-01  0.127860E+00  0.173487E+00  0.231575E+00
  0.300361E+00  0.375446E+00  0.450686E+00  0.520146E+00  0.579769E+00  0.627760E+00
  0.663959E+00  0.688982E+00  0.703605E+00  0.708408E+00  0.703605E+00  0.688982E+00
  0.663959E+00  0.627760E+00  0.579769E+00  0.520146E+00  0.450686E+00  0.375446E+00
  0.300361E+00  0.232079E+00  0.176953E+00  0.133230E+00  0.100574E+00  0.774401E-01
  0.618185E-01  0.517735E-01  0.458132E-01  0.430300E-01  0.430300E-01  0.458132E-01
  0.517735E-01  0.618185E-01  0.774401E-01  0.100574E+00  0.133230E+00  0.176953E+00
  0.232079E+00  0.296914E+00  0.367405E+00  0.437967E+00  0.503166E+00  0.559099E+00
  0.603784E+00  0.636737E+00  0.658266E+00  0.668868E+00  0.668868E+00  0.658266E+00
  0.636737E+00  0.603784E+00  0.559099E+00  0.503166E+00  0.437967E+00  0.367405E+00
  0.296914E+00  0.232079E+00  0.183820E+00  0.142065E+00  0.110481E+00  0.877738E-01
  0.721514E-01  0.618185E-01  0.553107E-01  0.516883E-01  0.505171E-01  0.516883E-01
  0.553107E-01  0.618185E-01  0.721514E-01  0.877738E-01  0.110481E+00  0.142065E+00
  0.183820E+00  0.235823E+00  0.296263E+00  0.361393E+00  0.426352E+00  0.486359E+00
  0.537707E+00  0.578216E+00  0.607066E+00  0.624232E+00  0.629920E+00  0.624232E+00
  0.607066E+00  0.578216E+00  0.537707E+00  0.486359E+00  0.426352E+00  0.361393E+00
  0.296263E+00  0.235823E+00  0.183820E+00  0.155522E+00  0.125226E+00  0.103162E+00
  0.877738E-01  0.774401E-01  0.707651E-01  0.667477E-01  0.648386E-01  0.648386E-01
  0.667477E-01  0.707651E-01  0.774401E-01  0.877738E-01  0.103162E+00  0.125226E+00
  0.155522E+00  0.195030E+00  0.243483E+00  0.298971E+00  0.358140E+00  0.416815E+00
  0.470762E+00  0.516486E+00  0.551750E+00  0.575505E+00  0.587415E+00  0.587415E+00
  0.575505E+00  0.551750E+00  0.516486E+00  0.470762E+00  0.416815E+00  0.358140E+00
  0.298971E+00  0.243483E+00  0.195030E+00  0.155522E+00  0.146226E+00  0.125226E+00
  0.110481E+00  0.100574E+00  0.942128E-01  0.903669E-01  0.883211E-01  0.876797E-01
  0.883211E-01  0.903669E-01  0.942128E-01  0.100574E+00  0.110481E+00  0.125226E+00
  0.146226E+00  0.174733E+00  0.211341E+00  0.255519E+00  0.305439E+00  0.358140E+00
  0.409915E+00  0.456937E+00  0.496028E+00  0.525078E+00  0.542904E+00  0.548909E+00
  0.542904E+00  0.525078E+00  0.496028E+00  0.456937E+00  0.409915E+00  0.358140E+00
  0.305439E+00  0.255519E+00  0.211341E+00  0.174733E+00  0.146226E+00  0.155522E+00
  0.142065E+00  0.133230E+00  0.127860E+00  0.124903E+00  0.123481E+00  0.122944E+00
  0.122944E+00  0.123481E+00  0.124903E+00  0.127860E+00  0.133230E+00  0.142065E+00
  0.155522E+00  0.174733E+00  0.200556E+00  0.233257E+00  0.272232E+00  0.315838E+00
  0.361393E+00  0.405504E+00  0.444766E+00  0.476436E+00  0.498600E+00  0.510013E+00
  0.510013E+00  0.498600E+00  0.476436E+00  0.444766E+00  0.405504E+00  0.361393E+00
  0.315838E+00  0.272232E+00  0.233257E+00  0.200556E+00  0.174733E+00  0.155522E+00
  0.183820E+00  0.176953E+00  0.173487E+00  0.172350E+00  0.172460E+00  0.172910E+00
  0.173124E+00  0.172910E+00  0.172460E+00  0.172350E+00  0.173487E+00  0.176953E+00
  0.183820E+00  0.195030E+00  0.211341E+00  0.233257E+00  0.260869E+00  0.293597E+00
  0.329933E+00  0.367405E+00  0.402996E+00  0.433817E+00  0.457556E+00  0.472532E+00
  0.477656E+00  0.472532E+00  0.457556E+00  0.433817E+00  0.402996E+00  0.367405E+00
  0.329933E+00  0.293597E+00  0.260869E+00  0.233257E+00  0.211341E+00  0.195030E+00
  0.183820E+00  0.232079E+00  0.231575E+00  0.233294E+00  0.235949E+00  0.238331E+00
  0.239673E+00  0.239673E+00  0.238331E+00  0.235949E+00  0.233294E+00  0.231575E+00
  0.232079E+00  0.235823E+00  0.243483E+00  0.255519E+00  0.272232E+00  0.293597E+00
  0.318989E+00  0.346987E+00  0.375446E+00  0.401859E+00  0.423859E+00  0.439572E+00
  0.447741E+00  0.447741E+00  0.439572E+00  0.423859E+00  0.401859E+00  0.375446E+00
  0.346987E+00  0.318989E+00  0.293597E+00  0.272232E+00  0.255519E+00  0.243483E+00
  0.235823E+00  0.232079E+00  0.300361E+00  0.305714E+00  0.311663E+00  0.316781E+00
  0.320079E+00  0.321192E+00  0.320079E+00  0.316781E+00  0.311663E+00  0.305714E+00
  0.300361E+00  0.296914E+00  0.296263E+00  0.298971E+00  0.305439E+00  0.315838E+00
  0.329933E+00  0.346987E+00  0.365787E+00  0.384674E+00  0.401709E+00  0.415065E+00
  0.423467E+00  0.426317E+00  0.423467E+00  0.415065E+00  0.401709E+00  0.384674E+00
  0.365787E+00  0.346987E+00  0.329933E+00  0.315838E+00  0.305439E+00  0.298971E+00
  0.296263E+00  0.296914E+00  0.300361E+00  0.384674E+00  0.394002E+00  0.402107E+00
  0.407871E+00  0.410778E+00  0.410778E+00  0.407871E+00  0.402107E+00  0.394002E+00
  0.384674E+00  0.375446E+00  0.367405E+00  0.361393E+00  0.358140E+00  0.358140E+00
  0.361393E+00  0.367405E+00  0.375446E+00  0.384674E+00  0.394002E+00  0.402107E+00
  0.407871E+00  0.410778E+00  0.410778E+00  0.407871E+00  0.402107E+00  0.394002E+00
  0.384674E+00  0.375446E+00  0.367405E+00  0.361393E+00  0.358140E+00  0.358140E+00
  0.361393E+00  0.367405E+00  0.375446E+00  0.384674E+00  0.475896E+00  0.486670E+00
  0.494920E+00  0.499973E+00  0.501651E+00  0.499973E+00  0.494920E+00  0.486670E+00
  0.475896E+00  0.463594E+00  0.450686E+00  0.437967E+00  0.426352E+00  0.416815E+00
  0.409915E+00  0.405504E+00  0.402996E+00  0.401859E+00  0.401709E+00  0.402107E+00
  0.402546E+00  0.402753E+00  0.402789E+00  0.402753E+00  0.402546E+00  0.402107E+00
  0.401709E+00  0.401859E+00  0.402996E+00  0.405504E+00  0.409915E+00  0.416815E+00
  0.426352E+00  0.437967E+00  0.450686E+00  0.463594E+00  0.475896E+00  0.564277E+00
  0.574767E+00  0.582001E+00  0.585631E+00  0.585631E+00  0.582001E+00  0.574767E+00
  0.564277E+00  0.551240E+00  0.536362E+00  0.520146E+00  0.503166E+00  0.486359E+00
  0.470762E+00  0.456937E+00  0.444766E+00  0.433817E+00  0.423859E+00  0.415065E+00
  0.407871E+00  0.402753E+00  0.400088E+00  0.400088E+00  0.402753E+00  0.407871E+00
  0.415065E+00  0.423859E+00  0.433817E+00  0.444766E+00  0.456937E+00  0.470762E+00
  0.486359E+00  0.503166E+00  0.520146E+00  0.536362E+00  0.551240E+00  0.564277E+00
  0.643764E+00  0.653061E+00  0.658698E+00  0.660569E+00  0.658698E+00  0.653061E+00
  0.643764E+00  0.631262E+00  0.616176E+00  0.598933E+00  0.579769E+00  0.559099E+00
  0.537707E+00  0.516486E+00  0.496028E+00  0.476436E+00  0.457556E+00  0.439572E+00
  0.423467E+00  0.410778E+00  0.402789E+00  0.400088E+00  0.402789E+00  0.410778E+00
  0.423467E+00  0.439572E+00  0.457556E+00  0.476436E+00  0.496028E+00  0.516486E+00
  0.537707E+00  0.559099E+00  0.579769E+00  0.598933E+00  0.616176E+00  0.631262E+00
  0.643764E+00  0.711682E+00  0.719263E+00  0.723045E+00  0.723045E+00  0.719263E+00
  0.711682E+00  0.700498E+00  0.686171E+00  0.669144E+00  0.649635E+00  0.627760E+00
  0.603784E+00  0.578216E+00  0.551750E+00  0.525078E+00  0.498600E+00  0.472532E+00
  0.447741E+00  0.426317E+00  0.410778E+00  0.402753E+00  0.402753E+00  0.410778E+00
  0.426317E+00  0.447741E+00  0.472532E+00  0.498600E+00  0.525078E+00  0.551750E+00
  0.578216E+00  0.603784E+00  0.627760E+00  0.649635E+00  0.669144E+00  0.686171E+00
  0.700498E+00  0.711682E+00  0.767405E+00  0.773099E+00  0.774995E+00  0.773099E+00
  0.767405E+00  0.757992E+00  0.745125E+00  0.729141E+00  0.710244E+00  0.688497E+00
  0.663959E+00  0.636737E+00  0.607066E+00  0.575505E+00  0.542904E+00  0.510013E+00
  0.477656E+00  0.447741E+00  0.423467E+00  0.407871E+00  0.402546E+00  0.407871E+00
  0.423467E+00  0.447741E+00  0.477656E+00  0.510013E+00  0.542904E+00  0.575505E+00
  0.607066E+00  0.636737E+00  0.663959E+00  0.688497E+00  0.710244E+00  0.729141E+00
  0.745125E+00  0.757992E+00  0.767405E+00  0.811996E+00  0.815873E+00  0.815873E+00
  0.811996E+00  0.804360E+00  0.793206E+00  0.778789E+00  0.761216E+00  0.740424E+00
  0.716350E+00  0.688982E+00  0.658266E+00  0.624232E+00  0.587415E+00  0.548909E+00
  0.510013E+00  0.472532E+00  0.439572E+00  0.415065E+00  0.402107E+00  0.402107E+00
  0.415065E+00  0.439572E+00  0.472532E+00  0.510013E+00  0.548909E+00  0.587415E+00
  0.624232E+00  0.658266E+00  0.688982E+00  0.716350E+00  0.740424E+00  0.761216E+00
  0.778789E+00  0.793206E+00  0.804360E+00  0.811996E+00  0.847584E+00  0.849646E+00
  0.847584E+00  0.841543E+00  0.831886E+00  0.818992E+00  0.803000E+00  0.783730E+00
  0.760865E+00  0.734199E+00  0.703605E+00  0.668868E+00  0.629920E+00  0.587415E+00
  0.542904E+00  0.498600E+00  0.457556E+00  0.423859E+00  0.401709E+00  0.394002E+00
  0.401709E+00  0.423859E+00  0.457556E+00  0.498600E+00  0.542904E+00  0.587415E+00
  0.629920E+00  0.668868E+00  0.703605E+00  0.734199E+00  0.760865E+00  0.783730E+00
  0.803000E+00  0.818992E+00  0.831886E+00  0.841543E+00  0.847584E+00  0.876291E+00
  0.876291E+00  0.871856E+00  0.863434E+00  0.851650E+00  0.836916E+00  0.819169E+00
  0.797929E+00  0.772632E+00  0.742887E+00  0.708408E+00  0.668868E+00  0.624232E+00
  0.575505E+00  0.525078E+00  0.476436E+00  0.433817E+00  0.401859E+00  0.384674E+00
  0.384674E+00  0.401859E+00  0.433817E+00  0.476436E+00  0.525078E+00  0.575505E+00
  0.624232E+00  0.668868E+00  0.708408E+00  0.742887E+00  0.772632E+00  0.797929E+00
  0.819169E+00  0.836916E+00  0.851650E+00  0.863434E+00  0.871856E+00  0.876291E+00
  0.899477E+00  0.896997E+00  0.889881E+00  0.878923E+00  0.864917E+00  0.848185E+00
  0.828396E+00  0.804767E+00  0.776465E+00  0.742887E+00  0.703605E+00  0.658266E+00
  0.607066E+00  0.551750E+00  0.496028E+00  0.444766E+00  0.402996E+00  0.375446E+00
  0.365787E+00  0.375446E+00  0.402996E+00  0.444766E+00  0.496028E+00  0.551750E+00
  0.607066E+00  0.658266E+00  0.703605E+00  0.742887E+00  0.776465E+00  0.804767E+00
  0.828396E+00  0.848185E+00  0.864917E+00  0.878923E+00  0.889881E+00  0.896997E+00
  0.899477E+00  0.917622E+00  0.912300E+00  0.902353E+00  0.888829E+00  0.872543E+00
  0.853612E+00  0.831390E+00  0.804767E+00  0.772632E+00  0.734199E+00  0.688982E+00
  0.636737E+00  0.578216E+00  0.516486E+00  0.456937E+00  0.405504E+00  0.367405E+00
  0.346987E+00  0.346987E+00  0.367405E+00  0.405504E+00  0.456937E+00  0.516486E+00
  0.578216E+00  0.636737E+00  0.688982E+00  0.734199E+00  0.772632E+00  0.804767E+00
  0.831390E+00  0.853612E+00  0.872543E+00  0.888829E+00  0.902353E+00  0.912300E+00
  0.917622E+00  0.917622E+00  0.930672E+00  0.922395E+00  0.909675E+00  0.893656E+00
  0.875029E+00  0.853612E+00  0.828396E+00  0.797929E+00  0.760865E+00  0.716350E+00
  0.663959E+00  0.603784E+00  0.537707E+00  0.470762E+00  0.409915E+00  0.361393E+00
  0.329933E+00  0.318989E+00  0.329933E+00  0.361393E+00  0.409915E+00  0.470762E+00
  0.537707E+00  0.603784E+00  0.663959E+00  0.716350E+00  0.760865E+00  0.797929E+00
  0.828396E+00  0.853612E+00  0.875029E+00  0.893656E+00  0.909675E+00  0.922395E+00
  0.930672E+00  0.933549E+00  0.930672E+00  0.938496E+00  0.927398E+00  0.912087E+00
  0.893656E+00  0.872543E+00  0.848185E+00  0.819169E+00  0.783730E+00  0.740424E+00
  0.688497E+00  0.627760E+00  0.559099E+00  0.486359E+00  0.416815E+00  0.358140E+00
  0.315838E+00  0.293597E+00  0.293597E+00  0.315838E+00  0.358140E+00  0.416815E+00
  0.486359E+00  0.559099E+00  0.627760E+00  0.688497E+00  0.740424E+00  0.783730E+00
  0.819169E+00  0.848185E+00  0.872543E+00  0.893656E+00  0.912087E+00  0.927398E+00
  0.938496E+00  0.944323E+00  0.944323E+00  0.938496E+00  0.941094E+00  0.927398E+00
  0.909675E+00  0.888829E+00  0.864917E+00  0.836916E+00  0.803000E+00  0.761216E+00
  0.710244E+00  0.649635E+00  0.579769E+00  0.503166E+00  0.426352E+00  0.358140E+00
  0.305439E+00  0.272232E+00  0.260869E+00  0.272232E+00  0.305439E+00  0.358140E+00
  0.426352E+00  0.503166E+00  0.579769E+00  0.649635E+00  0.710244E+00  0.761216E+00
  0.803000E+00  0.836916E+00  0.864917E+00  0.888829E+00  0.909675E+00  0.927398E+00
  0.941094E+00  0.949711E+00  0.952636E+00  0.949711E+00  0.941094E+00  0.938496E+00
  0.922395E+00  0.902353E+00  0.878923E+00  0.851650E+00  0.818992E+00  0.778789E+00
  0.729141E+00  0.669144E+00  0.598933E+00  0.520146E+00  0.437967E+00  0.361393E+00
  0.298971E+00  0.255519E+00  0.233257E+00  0.233257E+00  0.255519E+00  0.298971E+00
  0.361393E+00  0.437967E+00  0.520146E+00  0.598933E+00  0.669144E+00  0.729141E+00
  0.778789E+00  0.818992E+00  0.851650E+00  0.878923E+00  0.902353E+00  0.922395E+00
  0.938496E+00  0.949711E+00  0.955406E+00  0.955406E+00  0.949711E+00  0.938496E+00
  0.930672E+00  0.912300E+00  0.889881E+00  0.863434E+00  0.831886E+00  0.793206E+00
  0.745125E+00  0.686171E+00  0.616176E+00  0.536362E+00  0.450686E+00  0.367405E+00
  0.296263E+00  0.243483E+00  0.211341E+00  0.200556E+00  0.211341E+00  0.243483E+00
  0.296263E+00  0.367405E+00  0.450686E+00  0.536362E+00  0.616176E+00  0.686171E+00
  0.745125E+00  0.793206E+00  0.831886E+00  0.863434E+00  0.889881E+00  0.912300E+00
  0.930672E+00  0.944323E+00  0.952636E+00  0.955406E+00  0.952636E+00  0.944323E+00
  0.930672E+00  0.917622E+00  0.896997E+00  0.871856E+00  0.841543E+00  0.804360E+00
  0.757992E+00  0.700498E+00  0.631262E+00  0.551240E+00  0.463594E+00  0.375446E+00
  0.296914E+00  0.235823E+00  0.195030E+00  0.174733E+00  0.174733E+00  0.195030E+00
  0.235823E+00  0.296914E+00  0.375446E+00  0.463594E+00  0.551240E+00  0.631262E+00
  0.700498E+00  0.757992E+00  0.804360E+00  0.841543E+00  0.871856E+00  0.896997E+00
  0.917622E+00  0.933549E+00  0.944323E+00  0.949711E+00  0.949711E+00  0.944323E+00
  0.933549E+00  0.917622E+00  0.899477E+00  0.876291E+00  0.847584E+00  0.811996E+00
  0.767405E+00  0.711682E+00  0.643764E+00  0.564277E+00  0.475896E+00  0.384674E+00
  0.300361E+00  0.232079E+00  0.183820E+00  0.155522E+00  0.146226E+00  0.155522E+00
  0.183820E+00  0.232079E+00  0.300361E+00  0.384674E+00  0.475896E+00  0.564277E+00
  0.643764E+00  0.711682E+00  0.767405E+00  0.811996E+00  0.847584E+00  0.876291E+00
  0.899477E+00  0.917622E+00  0.930672E+00  0.938496E+00  0.941094E+00  0.938496E+00
  0.930672E+00  0.917622E+00  0.899477E+00  0.911831E+00  0.885539E+00  0.850280E+00
  0.803921E+00  0.744410E+00  0.670570E+00  0.583001E+00  0.485189E+00  0.384674E+00
  0.292243E+00  0.217317E+00  0.163607E+00  0.129979E+00  0.113966E+00  0.113966E+00
  0.129979E+00  0.163607E+00  0.217317E+00  0.292243E+00  0.384674E+00  0.485189E+00
  0.583001E+00  0.670570E+00  0.744410E+00  0.803921E+00  0.850280E+00  0.885539E+00
  0.911831E+00  0.930907E+00  0.944061E+00  0.952247E+00  0.956151E+00  0.956151E+00
  0.952247E+00  0.944061E+00  0.930907E+00  0.911831E+00  0.885539E+00  0.853169E+00
  0.810011E+00  0.753962E+00  0.683598E+00  0.599008E+00  0.502869E+00  0.401709E+00
  0.305714E+00  0.225048E+00  0.165035E+00  0.125397E+00  0.103316E+00  0.962713E-01
  0.103316E+00  0.125397E+00  0.165035E+00  0.225048E+00  0.305714E+00  0.401709E+00
  0.502869E+00  0.599008E+00  0.683598E+00  0.753962E+00  0.810011E+00  0.853169E+00
  0.885539E+00  0.909232E+00  0.925971E+00  0.937027E+00  0.943292E+00  0.945318E+00
  0.943292E+00  0.937027E+00  0.925971E+00  0.909232E+00  0.885539E+00  0.850280E+00
  0.810011E+00  0.757150E+00  0.690167E+00  0.608849E+00  0.515266E+00  0.415065E+00
  0.317665E+00  0.233294E+00  0.168361E+00  0.123697E+00  0.966659E-01  0.841102E-01
  0.841102E-01  0.966659E-01  0.123697E+00  0.168361E+00  0.233294E+00  0.317665E+00
  0.415065E+00  0.515266E+00  0.608849E+00  0.690167E+00  0.757150E+00  0.810011E+00
  0.850280E+00  0.880071E+00  0.901455E+00  0.916105E+00  0.925222E+00  0.929586E+00
  0.929586E+00  0.925222E+00  0.916105E+00  0.901455E+00  0.880071E+00  0.850280E+00
  0.803921E+00  0.753962E+00  0.690167E+00  0.612155E+00  0.521601E+00  0.423467E+00
  0.326445E+00  0.240457E+00  0.172350E+00  0.123849E+00  0.928909E-01  0.761236E-01
  0.708653E-01  0.761236E-01  0.928909E-01  0.123849E+00  0.172350E+00  0.240457E+00
  0.326445E+00  0.423467E+00  0.521601E+00  0.612155E+00  0.690167E+00  0.753962E+00
  0.803921E+00  0.841629E+00  0.869174E+00  0.888546E+00  0.901307E+00  0.908541E+00
  0.910882E+00  0.908541E+00  0.901307E+00  0.888546E+00  0.869174E+00  0.841629E+00
  0.803921E+00  0.744410E+00  0.683598E+00  0.608849E+00  0.521601E+00  0.426317E+00
  0.331037E+00  0.245252E+00  0.175818E+00  0.124903E+00  0.910503E-01  0.711363E-01
  0.620888E-01  0.620888E-01  0.711363E-01  0.910503E-01  0.124903E+00  0.175818E+00
  0.245252E+00  0.331037E+00  0.426317E+00  0.521601E+00  0.608849E+00  0.683598E+00
  0.744410E+00  0.791772E+00  0.827277E+00  0.852917E+00  0.870516E+00  0.881476E+00
  0.886724E+00  0.886724E+00  0.881476E+00  0.870516E+00  0.852917E+00  0.827277E+00
  0.791772E+00  0.744410E+00  0.670570E+00  0.599008E+00  0.515266E+00  0.423467E+00
  0.331037E+00  0.246929E+00  0.177818E+00  0.125991E+00  0.903669E-01  0.682293E-01
  0.565142E-01  0.528940E-01  0.565142E-01  0.682293E-01  0.903669E-01  0.125991E+00
  0.177818E+00  0.246929E+00  0.331037E+00  0.423467E+00  0.515266E+00  0.599008E+00
  0.670570E+00  0.728638E+00  0.773732E+00  0.807366E+00  0.831331E+00  0.847231E+00
  0.856271E+00  0.859200E+00  0.856271E+00  0.847231E+00  0.831331E+00  0.807366E+00
  0.773732E+00  0.728638E+00  0.670570E+00  0.583001E+00  0.502869E+00  0.415065E+00
  0.326445E+00  0.245252E+00  0.177818E+00  0.126442E+00  0.902148E-01  0.667477E-01
  0.532247E-01  0.471758E-01  0.471758E-01  0.532247E-01  0.667477E-01  0.902148E-01
  0.126442E+00  0.177818E+00  0.245252E+00  0.326445E+00  0.415065E+00  0.502869E+00
  0.583001E+00  0.651514E+00  0.707087E+00  0.750167E+00  0.782080E+00  0.804365E+00
  0.818380E+00  0.825123E+00  0.825123E+00  0.818380E+00  0.804365E+00  0.782080E+00
  0.750167E+00  0.707087E+00  0.651514E+00  0.583001E+00  0.485189E+00  0.401709E+00
  0.317665E+00  0.240457E+00  0.175818E+00  0.125991E+00  0.902148E-01  0.662978E-01
  0.516883E-01  0.440359E-01  0.416834E-01  0.440359E-01  0.516883E-01  0.662978E-01
  0.902148E-01  0.125991E+00  0.175818E+00  0.240457E+00  0.317665E+00  0.401709E+00
  0.485189E+00  0.561693E+00  0.627275E+00  0.680479E+00  0.721570E+00  0.751638E+00
  0.771957E+00  0.783640E+00  0.787445E+00  0.783640E+00  0.771957E+00  0.751638E+00
  0.721570E+00  0.680479E+00  0.627275E+00  0.561693E+00  0.485189E+00  0.384674E+00
  0.305714E+00  0.233294E+00  0.172350E+00  0.124903E+00  0.903669E-01  0.667477E-01
  0.516883E-01  0.430300E-01  0.391398E-01  0.391398E-01  0.430300E-01  0.516883E-01
  0.667477E-01  0.903669E-01  0.124903E+00  0.172350E+00  0.233294E+00  0.305714E+00
  0.384674E+00  0.463594E+00  0.536362E+00  0.598933E+00  0.649635E+00  0.688497E+00
  0.716350E+00  0.734199E+00  0.742887E+00  0.742887E+00  0.734199E+00  0.716350E+00
  0.688497E+00  0.649635E+00  0.598933E+00  0.536362E+00  0.463594E+00  0.384674E+00
  0.292243E+00  0.225048E+00  0.168361E+00  0.123849E+00  0.910503E-01  0.682293E-01
  0.532247E-01  0.440359E-01  0.391398E-01  0.376104E-01  0.391398E-01  0.440359E-01
  0.532247E-01  0.682293E-01  0.910503E-01  0.123849E+00  0.168361E+00  0.225048E+00
  0.292243E+00  0.365787E+00  0.439792E+00  0.508428E+00  0.567592E+00  0.615394E+00
  0.651578E+00  0.676670E+00  0.691368E+00  0.696202E+00  0.691368E+00  0.676670E+00
  0.651578E+00  0.615394E+00  0.567592E+00  0.508428E+00  0.439792E+00  0.365787E+00
  0.292243E+00  0.217317E+00  0.165035E+00  0.123697E+00  0.928909E-01  0.711363E-01
  0.565142E-01  0.471758E-01  0.416834E-01  0.391398E-01  0.391398E-01  0.416834E-01
  0.471758E-01  0.565142E-01  0.711363E-01  0.928909E-01  0.123697E+00  0.165035E+00
  0.217317E+00  0.279165E+00  0.346987E+00  0.415512E+00  0.479330E+00  0.534423E+00
  0.578695E+00  0.611545E+00  0.633130E+00  0.643805E+00  0.643805E+00  0.633130E+00
  0.611545E+00  0.578695E+00  0.534423E+00  0.479330E+00  0.415512E+00  0.346987E+00
  0.279165E+00  0.217317E+00  0.163607E+00  0.125397E+00  0.966659E-01  0.761236E-01
  0.620888E-01  0.528940E-01  0.471758E-01  0.440359E-01  0.430300E-01  0.440359E-01
  0.471758E-01  0.528940E-01  0.620888E-01  0.761236E-01  0.966659E-01  0.125397E+00
  0.163607E+00  0.211619E+00  0.268136E+00  0.329933E+00  0.392362E+00  0.450587E+00
  0.500785E+00  0.540677E+00  0.569300E+00  0.586439E+00  0.592139E+00  0.586439E+00
  0.569300E+00  0.540677E+00  0.500785E+00  0.450587E+00  0.392362E+00  0.329933E+00
  0.268136E+00  0.211619E+00  0.163607E+00  0.129979E+00  0.103316E+00  0.841102E-01
  0.708653E-01  0.620888E-01  0.565142E-01  0.532247E-01  0.516883E-01  0.516883E-01
  0.532247E-01  0.565142E-01  0.620888E-01  0.708653E-01  0.841102E-01  0.103316E+00
  0.129979E+00  0.165197E+00  0.209087E+00  0.260280E+00  0.315838E+00  0.371730E+00
  0.423688E+00  0.468131E+00  0.502683E+00  0.526112E+00  0.537909E+00  0.537909E+00
  0.526112E+00  0.502683E+00  0.468131E+00  0.423688E+00  0.371730E+00  0.315838E+00
  0.260280E+00  0.209087E+00  0.165197E+00  0.129979E+00  0.113966E+00  0.962713E-01
  0.841102E-01  0.761236E-01  0.711363E-01  0.682293E-01  0.667477E-01  0.662978E-01
  0.667477E-01  0.682293E-01  0.711363E-01  0.761236E-01  0.841102E-01  0.962713E-01
  0.113966E+00  0.138504E+00  0.170709E+00  0.210423E+00  0.256219E+00  0.305439E+00
  0.354538E+00  0.399717E+00  0.437682E+00  0.466115E+00  0.483640E+00  0.489555E+00
  0.483640E+00  0.466115E+00  0.437682E+00  0.399717E+00  0.354538E+00  0.305439E+00
  0.256219E+00  0.210423E+00  0.170709E+00  0.138504E+00  0.113966E+00  0.113966E+00
  0.103316E+00  0.966659E-01  0.928909E-01  0.910503E-01  0.903669E-01  0.902148E-01
  0.902148E-01  0.903669E-01  0.910503E-01  0.928909E-01  0.966659E-01  0.103316E+00
  0.113966E+00  0.129829E+00  0.151939E+00  0.180788E+00  0.216013E+00  0.256219E+00
  0.298971E+00  0.341058E+00  0.379088E+00  0.410136E+00  0.432040E+00  0.443365E+00
  0.443365E+00  0.432040E+00  0.410136E+00  0.379088E+00  0.341058E+00  0.298971E+00
  0.256219E+00  0.216013E+00  0.180788E+00  0.151939E+00  0.129829E+00  0.113966E+00
  0.129979E+00  0.125397E+00  0.123697E+00  0.123849E+00  0.124903E+00  0.125991E+00
  0.126442E+00  0.125991E+00  0.124903E+00  0.123849E+00  0.123697E+00  0.125397E+00
  0.129979E+00  0.138504E+00  0.151939E+00  0.170971E+00  0.195821E+00  0.226036E+00
  0.260280E+00  0.296263E+00  0.331053E+00  0.361682E+00  0.385618E+00  0.400887E+00
  0.406142E+00  0.400887E+00  0.385618E+00  0.361682E+00  0.331053E+00  0.296263E+00
  0.260280E+00  0.226036E+00  0.195821E+00  0.170971E+00  0.151939E+00  0.138504E+00
  0.129979E+00  0.163607E+00  0.165035E+00  0.168361E+00  0.172350E+00  0.175818E+00
  0.177818E+00  0.177818E+00  0.175818E+00  0.172350E+00  0.168361E+00  0.165035E+00
  0.163607E+00  0.165197E+00  0.170709E+00  0.180788E+00  0.195821E+00  0.215859E+00
  0.240401E+00  0.268136E+00  0.296914E+00  0.324121E+00  0.347211E+00  0.364024E+00
  0.372906E+00  0.372906E+00  0.364024E+00  0.347211E+00  0.324121E+00  0.296914E+00
  0.268136E+00  0.240401E+00  0.215859E+00  0.195821E+00  0.180788E+00  0.170709E+00
  0.165197E+00  0.163607E+00  0.217317E+00  0.225048E+00  0.233294E+00  0.240457E+00
  0.245252E+00  0.246929E+00  0.245252E+00  0.240457E+00  0.233294E+00  0.225048E+00
  0.217317E+00  0.211619E+00  0.209087E+00  0.210423E+00  0.216013E+00  0.226036E+00
  0.240401E+00  0.258533E+00  0.279165E+00  0.300361E+00  0.319849E+00  0.335484E+00
  0.345579E+00  0.349066E+00  0.345579E+00  0.335484E+00  0.319849E+00  0.300361E+00
  0.279165E+00  0.258533E+00  0.240401E+00  0.226036E+00  0.216013E+00  0.210423E+00
  0.209087E+00  0.211619E+00  0.217317E+00  0.292243E+00  0.305714E+00  0.317665E+00
  0.326445E+00  0.331037E+00  0.331037E+00  0.326445E+00  0.317665E+00  0.305714E+00
  0.292243E+00  0.279165E+00  0.268136E+00  0.260280E+00  0.256219E+00  0.256219E+00
  0.260280E+00  0.268136E+00  0.279165E+00  0.292243E+00  0.305714E+00  0.317665E+00
  0.326445E+00  0.331037E+00  0.331037E+00  0.326445E+00  0.317665E+00  0.305714E+00
  0.292243E+00  0.279165E+00  0.268136E+00  0.260280E+00  0.256219E+00  0.256219E+00
  0.260280E+00  0.268136E+00  0.279165E+00  0.292243E+00  0.384674E+00  0.401709E+00
  0.415065E+00  0.423467E+00  0.426317E+00  0.423467E+00  0.415065E+00  0.401709E+00
  0.384674E+00  0.365787E+00  0.346987E+00  0.329933E+00  0.315838E+00  0.305439E+00
  0.298971E+00  0.296263E+00  0.296914E+00  0.300361E+00  0.305714E+00  0.311663E+00
  0.316781E+00  0.320079E+00  0.321192E+00  0.320079E+00  0.316781E+00  0.311663E+00
  0.305714E+00  0.300361E+00  0.296914E+00  0.296263E+00  0.298971E+00  0.305439E+00
  0.315838E+00  0.329933E+00  0.346987E+00  0.365787E+00  0.384674E+00  0.485189E+00
  0.502869E+00  0.515266E+00  0.521601E+00  0.521601E+00  0.515266E+00  0.502869E+00
  0.485189E+00  0.463594E+00  0.439792E+00  0.415512E+00  0.392362E+00  0.371730E+00
  0.354538E+00  0.341058E+00  0.331053E+00  0.324121E+00  0.319849E+00  0.317665E+00
  0.316781E+00  0.316458E+00  0.316323E+00  0.316323E+00  0.316458E+00  0.316781E+00
  0.317665E+00  0.319849E+00  0.324121E+00  0.331053E+00  0.341058E+00  0.354538E+00
  0.371730E+00  0.392362E+00  0.415512E+00  0.439792E+00  0.463594E+00  0.485189E+00
  0.583001E+00  0.599008E+00  0.608849E+00  0.612155E+00  0.608849E+00  0.599008E+00
  0.583001E+00  0.561693E+00  0.536362E+00  0.508428E+00  0.479330E+00  0.450587E+00
  0.423688E+00  0.399717E+00  0.379088E+00  0.361682E+00  0.347211E+00  0.335484E+00
  0.326445E+00  0.320079E+00  0.316323E+00  0.315086E+00  0.316323E+00  0.320079E+00
  0.326445E+00  0.335484E+00  0.347211E+00  0.361682E+00  0.379088E+00  0.399717E+00
  0.423688E+00  0.450587E+00  0.479330E+00  0.508428E+00  0.536362E+00  0.561693E+00
  0.583001E+00  0.670570E+00  0.683598E+00  0.690167E+00  0.690167E+00  0.683598E+00
  0.670570E+00  0.651514E+00  0.627275E+00  0.598933E+00  0.567592E+00  0.534423E+00
  0.500785E+00  0.468131E+00  0.437682E+00  0.410136E+00  0.385618E+00  0.364024E+00
  0.345579E+00  0.331037E+00  0.321192E+00  0.316323E+00  0.316323E+00  0.321192E+00
  0.331037E+00  0.345579E+00  0.364024E+00  0.385618E+00  0.410136E+00  0.437682E+00
  0.468131E+00  0.500785E+00  0.534423E+00  0.567592E+00  0.598933E+00  0.627275E+00
  0.651514E+00  0.670570E+00  0.744410E+00  0.753962E+00  0.757150E+00  0.753962E+00
  0.744410E+00  0.728638E+00  0.707087E+00  0.680479E+00  0.649635E+00  0.615394E+00
  0.578695E+00  0.540677E+00  0.502683E+00  0.466115E+00  0.432040E+00  0.400887E+00
  0.372906E+00  0.349066E+00  0.331037E+00  0.320079E+00  0.316458E+00  0.320079E+00
  0.331037E+00  0.349066E+00  0.372906E+00  0.400887E+00  0.432040E+00  0.466115E+00
  0.502683E+00  0.540677E+00  0.578695E+00  0.615394E+00  0.649635E+00  0.680479E+00
  0.707087E+00  0.728638E+00  0.744410E+00  0.803921E+00  0.810011E+00  0.810011E+00
  0.803921E+00  0.791772E+00  0.773732E+00  0.750167E+00  0.721570E+00  0.688497E+00
  0.651578E+00  0.611545E+00  0.569300E+00  0.526112E+00  0.483640E+00  0.443365E+00
  0.406142E+00  0.372906E+00  0.345579E+00  0.326445E+00  0.316781E+00  0.316781E+00
  0.326445E+00  0.345579E+00  0.372906E+00  0.406142E+00  0.443365E+00  0.483640E+00
  0.526112E+00  0.569300E+00  0.611545E+00  0.651578E+00  0.688497E+00  0.721570E+00
  0.750167E+00  0.773732E+00  0.791772E+00  0.803921E+00  0.850280E+00  0.853169E+00
  0.850280E+00  0.841629E+00  0.827277E+00  0.807366E+00  0.782080E+00  0.751638E+00
  0.716350E+00  0.676670E+00  0.633130E+00  0.586439E+00  0.537909E+00  0.489555E+00
  0.443365E+00  0.400887E+00  0.364024E+00  0.335484E+00  0.317665E+00  0.311663E+00
  0.317665E+00  0.335484E+00  0.364024E+00  0.400887E+00  0.443365E+00  0.489555E+00
  0.537909E+00  0.586439E+00  0.633130E+00  0.676670E+00  0.716350E+00  0.751638E+00
  0.782080E+00  0.807366E+00  0.827277E+00  0.841629E+00  0.850280E+00  0.885539E+00
  0.885539E+00  0.880071E+00  0.869174E+00  0.852917E+00  0.831331E+00  0.804365E+00
  0.771957E+00  0.734199E+00  0.691368E+00  0.643805E+00  0.592139E+00  0.537909E+00
  0.483640E+00  0.432040E+00  0.385618E+00  0.347211E+00  0.319849E+00  0.305714E+00
  0.305714E+00  0.319849E+00  0.347211E+00  0.385618E+00  0.432040E+00  0.483640E+00
  0.537909E+00  0.592139E+00  0.643805E+00  0.691368E+00  0.734199E+00  0.771957E+00
  0.804365E+00  0.831331E+00  0.852917E+00  0.869174E+00  0.880071E+00  0.885539E+00
  0.911831E+00  0.909232E+00  0.901455E+00  0.888546E+00  0.870516E+00  0.847231E+00
  0.818380E+00  0.783640E+00  0.742887E+00  0.696202E+00  0.643805E+00  0.586439E+00
  0.526112E+00  0.466115E+00  0.410136E+00  0.361682E+00  0.324121E+00  0.300361E+00
  0.292243E+00  0.300361E+00  0.324121E+00  0.361682E+00  0.410136E+00  0.466115E+00
  0.526112E+00  0.586439E+00  0.643805E+00  0.696202E+00  0.742887E+00  0.783640E+00
  0.818380E+00  0.847231E+00  0.870516E+00  0.888546E+00  0.901455E+00  0.909232E+00
  0.911831E+00  0.930907E+00  0.925971E+00  0.916105E+00  0.901307E+00  0.881476E+00
  0.856271E+00  0.825123E+00  0.787445E+00  0.742887E+00  0.691368E+00  0.633130E+00
  0.569300E+00  0.502683E+00  0.437682E+00  0.379088E+00  0.331053E+00  0.296914E+00
  0.279165E+00  0.279165E+00  0.296914E+00  0.331053E+00  0.379088E+00  0.437682E+00
  0.502683E+00  0.569300E+00  0.633130E+00  0.691368E+00  0.742887E+00  0.787445E+00
  0.825123E+00  0.856271E+00  0.881476E+00  0.901307E+00  0.916105E+00  0.925971E+00
  0.930907E+00  0.930907E+00  0.944061E+00  0.937027E+00  0.925222E+00  0.908541E+00
  0.886724E+00  0.859200E+00  0.825123E+00  0.783640E+00  0.734199E+00  0.676670E+00
  0.611545E+00  0.540677E+00  0.468131E+00  0.399717E+00  0.341058E+00  0.296263E+00
  0.268136E+00  0.258533E+00  0.268136E+00  0.296263E+00  0.341058E+00  0.399717E+00
  0.468131E+00  0.540677E+00  0.611545E+00  0.676670E+00  0.734199E+00  0.783640E+00
  0.825123E+00  0.859200E+00  0.886724E+00  0.908541E+00  0.925222E+00  0.937027E+00
  0.944061E+00  0.946395E+00  0.944061E+00  0.952247E+00  0.943292E+00  0.929586E+00
  0.910882E+00  0.886724E+00  0.856271E+00  0.818380E+00  0.771957E+00  0.716350E+00
  0.651578E+00  0.578695E+00  0.500785E+00  0.423688E+00  0.354538E+00  0.298971E+00
  0.260280E+00  0.240401E+00  0.240401E+00  0.260280E+00  0.298971E+00  0.354538E+00
  0.423688E+00  0.500785E+00  0.578695E+00  0.651578E+00  0.716350E+00  0.771957E+00
  0.818380E+00  0.856271E+00  0.886724E+00  0.910882E+00  0.929586E+00  0.943292E+00
  0.952247E+00  0.956650E+00  0.956650E+00  0.952247E+00  0.956151E+00  0.945318E+00
  0.929586E+00  0.908541E+00  0.881476E+00  0.847231E+00  0.804365E+00  0.751638E+00
  0.688497E+00  0.615394E+00  0.534423E+00  0.450587E+00  0.371730E+00  0.305439E+00
  0.256219E+00  0.226036E+00  0.215859E+00  0.226036E+00  0.256219E+00  0.305439E+00
  0.371730E+00  0.450587E+00  0.534423E+00  0.615394E+00  0.688497E+00  0.751638E+00
  0.804365E+00  0.847231E+00  0.881476E+00  0.908541E+00  0.929586E+00  0.945318E+00
  0.956151E+00  0.962435E+00  0.964485E+00  0.962435E+00  0.956151E+00  0.956151E+00
  0.943292E+00  0.925222E+00  0.901307E+00  0.870516E+00  0.831331E+00  0.782080E+00
  0.721570E+00  0.649635E+00  0.567592E+00  0.479330E+00  0.392362E+00  0.315838E+00
  0.256219E+00  0.216013E+00  0.195821E+00  0.195821E+00  0.216013E+00  0.256219E+00
  0.315838E+00  0.392362E+00  0.479330E+00  0.567592E+00  0.649635E+00  0.721570E+00
  0.782080E+00  0.831331E+00  0.870516E+00  0.901307E+00  0.925222E+00  0.943292E+00
  0.956151E+00  0.964296E+00  0.968205E+00  0.968205E+00  0.964296E+00  0.956151E+00
  0.952247E+00  0.937027E+00  0.916105E+00  0.888546E+00  0.852917E+00  0.807366E+00
  0.750167E+00  0.680479E+00  0.598933E+00  0.508428E+00  0.415512E+00  0.329933E+00
  0.260280E+00  0.210423E+00  0.180788E+00  0.170971E+00  0.180788E+00  0.210423E+00
  0.260280E+00  0.329933E+00  0.415512E+00  0.508428E+00  0.598933E+00  0.680479E+00
  0.750167E+00  0.807366E+00  0.852917E+00  0.888546E+00  0.916105E+00  0.937027E+00
  0.952247E+00  0.962435E+00  0.968205E+00  0.970060E+00  0.968205E+00  0.962435E+00
  0.952247E+00  0.944061E+00  0.925971E+00  0.901455E+00  0.869174E+00  0.827277E+00
  0.773732E+00  0.707087E+00  0.627275E+00  0.536362E+00  0.439792E+00  0.346987E+00
  0.268136E+00  0.209087E+00  0.170709E+00  0.151939E+00  0.151939E+00  0.170709E+00
  0.209087E+00  0.268136E+00  0.346987E+00  0.439792E+00  0.536362E+00  0.627275E+00
  0.707087E+00  0.773732E+00  0.827277E+00  0.869174E+00  0.901455E+00  0.925971E+00
  0.944061E+00  0.956650E+00  0.964485E+00  0.968205E+00  0.968205E+00  0.964485E+00
  0.956650E+00  0.944061E+00  0.930907E+00  0.909232E+00  0.880071E+00  0.841629E+00
  0.791772E+00  0.728638E+00  0.651514E+00  0.561693E+00  0.463594E+00  0.365787E+00
  0.279165E+00  0.211619E+00  0.165197E+00  0.138504E+00  0.129829E+00  0.138504E+00
  0.165197E+00  0.211619E+00  0.279165E+00  0.365787E+00  0.463594E+00  0.561693E+00
  0.651514E+00  0.728638E+00  0.791772E+00  0.841629E+00  0.880071E+00  0.909232E+00
  0.930907E+00  0.946395E+00  0.956650E+00  0.962435E+00  0.964296E+00  0.962435E+00
  0.956650E+00  0.946395E+00  0.930907E+00  0.911831E+00  0.885539E+00  0.850280E+00
  0.803921E+00  0.744410E+00  0.670570E+00  0.583001E+00  0.485189E+00  0.384674E+00
  0.292243E+00  0.217317E+00  0.163607E+00  0.129979E+00  0.113966E+00  0.113966E+00
  0.129979E+00  0.163607E+00  0.217317E+00  0.292243E+00  0.384674E+00  0.485189E+00
  0.583001E+00  0.670570E+00  0.744410E+00  0.803921E+00  0.850280E+00  0.885539E+00
  0.911831E+00  0.930907E+00  0.944061E+00  0.952247E+00  0.956151E+00  0.956151E+00
  0.952247E+00  0.944061E+00  0.930907E+00  0.911831E+00  0.912635E+00  0.882001E+00
  0.839203E+00  0.781519E+00  0.707044E+00  0.615745E+00  0.511129E+00  0.401859E+00
  0.300361E+00  0.217317E+00  0.157029E+00  0.118040E+00  0.966975E-01  0.899606E-01
  0.966975E-01  0.118040E+00  0.157029E+00  0.217317E+00  0.300361E+00  0.401859E+00
  0.511129E+00  0.615745E+00  0.707044E+00  0.781519E+00  0.839203E+00  0.882001E+00
  0.912635E+00  0.933893E+00  0.948129E+00  0.957107E+00  0.962027E+00  0.963591E+00
  0.962027E+00  0.957107E+00  0.948129E+00  0.933893E+00  0.912635E+00  0.882001E+00
  0.842743E+00  0.789369E+00  0.719732E+00  0.633212E+00  0.532190E+00  0.423859E+00
  0.319849E+00  0.231575E+00  0.165035E+00  0.120077E+00  0.932804E-01  0.809746E-01
  0.809746E-01  0.932804E-01  0.120077E+00  0.165035E+00  0.231575E+00  0.319849E+00
  0.423859E+00  0.532190E+00  0.633212E+00  0.719732E+00  0.789369E+00  0.842743E+00
  0.882001E+00  0.909889E+00  0.929061E+00  0.941667E+00  0.949255E+00  0.952809E+00
  0.952809E+00  0.949255E+00  0.941667E+00  0.929061E+00  0.909889E+00  0.882001E+00
  0.839203E+00  0.789369E+00  0.723970E+00  0.642067E+00  0.545284E+00  0.439572E+00
  0.335484E+00  0.244441E+00  0.173487E+00  0.123697E+00  0.923048E-01  0.754687E-01
  0.702192E-01  0.754687E-01  0.923048E-01  0.123697E+00  0.173487E+00  0.244441E+00
  0.335484E+00  0.439572E+00  0.545284E+00  0.642067E+00  0.723970E+00  0.789369E+00
  0.839203E+00  0.875698E+00  0.901506E+00  0.919071E+00  0.930310E+00  0.936544E+00
  0.938539E+00  0.936544E+00  0.930310E+00  0.919071E+00  0.901506E+00  0.875698E+00
  0.839203E+00  0.781519E+00  0.719732E+00  0.642067E+00  0.549721E+00  0.447741E+00
  0.345579E+00  0.254168E+00  0.180953E+00  0.127860E+00  0.928909E-01  0.724664E-01
  0.632284E-01  0.632284E-01  0.724664E-01  0.928909E-01  0.127860E+00  0.180953E+00
  0.254168E+00  0.345579E+00  0.447741E+00  0.549721E+00  0.642067E+00  0.719732E+00
  0.781519E+00  0.828502E+00  0.862867E+00  0.887074E+00  0.903309E+00  0.913231E+00
  0.917925E+00  0.917925E+00  0.913231E+00  0.903309E+00  0.887074E+00  0.862867E+00
  0.828502E+00  0.781519E+00  0.707044E+00  0.633212E+00  0.545284E+00  0.447741E+00
  0.349066E+00  0.259404E+00  0.186104E+00  0.131505E+00  0.942128E-01  0.711363E-01
  0.589448E-01  0.551780E-01  0.589448E-01  0.711363E-01  0.942128E-01  0.131505E+00
  0.186104E+00  0.259404E+00  0.349066E+00  0.447741E+00  0.545284E+00  0.633212E+00
  0.707044E+00  0.765762E+00  0.810442E+00  0.843118E+00  0.865986E+00  0.880931E+00
  0.889340E+00  0.892051E+00  0.889340E+00  0.880931E+00  0.865986E+00  0.843118E+00
  0.810442E+00  0.765762E+00  0.707044E+00  0.615745E+00  0.532190E+00  0.439572E+00
  0.345579E+00  0.259404E+00  0.187947E+00  0.133646E+00  0.954644E-01  0.707651E-01
  0.565142E-01  0.501219E-01  0.501219E-01  0.565142E-01  0.707651E-01  0.954644E-01
  0.133646E+00  0.187947E+00  0.259404E+00  0.345579E+00  0.439572E+00  0.532190E+00
  0.615745E+00  0.686054E+00  0.742102E+00  0.784830E+00  0.816017E+00  0.837532E+00
  0.850949E+00  0.857373E+00  0.857373E+00  0.850949E+00  0.837532E+00  0.816017E+00
  0.784830E+00  0.742102E+00  0.686054E+00  0.615745E+00  0.511129E+00  0.423859E+00
  0.335484E+00  0.254168E+00  0.186104E+00  0.133646E+00  0.959732E-01  0.707612E-01
  0.553107E-01  0.471758E-01  0.446642E-01  0.471758E-01  0.553107E-01  0.707612E-01
  0.959732E-01  0.133646E+00  0.186104E+00  0.254168E+00  0.335484E+00  0.423859E+00
  0.511129E+00  0.590259E+00  0.657192E+00  0.710759E+00  0.751624E+00  0.781224E+00
  0.801078E+00  0.812443E+00  0.816137E+00  0.812443E+00  0.801078E+00  0.781224E+00
  0.751624E+00  0.710759E+00  0.657192E+00  0.590259E+00  0.511129E+00  0.401859E+00
  0.319849E+00  0.244441E+00  0.180953E+00  0.131505E+00  0.954644E-01  0.707612E-01
  0.549524E-01  0.458132E-01  0.416834E-01  0.416834E-01  0.458132E-01  0.549524E-01
  0.707612E-01  0.954644E-01  0.131505E+00  0.180953E+00  0.244441E+00  0.319849E+00
  0.401859E+00  0.483344E+00  0.557842E+00  0.621313E+00  0.672303E+00  0.711089E+00
  0.738712E+00  0.756335E+00  0.764890E+00  0.764890E+00  0.756335E+00  0.738712E+00
  0.711089E+00  0.672303E+00  0.621313E+00  0.557842E+00  0.483344E+00  0.401859E+00
  0.300361E+00  0.231575E+00  0.173487E+00  0.127860E+00  0.942128E-01  0.707651E-01
  0.553107E-01  0.458132E-01  0.407317E-01  0.391398E-01  0.407317E-01  0.458132E-01
  0.553107E-01  0.707651E-01  0.942128E-01  0.127860E+00  0.173487E+00  0.231575E+00
  0.300361E+00  0.375446E+00  0.450686E+00  0.520146E+00  0.579769E+00  0.627760E+00
  0.663959E+00  0.688982E+00  0.703605E+00  0.708408E+00  0.703605E+00  0.688982E+00
  0.663959E+00  0.627760E+00  0.579769E+00  0.520146E+00  0.450686E+00  0.375446E+00
  0.300361E+00  0.217317E+00  0.165035E+00  0.123697E+00  0.928909E-01  0.711363E-01
  0.565142E-01  0.471758E-01  0.416834E-01  0.391398E-01  0.391398E-01  0.416834E-01
  0.471758E-01  0.565142E-01  0.711363E-01  0.928909E-01  0.123697E+00  0.165035E+00
  0.217317E+00  0.279165E+00  0.346987E+00  0.415512E+00  0.479330E+00  0.534423E+00
  0.578695E+00  0.611545E+00  0.633130E+00  0.643805E+00  0.643805E+00  0.633130E+00
  0.611545E+00  0.578695E+00  0.534423E+00  0.479330E+00  0.415512E+00  0.346987E+00
  0.279165E+00  0.217317E+00  0.157029E+00  0.120077E+00  0.923048E-01  0.724664E-01
  0.589448E-01  0.501219E-01  0.446642E-01  0.416834E-01  0.407317E-01  0.416834E-01
  0.446642E-01  0.501219E-01  0.589448E-01  0.724664E-01  0.923048E-01  0.120077E+00
  0.157029E+00  0.203547E+00  0.258533E+00  0.318989E+00  0.380383E+00  0.437862E+00
  0.487565E+00  0.527183E+00  0.555703E+00  0.572830E+00  0.578536E+00  0.572830E+00
  0.555703E+00  0.527183E+00  0.487565E+00  0.437862E+00  0.380383E+00  0.318989E+00
  0.258533E+00  0.203547E+00  0.157029E+00  0.118040E+00  0.932804E-01  0.754687E-01
  0.632284E-01  0.551780E-01  0.501219E-01  0.471758E-01  0.458132E-01  0.458132E-01
  0.471758E-01  0.501219E-01  0.551780E-01  0.632284E-01  0.754687E-01  0.932804E-01
  0.118040E+00  0.150822E+00  0.191940E+00  0.240401E+00  0.293597E+00  0.347614E+00
  0.398166E+00  0.441640E+00  0.475622E+00  0.498783E+00  0.510487E+00  0.510487E+00
  0.498783E+00  0.475622E+00  0.441640E+00  0.398166E+00  0.347614E+00  0.293597E+00
  0.240401E+00  0.191940E+00  0.150822E+00  0.118040E+00  0.966975E-01  0.809746E-01
  0.702192E-01  0.632284E-01  0.589448E-01  0.565142E-01  0.553107E-01  0.549524E-01
  0.553107E-01  0.565142E-01  0.589448E-01  0.632284E-01  0.702192E-01  0.809746E-01
  0.966975E-01  0.118587E+00  0.147533E+00  0.183687E+00  0.226036E+00  0.272232E+00
  0.318864E+00  0.362163E+00  0.398817E+00  0.426430E+00  0.443516E+00  0.449293E+00
  0.443516E+00  0.426430E+00  0.398817E+00  0.362163E+00  0.318864E+00  0.272232E+00
  0.226036E+00  0.183687E+00  0.147533E+00  0.118587E+00  0.966975E-01  0.899606E-01
  0.809746E-01  0.754687E-01  0.724664E-01  0.711363E-01  0.707651E-01  0.707612E-01
  0.707612E-01  0.707651E-01  0.711363E-01  0.724664E-01  0.754687E-01  0.809746E-01
  0.899606E-01  0.103506E+00  0.122620E+00  0.147952E+00  0.179438E+00  0.216013E+00
  0.255519E+00  0.294936E+00  0.330950E+00  0.360589E+00  0.381590E+00  0.392463E+00
  0.392463E+00  0.381590E+00  0.360589E+00  0.330950E+00  0.294936E+00  0.255519E+00
  0.216013E+00  0.179438E+00  0.147952E+00  0.122620E+00  0.103506E+00  0.899606E-01
  0.966975E-01  0.932804E-01  0.923048E-01  0.928909E-01  0.942128E-01  0.954644E-01
  0.959732E-01  0.954644E-01  0.942128E-01  0.928909E-01  0.923048E-01  0.932804E-01
  0.966975E-01  0.103506E+00  0.114642E+00  0.130867E+00  0.152551E+00  0.179438E+00
  0.210423E+00  0.243483E+00  0.275912E+00  0.304822E+00  0.327607E+00  0.342200E+00
  0.347227E+00  0.342200E+00  0.327607E+00  0.304822E+00  0.275912E+00  0.243483E+00
  0.210423E+00  0.179438E+00  0.152551E+00  0.130867E+00  0.114642E+00  0.103506E+00
  0.966975E-01  0.118040E+00  0.120077E+00  0.123697E+00  0.127860E+00  0.131505E+00
  0.133646E+00  0.133646E+00  0.131505E+00  0.127860E+00  0.123697E+00  0.120077E+00
  0.118040E+00  0.118587E+00  0.122620E+00  0.130867E+00  0.143800E+00  0.161543E+00
  0.183687E+00  0.209087E+00  0.235823E+00  0.261481E+00  0.283574E+00  0.299855E+00
  0.308521E+00  0.308521E+00  0.299855E+00  0.283574E+00  0.261481E+00  0.235823E+00
  0.209087E+00  0.183687E+00  0.161543E+00  0.143800E+00  0.130867E+00  0.122620E+00
  0.118587E+00  0.118040E+00  0.157029E+00  0.165035E+00  0.173487E+00  0.180953E+00
  0.186104E+00  0.187947E+00  0.186104E+00  0.180953E+00  0.173487E+00  0.165035E+00
  0.157029E+00  0.150822E+00  0.147533E+00  0.147952E+00  0.152551E+00  0.161543E+00
  0.174852E+00  0.191940E+00  0.211619E+00  0.232079E+00  0.251185E+00  0.266818E+00
  0.277114E+00  0.280716E+00  0.277114E+00  0.266818E+00  0.251185E+00  0.232079E+00
  0.211619E+00  0.191940E+00  0.174852E+00  0.161543E+00  0.152551E+00  0.147952E+00
  0.147533E+00  0.150822E+00  0.157029E+00  0.217317E+00  0.231575E+00  0.244441E+00
  0.254168E+00  0.259404E+00  0.259404E+00  0.254168E+00  0.244441E+00  0.231575E+00
  0.217317E+00  0.203547E+00  0.191940E+00  0.183687E+00  0.179438E+00  0.179438E+00
  0.183687E+00  0.191940E+00  0.203547E+00  0.217317E+00  0.231575E+00  0.244441E+00
  0.254168E+00  0.259404E+00  0.259404E+00  0.254168E+00  0.244441E+00  0.231575E+00
  0.217317E+00  0.203547E+00  0.191940E+00  0.183687E+00  0.179438E+00  0.179438E+00
  0.183687E+00  0.191940E+00  0.203547E+00  0.217317E+00  0.300361E+00  0.319849E+00
  0.335484E+00  0.345579E+00  0.349066E+00  0.345579E+00  0.335484E+00  0.319849E+00
  0.300361E+00  0.279165E+00  0.258533E+00  0.240401E+00  0.226036E+00  0.216013E+00
  0.210423E+00  0.209087E+00  0.211619E+00  0.217317E+00  0.225048E+00  0.233294E+00
  0.240457E+00  0.245252E+00  0.246929E+00  0.245252E+00  0.240457E+00  0.233294E+00
  0.225048E+00  0.217317E+00  0.211619E+00  0.209087E+00  0.210423E+00  0.216013E+00
  0.226036E+00  0.240401E+00  0.258533E+00  0.279165E+00  0.300361E+00  0.401859E+00
  0.423859E+00  0.439572E+00  0.447741E+00  0.447741E+00  0.439572E+00  0.423859E+00
  0.401859E+00  0.375446E+00  0.346987E+00  0.318989E+00  0.293597E+00  0.272232E+00
  0.255519E+00  0.243483E+00  0.235823E+00  0.232079E+00  0.231575E+00  0.233294E+00
  0.235949E+00  0.238331E+00  0.239673E+00  0.239673E+00  0.238331E+00  0.235949E+00
  0.233294E+00  0.231575E+00  0.232079E+00  0.235823E+00  0.243483E+00  0.255519E+00
  0.272232E+00  0.293597E+00  0.318989E+00  0.346987E+00  0.375446E+00  0.401859E+00
  0.511129E+00  0.532190E+00  0.545284E+00  0.549721E+00  0.545284E+00  0.532190E+00
  0.511129E+00  0.483344E+00  0.450686E+00  0.415512E+00  0.380383E+00  0.347614E+00
  0.318864E+00  0.294936E+00  0.275912E+00  0.261481E+00  0.251185E+00  0.244441E+00
  0.240457E+00  0.238331E+00  0.237321E+00  0.237021E+00  0.237321E+00  0.238331E+00
  0.240457E+00  0.244441E+00  0.251185E+00  0.261481E+00  0.275912E+00  0.294936E+00
  0.318864E+00  0.347614E+00  0.380383E+00  0.415512E+00  0.450686E+00  0.483344E+00
  0.511129E+00  0.615745E+00  0.633212E+00  0.642067E+00  0.642067E+00  0.633212E+00
  0.615745E+00  0.590259E+00  0.557842E+00  0.520146E+00  0.479330E+00  0.437862E+00
  0.398166E+00  0.362163E+00  0.330950E+00  0.304822E+00  0.283574E+00  0.266818E+00
  0.254168E+00  0.245252E+00  0.239673E+00  0.237021E+00  0.237021E+00  0.239673E+00
  0.245252E+00  0.254168E+00  0.266818E+00  0.283574E+00  0.304822E+00  0.330950E+00
  0.362163E+00  0.398166E+00  0.437862E+00  0.479330E+00  0.520146E+00  0.557842E+00
  0.590259E+00  0.615745E+00  0.707044E+00  0.719732E+00  0.723970E+00  0.719732E+00
  0.707044E+00  0.686054E+00  0.657192E+00  0.621313E+00  0.579769E+00  0.534423E+00
  0.487565E+00  0.441640E+00  0.398817E+00  0.360589E+00  0.327607E+00  0.299855E+00
  0.277114E+00  0.259404E+00  0.246929E+00  0.239673E+00  0.237321E+00  0.239673E+00
  0.246929E+00  0.259404E+00  0.277114E+00  0.299855E+00  0.327607E+00  0.360589E+00
  0.398817E+00  0.441640E+00  0.487565E+00  0.534423E+00  0.579769E+00  0.621313E+00
  0.657192E+00  0.686054E+00  0.707044E+00  0.781519E+00  0.789369E+00  0.789369E+00
  0.781519E+00  0.765762E+00  0.742102E+00  0.710759E+00  0.672303E+00  0.627760E+00
  0.578695E+00  0.527183E+00  0.475622E+00  0.426430E+00  0.381590E+00  0.342200E+00
  0.308521E+00  0.280716E+00  0.259404E+00  0.245252E+00  0.238331E+00  0.238331E+00
  0.245252E+00  0.259404E+00  0.280716E+00  0.308521E+00  0.342200E+00  0.381590E+00
  0.426430E+00  0.475622E+00  0.527183E+00  0.578695E+00  0.627760E+00  0.672303E+00
  0.710759E+00  0.742102E+00  0.765762E+00  0.781519E+00  0.839203E+00  0.842743E+00
  0.839203E+00  0.828502E+00  0.810442E+00  0.784830E+00  0.751624E+00  0.711089E+00
  0.663959E+00  0.611545E+00  0.555703E+00  0.498783E+00  0.443516E+00  0.392463E+00
  0.347227E+00  0.308521E+00  0.277114E+00  0.254168E+00  0.240457E+00  0.235949E+00
  0.240457E+00  0.254168E+00  0.277114E+00  0.308521E+00  0.347227E+00  0.392463E+00
  0.443516E+00  0.498783E+00  0.555703E+00  0.611545E+00  0.663959E+00  0.711089E+00
  0.751624E+00  0.784830E+00  0.810442E+00  0.828502E+00  0.839203E+00  0.882001E+00
  0.882001E+00  0.875698E+00  0.862867E+00  0.843118E+00  0.816017E+00  0.781224E+00
  0.738712E+00  0.688982E+00  0.633130E+00  0.572830E+00  0.510487E+00  0.449293E+00
  0.392463E+00  0.342200E+00  0.299855E+00  0.266818E+00  0.244441E+00  0.233294E+00
  0.233294E+00  0.244441E+00  0.266818E+00  0.299855E+00  0.342200E+00  0.392463E+00
  0.449293E+00  0.510487E+00  0.572830E+00  0.633130E+00  0.688982E+00  0.738712E+00
  0.781224E+00  0.816017E+00  0.843118E+00  0.862867E+00  0.875698E+00  0.882001E+00
  0.912635E+00  0.909889E+00  0.901506E+00  0.887074E+00  0.865986E+00  0.837532E+00
  0.801078E+00  0.756335E+00  0.703605E+00  0.643805E+00  0.578536E+00  0.510487E+00
  0.443516E+00  0.381590E+00  0.327607E+00  0.283574E+00  0.251185E+00  0.231575E+00
  0.225048E+00  0.231575E+00  0.251185E+00  0.283574E+00  0.327607E+00  0.381590E+00
  0.443516E+00  0.510487E+00  0.578536E+00  0.643805E+00  0.703605E+00  0.756335E+00
  0.801078E+00  0.837532E+00  0.865986E+00  0.887074E+00  0.901506E+00  0.909889E+00
  0.912635E+00  0.933893E+00  0.929061E+00  0.919071E+00  0.903309E+00  0.880931E+00
  0.850949E+00  0.812443E+00  0.764890E+00  0.708408E+00  0.643805E+00  0.572830E+00
  0.498783E+00  0.426430E+00  0.360589E+00  0.304822E+00  0.261481E+00  0.232079E+00
  0.217317E+00  0.217317E+00  0.232079E+00  0.261481E+00  0.304822E+00  0.360589E+00
  0.426430E+00  0.498783E+00  0.572830E+00  0.643805E+00  0.708408E+00  0.764890E+00
  0.812443E+00  0.850949E+00  0.880931E+00  0.903309E+00  0.919071E+00  0.929061E+00
  0.933893E+00  0.933893E+00  0.948129E+00  0.941667E+00  0.930310E+00  0.913231E+00
  0.889340E+00  0.857373E+00  0.816137E+00  0.764890E+00  0.703605E+00  0.633130E+00
  0.555703E+00  0.475622E+00  0.398817E+00  0.330950E+00  0.275912E+00  0.235823E+00
  0.211619E+00  0.203547E+00  0.211619E+00  0.235823E+00  0.275912E+00  0.330950E+00
  0.398817E+00  0.475622E+00  0.555703E+00  0.633130E+00  0.703605E+00  0.764890E+00
  0.816137E+00  0.857373E+00  0.889340E+00  0.913231E+00  0.930310E+00  0.941667E+00
  0.948129E+00  0.950221E+00  0.948129E+00  0.957107E+00  0.949255E+00  0.936544E+00
  0.917925E+00  0.892051E+00  0.857373E+00  0.812443E+00  0.756335E+00  0.688982E+00
  0.611545E+00  0.527183E+00  0.441640E+00  0.362163E+00  0.294936E+00  0.243483E+00
  0.209087E+00  0.191940E+00  0.191940E+00  0.209087E+00  0.243483E+00  0.294936E+00
  0.362163E+00  0.441640E+00  0.527183E+00  0.611545E+00  0.688982E+00  0.756335E+00
  0.812443E+00  0.857373E+00  0.892051E+00  0.917925E+00  0.936544E+00  0.949255E+00
  0.957107E+00  0.960838E+00  0.960838E+00  0.957107E+00  0.962027E+00  0.952809E+00
  0.938539E+00  0.917925E+00  0.889340E+00  0.850949E+00  0.801078E+00  0.738712E+00
  0.663959E+00  0.578695E+00  0.487565E+00  0.398166E+00  0.318864E+00  0.255519E+00
  0.210423E+00  0.183687E+00  0.174852E+00  0.183687E+00  0.210423E+00  0.255519E+00
  0.318864E+00  0.398166E+00  0.487565E+00  0.578695E+00  0.663959E+00  0.738712E+00
  0.801078E+00  0.850949E+00  0.889340E+00  0.917925E+00  0.938539E+00  0.952809E+00
  0.962027E+00  0.967152E+00  0.968789E+00  0.967152E+00  0.962027E+00  0.963591E+00
  0.952809E+00  0.936544E+00  0.913231E+00  0.880931E+00  0.837532E+00  0.781224E+00
  0.711089E+00  0.627760E+00  0.534423E+00  0.437862E+00  0.347614E+00  0.272232E+00
  0.216013E+00  0.179438E+00  0.161543E+00  0.161543E+00  0.179438E+00  0.216013E+00
  0.272232E+00  0.347614E+00  0.437862E+00  0.534423E+00  0.627760E+00  0.711089E+00
  0.781224E+00  0.837532E+00  0.880931E+00  0.913231E+00  0.936544E+00  0.952809E+00
  0.963591E+00  0.970080E+00  0.973107E+00  0.973107E+00  0.970080E+00  0.963591E+00
  0.962027E+00  0.949255E+00  0.930310E+00  0.903309E+00  0.865986E+00  0.816017E+00
  0.751624E+00  0.672303E+00  0.579769E+00  0.479330E+00  0.380383E+00  0.293597E+00
  0.226036E+00  0.179438E+00  0.152551E+00  0.143800E+00  0.152551E+00  0.179438E+00
  0.226036E+00  0.293597E+00  0.380383E+00  0.479330E+00  0.579769E+00  0.672303E+00
  0.751624E+00  0.816017E+00  0.865986E+00  0.903309E+00  0.930310E+00  0.949255E+00
  0.962027E+00  0.970080E+00  0.974471E+00  0.975858E+00  0.974471E+00  0.970080E+00
  0.962027E+00  0.957107E+00  0.941667E+00  0.919071E+00  0.887074E+00  0.843118E+00
  0.784830E+00  0.710759E+00  0.621313E+00  0.520146E+00  0.415512E+00  0.318989E+00
  0.240401E+00  0.183687E+00  0.147952E+00  0.130867E+00  0.130867E+00  0.147952E+00
  0.183687E+00  0.240401E+00  0.318989E+00  0.415512E+00  0.520146E+00  0.621313E+00
  0.710759E+00  0.784830E+00  0.843118E+00  0.887074E+00  0.919071E+00  0.941667E+00
  0.957107E+00  0.967152E+00  0.973107E+00  0.975858E+00  0.975858E+00  0.973107E+00
  0.967152E+00  0.957107E+00  0.948129E+00  0.929061E+00  0.901506E+00  0.862867E+00
  0.810442E+00  0.742102E+00  0.657192E+00  0.557842E+00  0.450686E+00  0.346987E+00
  0.258533E+00  0.191940E+00  0.147533E+00  0.122620E+00  0.114642E+00  0.122620E+00
  0.147533E+00  0.191940E+00  0.258533E+00  0.346987E+00  0.450686E+00  0.557842E+00
  0.657192E+00  0.742102E+00  0.810442E+00  0.862867E+00  0.901506E+00  0.929061E+00
  0.948129E+00  0.960838E+00  0.968789E+00  0.973107E+00  0.974471E+00  0.973107E+00
  0.968789E+00  0.960838E+00  0.948129E+00  0.933893E+00  0.909889E+00  0.875698E+00
  0.828502E+00  0.765762E+00  0.686054E+00  0.590259E+00  0.483344E+00  0.375446E+00
  0.279165E+00  0.203547E+00  0.150822E+00  0.118587E+00  0.103506E+00  0.103506E+00
  0.118587E+00  0.150822E+00  0.203547E+00  0.279165E+00  0.375446E+00  0.483344E+00
  0.590259E+00  0.686054E+00  0.765762E+00  0.828502E+00  0.875698E+00  0.909889E+00
  0.933893E+00  0.950221E+00  0.960838E+00  0.967152E+00  0.970080E+00  0.970080E+00
  0.967152E+00  0.960838E+00  0.950221E+00  0.933893E+00  0.912635E+00  0.882001E+00
  0.839203E+00  0.781519E+00  0.707044E+00  0.615745E+00  0.511129E+00  0.401859E+00
  0.300361E+00  0.217317E+00  0.157029E+00  0.118040E+00  0.966975E-01  0.899606E-01
  0.966975E-01  0.118040E+00  0.157029E+00  0.217317E+00  0.300361E+00  0.401859E+00
  0.511129E+00  0.615745E+00  0.707044E+00  0.781519E+00  0.839203E+00  0.882001E+00
  0.912635E+00  0.933893E+00  0.948129E+00  0.957107E+00  0.962027E+00  0.963591E+00
  0.962027E+00  0.957107E+00  0.948129E+00  0.933893E+00  0.912635E+00  0.904834E+00
  0.868026E+00  0.815975E+00  0.745591E+00  0.655630E+00  0.548807E+00  0.433817E+00
  0.324121E+00  0.232079E+00  0.163607E+00  0.118040E+00  0.913308E-01  0.792327E-01
  0.792327E-01  0.913308E-01  0.118040E+00  0.163607E+00  0.232079E+00  0.324121E+00
  0.433817E+00  0.548807E+00  0.655630E+00  0.745591E+00  0.815975E+00  0.868026E+00
  0.904834E+00  0.929953E+00  0.946565E+00  0.957117E+00  0.963297E+00  0.966141E+00
  0.966141E+00  0.963297E+00  0.957117E+00  0.946565E+00  0.929953E+00  0.904834E+00
  0.868026E+00  0.820125E+00  0.755020E+00  0.670979E+00  0.569526E+00  0.457556E+00
  0.347211E+00  0.251185E+00  0.176953E+00  0.125397E+00  0.932804E-01  0.762502E-01
  0.709773E-01  0.762502E-01  0.932804E-01  0.125397E+00  0.176953E+00  0.251185E+00
  0.347211E+00  0.457556E+00  0.569526E+00  0.670979E+00  0.755020E+00  0.820125E+00
  0.868026E+00  0.901853E+00  0.924940E+00  0.940147E+00  0.949607E+00  0.954747E+00
  0.956374E+00  0.954747E+00  0.949607E+00  0.940147E+00  0.924940E+00  0.901853E+00
  0.868026E+00  0.815975E+00  0.755020E+00  0.676119E+00  0.580113E+00  0.472532E+00
  0.364024E+00  0.266818E+00  0.189184E+00  0.133230E+00  0.966659E-01  0.754687E-01
  0.659312E-01  0.659312E-01  0.754687E-01  0.966659E-01  0.133230E+00  0.189184E+00
  0.266818E+00  0.364024E+00  0.472532E+00  0.580113E+00  0.676119E+00  0.755020E+00
  0.815975E+00  0.860867E+00  0.892673E+00  0.914412E+00  0.928605E+00  0.937093E+00
  0.941053E+00  0.941053E+00  0.937093E+00  0.928605E+00  0.914412E+00  0.892673E+00
  0.860867E+00  0.815975E+00  0.745591E+00  0.670979E+00  0.580113E+00  0.477656E+00
  0.372906E+00  0.277114E+00  0.198609E+00  0.140247E+00  0.100574E+00  0.761236E-01
  0.632284E-01  0.592448E-01  0.632284E-01  0.761236E-01  0.100574E+00  0.140247E+00
  0.198609E+00  0.277114E+00  0.372906E+00  0.477656E+00  0.580113E+00  0.670979E+00
  0.745591E+00  0.803384E+00  0.846161E+00  0.876614E+00  0.897403E+00  0.910708E+00
  0.918080E+00  0.920437E+00  0.918080E+00  0.910708E+00  0.897403E+00  0.876614E+00
  0.846161E+00  0.803384E+00  0.745591E+00  0.655630E+00  0.569526E+00  0.472532E+00
  0.372906E+00  0.280716E+00  0.203763E+00  0.145151E+00  0.104008E+00  0.774401E-01
  0.620888E-01  0.551780E-01  0.551780E-01  0.620888E-01  0.774401E-01  0.104008E+00
  0.145151E+00  0.203763E+00  0.280716E+00  0.372906E+00  0.472532E+00  0.569526E+00
  0.655630E+00  0.726635E+00  0.781976E+00  0.823206E+00  0.852646E+00  0.872569E+00
  0.884808E+00  0.890613E+00  0.890613E+00  0.884808E+00  0.872569E+00  0.852646E+00
  0.823206E+00  0.781976E+00  0.726635E+00  0.655630E+00  0.548807E+00  0.457556E+00
  0.364024E+00  0.277114E+00  0.203763E+00  0.146918E+00  0.106027E+00  0.786511E-01
  0.618185E-01  0.528940E-01  0.501219E-01  0.528940E-01  0.618185E-01  0.786511E-01
  0.106027E+00  0.146918E+00  0.203763E+00  0.277114E+00  0.364024E+00  0.457556E+00
  0.548807E+00  0.630305E+00  0.698049E+00  0.751277E+00  0.791153E+00  0.819558E+00
  0.838351E+00  0.849008E+00  0.852456E+00  0.849008E+00  0.838351E+00  0.819558E+00
  0.791153E+00  0.751277E+00  0.698049E+00  0.630305E+00  0.548807E+00  0.433817E+00
  0.347211E+00  0.266818E+00  0.198609E+00  0.145151E+00  0.106027E+00  0.791367E-01
  0.618510E-01  0.517735E-01  0.471758E-01  0.471758E-01  0.517735E-01  0.618510E-01
  0.791367E-01  0.106027E+00  0.145151E+00  0.198609E+00  0.266818E+00  0.347211E+00
  0.433817E+00  0.518853E+00  0.595540E+00  0.659954E+00  0.710989E+00  0.749298E+00
  0.776261E+00  0.793306E+00  0.801535E+00  0.801535E+00  0.793306E+00  0.776261E+00
  0.749298E+00  0.710989E+00  0.659954E+00  0.595540E+00  0.518853E+00  0.433817E+00
  0.324121E+00  0.251185E+00  0.189184E+00  0.140247E+00  0.104008E+00  0.786511E-01
  0.618510E-01  0.514414E-01  0.458132E-01  0.440359E-01  0.458132E-01  0.514414E-01
  0.618510E-01  0.786511E-01  0.104008E+00  0.140247E+00  0.189184E+00  0.251185E+00
  0.324121E+00  0.402996E+00  0.481145E+00  0.552474E+00  0.613075E+00  0.661396E+00
  0.697512E+00  0.722272E+00  0.736650E+00  0.741358E+00  0.736650E+00  0.722272E+00
  0.697512E+00  0.661396E+00  0.613075E+00  0.552474E+00  0.481145E+00  0.402996E+00
  0.324121E+00  0.232079E+00  0.176953E+00  0.133230E+00  0.100574E+00  0.774401E-01
  0.618185E-01  0.517735E-01  0.458132E-01  0.430300E-01  0.430300E-01  0.458132E-01
  0.517735E-01  0.618185E-01  0.774401E-01  0.100574E+00  0.133230E+00  0.176953E+00
  0.232079E+00  0.296914E+00  0.367405E+00  0.437967E+00  0.503166E+00  0.559099E+00
  0.603784E+00  0.636737E+00  0.658266E+00  0.668868E+00  0.668868E+00  0.658266E+00
  0.636737E+00  0.603784E+00  0.559099E+00  0.503166E+00  0.437967E+00  0.367405E+00
  0.296914E+00  0.232079E+00  0.163607E+00  0.125397E+00  0.966659E-01  0.761236E-01
  0.620888E-01  0.528940E-01  0.471758E-01  0.440359E-01  0.430300E-01  0.440359E-01
  0.471758E-01  0.528940E-01  0.620888E-01  0.761236E-01  0.966659E-01  0.125397E+00
  0.163607E+00  0.211619E+00  0.268136E+00  0.329933E+00  0.392362E+00  0.450587E+00
  0.500785E+00  0.540677E+00  0.569300E+00  0.586439E+00  0.592139E+00  0.586439E+00
  0.569300E+00  0.540677E+00  0.500785E+00  0.450587E+00  0.392362E+00  0.329933E+00
  0.268136E+00  0.211619E+00  0.163607E+00  0.118040E+00  0.932804E-01  0.754687E-01
  0.632284E-01  0.551780E-01  0.501219E-01  0.471758E-01  0.458132E-01  0.458132E-01
  0.471758E-01  0.501219E-01  0.551780E-01  0.632284E-01  0.754687E-01  0.932804E-01
  0.118040E+00  0.150822E+00  0.191940E+00  0.240401E+00  0.293597E+00  0.347614E+00
  0.398166E+00  0.441640E+00  0.475622E+00  0.498783E+00  0.510487E+00  0.510487E+00
  0.498783E+00  0.475622E+00  0.441640E+00  0.398166E+00  0.347614E+00  0.293597E+00
  0.240401E+00  0.191940E+00  0.150822E+00  0.118040E+00  0.913308E-01  0.762502E-01
  0.659312E-01  0.592448E-01  0.551780E-01  0.528940E-01  0.517735E-01  0.514414E-01
  0.517735E-01  0.528940E-01  0.551780E-01  0.592448E-01  0.659312E-01  0.762502E-01
  0.913308E-01  0.112302E+00  0.140055E+00  0.174852E+00  0.215859E+00  0.260869E+00
  0.306530E+00  0.349086E+00  0.385222E+00  0.412515E+00  0.429436E+00  0.435163E+00
  0.429436E+00  0.412515E+00  0.385222E+00  0.349086E+00  0.306530E+00  0.260869E+00
  0.215859E+00  0.174852E+00  0.140055E+00  0.112302E+00  0.913308E-01  0.792327E-01
  0.709773E-01  0.659312E-01  0.632284E-01  0.620888E-01  0.618185E-01  0.618510E-01
  0.618510E-01  0.618185E-01  0.620888E-01  0.632284E-01  0.659312E-01  0.709773E-01
  0.792327E-01  0.916369E-01  0.109116E+00  0.132372E+00  0.161543E+00  0.195821E+00
  0.233257E+00  0.270956E+00  0.305649E+00  0.334345E+00  0.354731E+00  0.365293E+00
  0.365293E+00  0.354731E+00  0.334345E+00  0.305649E+00  0.270956E+00  0.233257E+00
  0.195821E+00  0.161543E+00  0.132372E+00  0.109116E+00  0.916369E-01  0.792327E-01
  0.792327E-01  0.762502E-01  0.754687E-01  0.761236E-01  0.774401E-01  0.786511E-01
  0.791367E-01  0.786511E-01  0.774401E-01  0.761236E-01  0.754687E-01  0.762502E-01
  0.792327E-01  0.851972E-01  0.949373E-01  0.109179E+00  0.128399E+00  0.152551E+00
  0.180788E+00  0.211341E+00  0.241692E+00  0.269005E+00  0.290628E+00  0.304477E+00
  0.309241E+00  0.304477E+00  0.290628E+00  0.269005E+00  0.241692E+00  0.211341E+00
  0.180788E+00  0.152551E+00  0.128399E+00  0.109179E+00  0.949373E-01  0.851972E-01
  0.792327E-01  0.913308E-01  0.932804E-01  0.966659E-01  0.100574E+00  0.104008E+00
  0.106027E+00  0.106027E+00  0.104008E+00  0.100574E+00  0.966659E-01  0.932804E-01
  0.913308E-01  0.916369E-01  0.949373E-01  0.101879E+00  0.112959E+00  0.128399E+00
  0.147952E+00  0.170709E+00  0.195030E+00  0.218708E+00  0.239303E+00  0.254535E+00
  0.262635E+00  0.262635E+00  0.254535E+00  0.239303E+00  0.218708E+00  0.195030E+00
  0.170709E+00  0.147952E+00  0.128399E+00  0.112959E+00  0.101879E+00  0.949373E-01
  0.916369E-01  0.913308E-01  0.118040E+00  0.125397E+00  0.133230E+00  0.140247E+00
  0.145151E+00  0.146918E+00  0.145151E+00  0.140247E+00  0.133230E+00  0.125397E+00
  0.118040E+00  0.112302E+00  0.109116E+00  0.109179E+00  0.112959E+00  0.120701E+00
  0.132372E+00  0.147533E+00  0.165197E+00  0.183820E+00  0.201467E+00  0.216080E+00
  0.225771E+00  0.229171E+00  0.225771E+00  0.216080E+00  0.201467E+00  0.183820E+00
  0.165197E+00  0.147533E+00  0.132372E+00  0.120701E+00  0.112959E+00  0.109179E+00
  0.109116E+00  0.112302E+00  0.118040E+00  0.163607E+00  0.176953E+00  0.189184E+00
  0.198609E+00  0.203763E+00  0.203763E+00  0.198609E+00  0.189184E+00  0.176953E+00
  0.163607E+00  0.150822E+00  0.140055E+00  0.132372E+00  0.128399E+00  0.128399E+00
  0.132372E+00  0.140055E+00  0.150822E+00  0.163607E+00  0.176953E+00  0.189184E+00
  0.198609E+00  0.203763E+00  0.203763E+00  0.198609E+00  0.189184E+00  0.176953E+00
  0.163607E+00  0.150822E+00  0.140055E+00  0.132372E+00  0.128399E+00  0.128399E+00
  0.132372E+00  0.140055E+00  0.150822E+00  0.163607E+00  0.232079E+00  0.251185E+00
  0.266818E+00  0.277114E+00  0.280716E+00  0.277114E+00  0.266818E+00  0.251185E+00
  0.232079E+00  0.211619E+00  0.191940E+00  0.174852E+00  0.161543E+00  0.152551E+00
  0.147952E+00  0.147533E+00  0.150822E+00  0.157029E+00  0.165035E+00  0.173487E+00
  0.180953E+00  0.186104E+00  0.187947E+00  0.186104E+00  0.180953E+00  0.173487E+00
  0.165035E+00  0.157029E+00  0.150822E+00  0.147533E+00  0.147952E+00  0.152551E+00
  0.161543E+00  0.174852E+00  0.191940E+00  0.211619E+00  0.232079E+00  0.324121E+00
  0.347211E+00  0.364024E+00  0.372906E+00  0.372906E+00  0.364024E+00  0.347211E+00
  0.324121E+00  0.296914E+00  0.268136E+00  0.240401E+00  0.215859E+00  0.195821E+00
  0.180788E+00  0.170709E+00  0.165197E+00  0.163607E+00  0.165035E+00  0.168361E+00
  0.172350E+00  0.175818E+00  0.177818E+00  0.177818E+00  0.175818E+00  0.172350E+00
  0.168361E+00  0.165035E+00  0.163607E+00  0.165197E+00  0.170709E+00  0.180788E+00
  0.195821E+00  0.215859E+00  0.240401E+00  0.268136E+00  0.296914E+00  0.324121E+00
  0.433817E+00  0.457556E+00  0.472532E+00  0.477656E+00  0.472532E+00  0.457556E+00
  0.433817E+00  0.402996E+00  0.367405E+00  0.329933E+00  0.293597E+00  0.260869E+00
  0.233257E+00  0.211341E+00  0.195030E+00  0.183820E+00  0.176953E+00  0.173487E+00
  0.172350E+00  0.172460E+00  0.172910E+00  0.173124E+00  0.172910E+00  0.172460E+00
  0.172350E+00  0.173487E+00  0.176953E+00  0.183820E+00  0.195030E+00  0.211341E+00
  0.233257E+00  0.260869E+00  0.293597E+00  0.329933E+00  0.367405E+00  0.402996E+00
  0.433817E+00  0.548807E+00  0.569526E+00  0.580113E+00  0.580113E+00  0.569526E+00
  0.548807E+00  0.518853E+00  0.481145E+00  0.437967E+00  0.392362E+00  0.347614E+00
  0.306530E+00  0.270956E+00  0.241692E+00  0.218708E+00  0.201467E+00  0.189184E+00
  0.180953E+00  0.175818E+00  0.172910E+00  0.171608E+00  0.171608E+00  0.172910E+00
  0.175818E+00  0.180953E+00  0.189184E+00  0.201467E+00  0.218708E+00  0.241692E+00
  0.270956E+00  0.306530E+00  0.347614E+00  0.392362E+00  0.437967E+00  0.481145E+00
  0.518853E+00  0.548807E+00  0.655630E+00  0.670979E+00  0.676119E+00  0.670979E+00
  0.655630E+00  0.630305E+00  0.595540E+00  0.552474E+00  0.503166E+00  0.450587E+00
  0.398166E+00  0.349086E+00  0.305649E+00  0.269005E+00  0.239303E+00  0.216080E+00
  0.198609E+00  0.186104E+00  0.177818E+00  0.173124E+00  0.171608E+00  0.173124E+00
  0.177818E+00  0.186104E+00  0.198609E+00  0.216080E+00  0.239303E+00  0.269005E+00
  0.305649E+00  0.349086E+00  0.398166E+00  0.450587E+00  0.503166E+00  0.552474E+00
  0.595540E+00  0.630305E+00  0.655630E+00  0.745591E+00  0.755020E+00  0.755020E+00
  0.745591E+00  0.726635E+00  0.698049E+00  0.659954E+00  0.613075E+00  0.559099E+00
  0.500785E+00  0.441640E+00  0.385222E+00  0.334345E+00  0.290628E+00  0.254535E+00
  0.225771E+00  0.203763E+00  0.187947E+00  0.177818E+00  0.172910E+00  0.172910E+00
  0.177818E+00  0.187947E+00  0.203763E+00  0.225771E+00  0.254535E+00  0.290628E+00
  0.334345E+00  0.385222E+00  0.441640E+00  0.500785E+00  0.559099E+00  0.613075E+00
  0.659954E+00  0.698049E+00  0.726635E+00  0.745591E+00  0.815975E+00  0.820125E+00
  0.815975E+00  0.803384E+00  0.781976E+00  0.751277E+00  0.710989E+00  0.661396E+00
  0.603784E+00  0.540677E+00  0.475622E+00  0.412515E+00  0.354731E+00  0.304477E+00
  0.262635E+00  0.229171E+00  0.203763E+00  0.186104E+00  0.175818E+00  0.172460E+00
  0.175818E+00  0.186104E+00  0.203763E+00  0.229171E+00  0.262635E+00  0.304477E+00
  0.354731E+00  0.412515E+00  0.475622E+00  0.540677E+00  0.603784E+00  0.661396E+00
  0.710989E+00  0.751277E+00  0.781976E+00  0.803384E+00  0.815975E+00  0.868026E+00
  0.868026E+00  0.860867E+00  0.846161E+00  0.823206E+00  0.791153E+00  0.749298E+00
  0.697512E+00  0.636737E+00  0.569300E+00  0.498783E+00  0.429436E+00  0.365293E+00
  0.309241E+00  0.262635E+00  0.225771E+00  0.198609E+00  0.180953E+00  0.172350E+00
  0.172350E+00  0.180953E+00  0.198609E+00  0.225771E+00  0.262635E+00  0.309241E+00
  0.365293E+00  0.429436E+00  0.498783E+00  0.569300E+00  0.636737E+00  0.697512E+00
  0.749298E+00  0.791153E+00  0.823206E+00  0.846161E+00  0.860867E+00  0.868026E+00
  0.904834E+00  0.901853E+00  0.892673E+00  0.876614E+00  0.852646E+00  0.819558E+00
  0.776261E+00  0.722272E+00  0.658266E+00  0.586439E+00  0.510487E+00  0.435163E+00
  0.365293E+00  0.304477E+00  0.254535E+00  0.216080E+00  0.189184E+00  0.173487E+00
  0.168361E+00  0.173487E+00  0.189184E+00  0.216080E+00  0.254535E+00  0.304477E+00
  0.365293E+00  0.435163E+00  0.510487E+00  0.586439E+00  0.658266E+00  0.722272E+00
  0.776261E+00  0.819558E+00  0.852646E+00  0.876614E+00  0.892673E+00  0.901853E+00
  0.904834E+00  0.929953E+00  0.924940E+00  0.914412E+00  0.897403E+00  0.872569E+00
  0.838351E+00  0.793306E+00  0.736650E+00  0.668868E+00  0.592139E+00  0.510487E+00
  0.429436E+00  0.354731E+00  0.290628E+00  0.239303E+00  0.201467E+00  0.176953E+00
  0.165035E+00  0.165035E+00  0.176953E+00  0.201467E+00  0.239303E+00  0.290628E+00
  0.354731E+00  0.429436E+00  0.510487E+00  0.592139E+00  0.668868E+00  0.736650E+00
  0.793306E+00  0.838351E+00  0.872569E+00  0.897403E+00  0.914412E+00  0.924940E+00
  0.929953E+00  0.929953E+00  0.946565E+00  0.940147E+00  0.928605E+00  0.910708E+00
  0.884808E+00  0.849008E+00  0.801535E+00  0.741358E+00  0.668868E+00  0.586439E+00
  0.498783E+00  0.412515E+00  0.334345E+00  0.269005E+00  0.218708E+00  0.183820E+00
  0.163607E+00  0.157029E+00  0.163607E+00  0.183820E+00  0.218708E+00  0.269005E+00
  0.334345E+00  0.412515E+00  0.498783E+00  0.586439E+00  0.668868E+00  0.741358E+00
  0.801535E+00  0.849008E+00  0.884808E+00  0.910708E+00  0.928605E+00  0.940147E+00
  0.946565E+00  0.948619E+00  0.946565E+00  0.957117E+00  0.949607E+00  0.937093E+00
  0.918080E+00  0.890613E+00  0.852456E+00  0.801535E+00  0.736650E+00  0.658266E+00
  0.569300E+00  0.475622E+00  0.385222E+00  0.305649E+00  0.241692E+00  0.195030E+00
  0.165197E+00  0.150822E+00  0.150822E+00  0.165197E+00  0.195030E+00  0.241692E+00
  0.305649E+00  0.385222E+00  0.475622E+00  0.569300E+00  0.658266E+00  0.736650E+00
  0.801535E+00  0.852456E+00  0.890613E+00  0.918080E+00  0.937093E+00  0.949607E+00
  0.957117E+00  0.960622E+00  0.960622E+00  0.957117E+00  0.963297E+00  0.954747E+00
  0.941053E+00  0.920437E+00  0.890613E+00  0.849008E+00  0.793306E+00  0.722272E+00
  0.636737E+00  0.540677E+00  0.441640E+00  0.349086E+00  0.270956E+00  0.211341E+00
  0.170709E+00  0.147533E+00  0.140055E+00  0.147533E+00  0.170709E+00  0.211341E+00
  0.270956E+00  0.349086E+00  0.441640E+00  0.540677E+00  0.636737E+00  0.722272E+00
  0.793306E+00  0.849008E+00  0.890613E+00  0.920437E+00  0.941053E+00  0.954747E+00
  0.963297E+00  0.967940E+00  0.969408E+00  0.967940E+00  0.963297E+00  0.966141E+00
  0.956374E+00  0.941053E+00  0.918080E+00  0.884808E+00  0.838351E+00  0.776261E+00
  0.697512E+00  0.603784E+00  0.500785E+00  0.398166E+00  0.306530E+00  0.233257E+00
  0.180788E+00  0.147952E+00  0.132372E+00  0.132372E+00  0.147952E+00  0.180788E+00
  0.233257E+00  0.306530E+00  0.398166E+00  0.500785E+00  0.603784E+00  0.697512E+00
  0.776261E+00  0.838351E+00  0.884808E+00  0.918080E+00  0.941053E+00  0.956374E+00
  0.966141E+00  0.971857E+00  0.974481E+00  0.974481E+00  0.971857E+00  0.966141E+00
  0.966141E+00  0.954747E+00  0.937093E+00  0.910708E+00  0.872569E+00  0.819558E+00
  0.749298E+00  0.661396E+00  0.559099E+00  0.450587E+00  0.347614E+00  0.260869E+00
  0.195821E+00  0.152551E+00  0.128399E+00  0.120701E+00  0.128399E+00  0.152551E+00
  0.195821E+00  0.260869E+00  0.347614E+00  0.450587E+00  0.559099E+00  0.661396E+00
  0.749298E+00  0.819558E+00  0.872569E+00  0.910708E+00  0.937093E+00  0.954747E+00
  0.966141E+00  0.973086E+00  0.976792E+00  0.977953E+00  0.976792E+00  0.973086E+00
  0.966141E+00  0.963297E+00  0.949607E+00  0.928605E+00  0.897403E+00  0.852646E+00
  0.791153E+00  0.710989E+00  0.613075E+00  0.503166E+00  0.392362E+00  0.293597E+00
  0.215859E+00  0.161543E+00  0.128399E+00  0.112959E+00  0.112959E+00  0.128399E+00
  0.161543E+00  0.215859E+00  0.293597E+00  0.392362E+00  0.503166E+00  0.613075E+00
  0.710989E+00  0.791153E+00  0.852646E+00  0.897403E+00  0.928605E+00  0.949607E+00
  0.963297E+00  0.971857E+00  0.976792E+00  0.979037E+00  0.979037E+00  0.976792E+00
  0.971857E+00  0.963297E+00  0.957117E+00  0.940147E+00  0.914412E+00  0.876614E+00
  0.823206E+00  0.751277E+00  0.659954E+00  0.552474E+00  0.437967E+00  0.329933E+00
  0.240401E+00  0.174852E+00  0.132372E+00  0.109179E+00  0.101879E+00  0.109179E+00
  0.132372E+00  0.174852E+00  0.240401E+00  0.329933E+00  0.437967E+00  0.552474E+00
  0.659954E+00  0.751277E+00  0.823206E+00  0.876614E+00  0.914412E+00  0.940147E+00
  0.957117E+00  0.967940E+00  0.974481E+00  0.977953E+00  0.979037E+00  0.977953E+00
  0.974481E+00  0.967940E+00  0.957117E+00  0.946565E+00  0.924940E+00  0.892673E+00
  0.846161E+00  0.781976E+00  0.698049E+00  0.595540E+00  0.481145E+00  0.367405E+00
  0.268136E+00  0.191940E+00  0.140055E+00  0.109116E+00  0.949373E-01  0.949373E-01
  0.109116E+00  0.140055E+00  0.191940E+00  0.268136E+00  0.367405E+00  0.481145E+00
  0.595540E+00  0.698049E+00  0.781976E+00  0.846161E+00  0.892673E+00  0.924940E+00
  0.946565E+00  0.960622E+00  0.969408E+00  0.974481E+00  0.976792E+00  0.976792E+00
  0.974481E+00  0.969408E+00  0.960622E+00  0.946565E+00  0.929953E+00  0.901853E+00
  0.860867E+00  0.803384E+00  0.726635E+00  0.630305E+00  0.518853E+00  0.402996E+00
  0.296914E+00  0.211619E+00  0.150822E+00  0.112302E+00  0.916369E-01  0.851972E-01
  0.916369E-01  0.112302E+00  0.150822E+00  0.211619E+00  0.296914E+00  0.402996E+00
  0.518853E+00  0.630305E+00  0.726635E+00  0.803384E+00  0.860867E+00  0.901853E+00
  0.929953E+00  0.948619E+00  0.960622E+00  0.967940E+00  0.971857E+00  0.973086E+00
  0.971857E+00  0.967940E+00  0.960622E+00  0.948619E+00  0.929953E+00  0.904834E+00
  0.868026E+00  0.815975E+00  0.745591E+00  0.655630E+00  0.548807E+00  0.433817E+00
  0.324121E+00  0.232079E+00  0.163607E+00  0.118040E+00  0.913308E-01  0.792327E-01
  0.792327E-01  0.913308E-01  0.118040E+00  0.163607E+00  0.232079E+00  0.324121E+00
  0.433817E+00  0.548807E+00  0.655630E+00  0.745591E+00  0.815975E+00  0.868026E+00
  0.904834E+00  0.929953E+00  0.946565E+00  0.957117E+00  0.963297E+00  0.966141E+00
  0.966141E+00  0.963297E+00  0.957117E+00  0.946565E+00  0.929953E+00  0.904834E+00
  0.888901E+00  0.843871E+00  0.780540E+00  0.696261E+00  0.592350E+00  0.476436E+00
  0.361682E+00  0.261481E+00  0.183820E+00  0.129979E+00  0.966975E-01  0.792327E-01
  0.738643E-01  0.792327E-01  0.966975E-01  0.129979E+00  0.183820E+00  0.261481E+00
  0.361682E+00  0.476436E+00  0.592350E+00  0.696261E+00  0.780540E+00  0.843871E+00
  0.888901E+00  0.919685E+00  0.940107E+00  0.953239E+00  0.961250E+00  0.965541E+00
  0.966889E+00  0.965541E+00  0.961250E+00  0.953239E+00  0.940107E+00  0.919685E+00
  0.888901E+00  0.843871E+00  0.785300E+00  0.707074E+00  0.609557E+00  0.498600E+00
  0.385618E+00  0.283574E+00  0.201467E+00  0.142065E+00  0.103316E+00  0.809746E-01
  0.709773E-01  0.709773E-01  0.809746E-01  0.103316E+00  0.142065E+00  0.201467E+00
  0.283574E+00  0.385618E+00  0.498600E+00  0.609557E+00  0.707074E+00  0.785300E+00
  0.843871E+00  0.885603E+00  0.914279E+00  0.933366E+00  0.945554E+00  0.952720E+00
  0.956025E+00  0.956025E+00  0.952720E+00  0.945554E+00  0.933366E+00  0.914279E+00
  0.885603E+00  0.843871E+00  0.780540E+00  0.707074E+00  0.615338E+00  0.510013E+00
  0.400887E+00  0.299855E+00  0.216080E+00  0.153291E+00  0.110481E+00  0.841102E-01
  0.702192E-01  0.659312E-01  0.702192E-01  0.841102E-01  0.110481E+00  0.153291E+00
  0.216080E+00  0.299855E+00  0.400887E+00  0.510013E+00  0.615338E+00  0.707074E+00
  0.780540E+00  0.835769E+00  0.875418E+00  0.902860E+00  0.921142E+00  0.932611E+00
  0.938876E+00  0.940864E+00  0.938876E+00  0.932611E+00  0.921142E+00  0.902860E+00
  0.875418E+00  0.835769E+00  0.780540E+00  0.696261E+00  0.609557E+00  0.510013E+00
  0.406142E+00  0.308521E+00  0.225771E+00  0.161995E+00  0.116948E+00  0.877738E-01
  0.708653E-01  0.632284E-01  0.632284E-01  0.708653E-01  0.877738E-01  0.116948E+00
  0.161995E+00  0.225771E+00  0.308521E+00  0.406142E+00  0.510013E+00  0.609557E+00
  0.696261E+00  0.766087E+00  0.819070E+00  0.857489E+00  0.884243E+00  0.901961E+00
  0.912663E+00  0.917684E+00  0.917684E+00  0.912663E+00  0.901961E+00  0.884243E+00
  0.857489E+00  0.819070E+00  0.766087E+00  0.696261E+00  0.592350E+00  0.498600E+00
  0.400887E+00  0.308521E+00  0.229171E+00  0.166758E+00  0.121460E+00  0.909892E-01
  0.721514E-01  0.620888E-01  0.589448E-01  0.620888E-01  0.721514E-01  0.909892E-01
  0.121460E+00  0.166758E+00  0.229171E+00  0.308521E+00  0.400887E+00  0.498600E+00
  0.592350E+00  0.674555E+00  0.741465E+00  0.792854E+00  0.830485E+00  0.856730E+00
  0.873792E+00  0.883345E+00  0.886415E+00  0.883345E+00  0.873792E+00  0.856730E+00
  0.830485E+00  0.792854E+00  0.741465E+00  0.674555E+00  0.592350E+00  0.476436E+00
  0.385618E+00  0.299855E+00  0.225771E+00  0.166758E+00  0.123080E+00  0.928661E-01
  0.733228E-01  0.618185E-01  0.565142E-01  0.565142E-01  0.618185E-01  0.733228E-01
  0.928661E-01  0.123080E+00  0.166758E+00  0.225771E+00  0.299855E+00  0.385618E+00
  0.476436E+00  0.564139E+00  0.641901E+00  0.706074E+00  0.755998E+00  0.792806E+00
  0.818294E+00  0.834202E+00  0.841820E+00  0.841820E+00  0.834202E+00  0.818294E+00
  0.792806E+00  0.755998E+00  0.706074E+00  0.641901E+00  0.564139E+00  0.476436E+00
  0.361682E+00  0.283574E+00  0.216080E+00  0.161995E+00  0.121460E+00  0.928661E-01
  0.737893E-01  0.618510E-01  0.553107E-01  0.532247E-01  0.553107E-01  0.618510E-01
  0.737893E-01  0.928661E-01  0.121460E+00  0.161995E+00  0.216080E+00  0.283574E+00
  0.361682E+00  0.444766E+00  0.525774E+00  0.598611E+00  0.659629E+00  0.707624E+00
  0.743026E+00  0.767015E+00  0.780827E+00  0.785330E+00  0.780827E+00  0.767015E+00
  0.743026E+00  0.707624E+00  0.659629E+00  0.598611E+00  0.525774E+00  0.444766E+00
  0.361682E+00  0.261481E+00  0.201467E+00  0.153291E+00  0.116948E+00  0.909892E-01
  0.733228E-01  0.618510E-01  0.549524E-01  0.516883E-01  0.516883E-01  0.549524E-01
  0.618510E-01  0.733228E-01  0.909892E-01  0.116948E+00  0.153291E+00  0.201467E+00
  0.261481E+00  0.331053E+00  0.405504E+00  0.478920E+00  0.545913E+00  0.602790E+00
  0.647787E+00  0.680650E+00  0.701939E+00  0.712363E+00  0.712363E+00  0.701939E+00
  0.680650E+00  0.647787E+00  0.602790E+00  0.545913E+00  0.478920E+00  0.405504E+00
  0.331053E+00  0.261481E+00  0.183820E+00  0.142065E+00  0.110481E+00  0.877738E-01
  0.721514E-01  0.618185E-01  0.553107E-01  0.516883E-01  0.505171E-01  0.516883E-01
  0.553107E-01  0.618185E-01  0.721514E-01  0.877738E-01  0.110481E+00  0.142065E+00
  0.183820E+00  0.235823E+00  0.296263E+00  0.361393E+00  0.426352E+00  0.486359E+00
  0.537707E+00  0.578216E+00  0.607066E+00  0.624232E+00  0.629920E+00  0.624232E+00
  0.607066E+00  0.578216E+00  0.537707E+00  0.486359E+00  0.426352E+00  0.361393E+00
  0.296263E+00  0.235823E+00  0.183820E+00  0.129979E+00  0.103316E+00  0.841102E-01
  0.708653E-01  0.620888E-01  0.565142E-01  0.532247E-01  0.516883E-01  0.516883E-01
  0.532247E-01  0.565142E-01  0.620888E-01  0.708653E-01  0.841102E-01  0.103316E+00
  0.129979E+00  0.165197E+00  0.209087E+00  0.260280E+00  0.315838E+00  0.371730E+00
  0.423688E+00  0.468131E+00  0.502683E+00  0.526112E+00  0.537909E+00  0.537909E+00
  0.526112E+00  0.502683E+00  0.468131E+00  0.423688E+00  0.371730E+00  0.315838E+00
  0.260280E+00  0.209087E+00  0.165197E+00  0.129979E+00  0.966975E-01  0.809746E-01
  0.702192E-01  0.632284E-01  0.589448E-01  0.565142E-01  0.553107E-01  0.549524E-01
  0.553107E-01  0.565142E-01  0.589448E-01  0.632284E-01  0.702192E-01  0.809746E-01
  0.966975E-01  0.118587E+00  0.147533E+00  0.183687E+00  0.226036E+00  0.272232E+00
  0.318864E+00  0.362163E+00  0.398817E+00  0.426430E+00  0.443516E+00  0.449293E+00
  0.443516E+00  0.426430E+00  0.398817E+00  0.362163E+00  0.318864E+00  0.272232E+00
  0.226036E+00  0.183687E+00  0.147533E+00  0.118587E+00  0.966975E-01  0.792327E-01
  0.709773E-01  0.659312E-01  0.632284E-01  0.620888E-01  0.618185E-01  0.618510E-01
  0.618510E-01  0.618185E-01  0.620888E-01  0.632284E-01  0.659312E-01  0.709773E-01
  0.792327E-01  0.916369E-01  0.109116E+00  0.132372E+00  0.161543E+00  0.195821E+00
  0.233257E+00  0.270956E+00  0.305649E+00  0.334345E+00  0.354731E+00  0.365293E+00
  0.365293E+00  0.354731E+00  0.334345E+00  0.305649E+00  0.270956E+00  0.233257E+00
  0.195821E+00  0.161543E+00  0.132372E+00  0.109116E+00  0.916369E-01  0.792327E-01
  0.738643E-01  0.709773E-01  0.702192E-01  0.708653E-01  0.721514E-01  0.733228E-01
  0.737893E-01  0.733228E-01  0.721514E-01  0.708653E-01  0.702192E-01  0.709773E-01
  0.738643E-01  0.795882E-01  0.888698E-01  0.102404E+00  0.120701E+00  0.143800E+00
  0.170971E+00  0.200556E+00  0.230108E+00  0.256807E+00  0.277980E+00  0.291536E+00
  0.296196E+00  0.291536E+00  0.277980E+00  0.256807E+00  0.230108E+00  0.200556E+00
  0.170971E+00  0.143800E+00  0.120701E+00  0.102404E+00  0.888698E-01  0.795882E-01
  0.738643E-01  0.792327E-01  0.809746E-01  0.841102E-01  0.877738E-01  0.909892E-01
  0.928661E-01  0.928661E-01  0.909892E-01  0.877738E-01  0.841102E-01  0.809746E-01
  0.792327E-01  0.795882E-01  0.826370E-01  0.889275E-01  0.989401E-01  0.112959E+00
  0.130867E+00  0.151939E+00  0.174733E+00  0.197159E+00  0.216781E+00  0.231293E+00
  0.238988E+00  0.238988E+00  0.231293E+00  0.216781E+00  0.197159E+00  0.174733E+00
  0.151939E+00  0.130867E+00  0.112959E+00  0.989401E-01  0.889275E-01  0.826370E-01
  0.795882E-01  0.792327E-01  0.966975E-01  0.103316E+00  0.110481E+00  0.116948E+00
  0.121460E+00  0.123080E+00  0.121460E+00  0.116948E+00  0.110481E+00  0.103316E+00
  0.966975E-01  0.916369E-01  0.888698E-01  0.889275E-01  0.922012E-01  0.989401E-01
  0.109179E+00  0.122620E+00  0.138504E+00  0.155522E+00  0.171861E+00  0.185464E+00
  0.194467E+00  0.197613E+00  0.194467E+00  0.185464E+00  0.171861E+00  0.155522E+00
  0.138504E+00  0.122620E+00  0.109179E+00  0.989401E-01  0.922012E-01  0.889275E-01
  0.888698E-01  0.916369E-01  0.966975E-01  0.129979E+00  0.142065E+00  0.153291E+00
  0.161995E+00  0.166758E+00  0.166758E+00  0.161995E+00  0.153291E+00  0.142065E+00
  0.129979E+00  0.118587E+00  0.109116E+00  0.102404E+00  0.989401E-01  0.989401E-01
  0.102404E+00  0.109116E+00  0.118587E+00  0.129979E+00  0.142065E+00  0.153291E+00
  0.161995E+00  0.166758E+00  0.166758E+00  0.161995E+00  0.153291E+00  0.142065E+00
  0.129979E+00  0.118587E+00  0.109116E+00  0.102404E+00  0.989401E-01  0.989401E-01
  0.102404E+00  0.109116E+00  0.118587E+00  0.129979E+00  0.183820E+00  0.201467E+00
  0.216080E+00  0.225771E+00  0.229171E+00  0.225771E+00  0.216080E+00  0.201467E+00
  0.183820E+00  0.165197E+00  0.147533E+00  0.132372E+00  0.120701E+00  0.112959E+00
  0.109179E+00  0.109116E+00  0.112302E+00  0.118040E+00  0.125397E+00  0.133230E+00
  0.140247E+00  0.145151E+00  0.146918E+00  0.145151E+00  0.140247E+00  0.133230E+00
  0.125397E+00  0.118040E+00  0.112302E+00  0.109116E+00  0.109179E+00  0.112959E+00
  0.120701E+00  0.132372E+00  0.147533E+00  0.165197E+00  0.183820E+00  0.261481E+00
  0.283574E+00  0.299855E+00  0.308521E+00  0.308521E+00  0.299855E+00  0.283574E+00
  0.261481E+00  0.235823E+00  0.209087E+00  0.183687E+00  0.161543E+00  0.143800E+00
  0.130867E+00  0.122620E+00  0.118587E+00  0.118040E+00  0.120077E+00  0.123697E+00
  0.127860E+00  0.131505E+00  0.133646E+00  0.133646E+00  0.131505E+00  0.127860E+00
  0.123697E+00  0.120077E+00  0.118040E+00  0.118587E+00  0.122620E+00  0.130867E+00
  0.143800E+00  0.161543E+00  0.183687E+00  0.209087E+00  0.235823E+00  0.261481E+00
  0.361682E+00  0.385618E+00  0.400887E+00  0.406142E+00  0.400887E+00  0.385618E+00
  0.361682E+00  0.331053E+00  0.296263E+00  0.260280E+00  0.226036E+00  0.195821E+00
  0.170971E+00  0.151939E+00  0.138504E+00  0.129979E+00  0.125397E+00  0.123697E+00
  0.123849E+00  0.124903E+00  0.125991E+00  0.126442E+00  0.125991E+00  0.124903E+00
  0.123849E+00  0.123697E+00  0.125397E+00  0.129979E+00  0.138504E+00  0.151939E+00
  0.170971E+00  0.195821E+00  0.226036E+00  0.260280E+00  0.296263E+00  0.331053E+00
  0.361682E+00  0.476436E+00  0.498600E+00  0.510013E+00  0.510013E+00  0.498600E+00
  0.476436E+00  0.444766E+00  0.405504E+00  0.361393E+00  0.315838E+00  0.272232E+00
  0.233257E+00  0.200556E+00  0.174733E+00  0.155522E+00  0.142065E+00  0.133230E+00
  0.127860E+00  0.124903E+00  0.123481E+00  0.122944E+00  0.122944E+00  0.123481E+00
  0.124903E+00  0.127860E+00  0.133230E+00  0.142065E+00  0.155522E+00  0.174733E+00
  0.200556E+00  0.233257E+00  0.272232E+00  0.315838E+00  0.361393E+00  0.405504E+00
  0.444766E+00  0.476436E+00  0.592350E+00  0.609557E+00  0.615338E+00  0.609557E+00
  0.592350E+00  0.564139E+00  0.525774E+00  0.478920E+00  0.426352E+00  0.371730E+00
  0.318864E+00  0.270956E+00  0.230108E+00  0.197159E+00  0.171861E+00  0.153291E+00
  0.140247E+00  0.131505E+00  0.125991E+00  0.122944E+00  0.121966E+00  0.122944E+00
  0.125991E+00  0.131505E+00  0.140247E+00  0.153291E+00  0.171861E+00  0.197159E+00
  0.230108E+00  0.270956E+00  0.318864E+00  0.371730E+00  0.426352E+00  0.478920E+00
  0.525774E+00  0.564139E+00  0.592350E+00  0.696261E+00  0.707074E+00  0.707074E+00
  0.696261E+00  0.674555E+00  0.641901E+00  0.598611E+00  0.545913E+00  0.486359E+00
  0.423688E+00  0.362163E+00  0.305649E+00  0.256807E+00  0.216781E+00  0.185464E+00
  0.161995E+00  0.145151E+00  0.133646E+00  0.126442E+00  0.122944E+00  0.122944E+00
  0.126442E+00  0.133646E+00  0.145151E+00  0.161995E+00  0.185464E+00  0.216781E+00
  0.256807E+00  0.305649E+00  0.362163E+00  0.423688E+00  0.486359E+00  0.545913E+00
  0.598611E+00  0.641901E+00  0.674555E+00  0.696261E+00  0.780540E+00  0.785300E+00
  0.780540E+00  0.766087E+00  0.741465E+00  0.706074E+00  0.659629E+00  0.602790E+00
  0.537707E+00  0.468131E+00  0.398817E+00  0.334345E+00  0.277980E+00  0.231293E+00
  0.194467E+00  0.166758E+00  0.146918E+00  0.133646E+00  0.125991E+00  0.123481E+00
  0.125991E+00  0.133646E+00  0.146918E+00  0.166758E+00  0.194467E+00  0.231293E+00
  0.277980E+00  0.334345E+00  0.398817E+00  0.468131E+00  0.537707E+00  0.602790E+00
  0.659629E+00  0.706074E+00  0.741465E+00  0.766087E+00  0.780540E+00  0.843871E+00
  0.843871E+00  0.835769E+00  0.819070E+00  0.792854E+00  0.755998E+00  0.707624E+00
  0.647787E+00  0.578216E+00  0.502683E+00  0.426430E+00  0.354731E+00  0.291536E+00
  0.238988E+00  0.197613E+00  0.166758E+00  0.145151E+00  0.131505E+00  0.124903E+00
  0.124903E+00  0.131505E+00  0.145151E+00  0.166758E+00  0.197613E+00  0.238988E+00
  0.291536E+00  0.354731E+00  0.426430E+00  0.502683E+00  0.578216E+00  0.647787E+00
  0.707624E+00  0.755998E+00  0.792854E+00  0.819070E+00  0.835769E+00  0.843871E+00
  0.888901E+00  0.885603E+00  0.875418E+00  0.857489E+00  0.830485E+00  0.792806E+00
  0.743026E+00  0.680650E+00  0.607066E+00  0.526112E+00  0.443516E+00  0.365293E+00
  0.296196E+00  0.238988E+00  0.194467E+00  0.161995E+00  0.140247E+00  0.127860E+00
  0.123849E+00  0.127860E+00  0.140247E+00  0.161995E+00  0.194467E+00  0.238988E+00
  0.296196E+00  0.365293E+00  0.443516E+00  0.526112E+00  0.607066E+00  0.680650E+00
  0.743026E+00  0.792806E+00  0.830485E+00  0.857489E+00  0.875418E+00  0.885603E+00
  0.888901E+00  0.919685E+00  0.914279E+00  0.902860E+00  0.884243E+00  0.856730E+00
  0.818294E+00  0.767015E+00  0.701939E+00  0.624232E+00  0.537909E+00  0.449293E+00
  0.365293E+00  0.291536E+00  0.231293E+00  0.185464E+00  0.153291E+00  0.133230E+00
  0.123697E+00  0.123697E+00  0.133230E+00  0.153291E+00  0.185464E+00  0.231293E+00
  0.291536E+00  0.365293E+00  0.449293E+00  0.537909E+00  0.624232E+00  0.701939E+00
  0.767015E+00  0.818294E+00  0.856730E+00  0.884243E+00  0.902860E+00  0.914279E+00
  0.919685E+00  0.919685E+00  0.940107E+00  0.933366E+00  0.921142E+00  0.901961E+00
  0.873792E+00  0.834202E+00  0.780827E+00  0.712363E+00  0.629920E+00  0.537909E+00
  0.443516E+00  0.354731E+00  0.277980E+00  0.216781E+00  0.171861E+00  0.142065E+00
  0.125397E+00  0.120077E+00  0.125397E+00  0.142065E+00  0.171861E+00  0.216781E+00
  0.277980E+00  0.354731E+00  0.443516E+00  0.537909E+00  0.629920E+00  0.712363E+00
  0.780827E+00  0.834202E+00  0.873792E+00  0.901961E+00  0.921142E+00  0.933366E+00
  0.940107E+00  0.942256E+00  0.940107E+00  0.953239E+00  0.945554E+00  0.932611E+00
  0.912663E+00  0.883345E+00  0.841820E+00  0.785330E+00  0.712363E+00  0.624232E+00
  0.526112E+00  0.426430E+00  0.334345E+00  0.256807E+00  0.197159E+00  0.155522E+00
  0.129979E+00  0.118040E+00  0.118040E+00  0.129979E+00  0.155522E+00  0.197159E+00
  0.256807E+00  0.334345E+00  0.426430E+00  0.526112E+00  0.624232E+00  0.712363E+00
  0.785330E+00  0.841820E+00  0.883345E+00  0.912663E+00  0.932611E+00  0.945554E+00
  0.953239E+00  0.956802E+00  0.956802E+00  0.953239E+00  0.961250E+00  0.952720E+00
  0.938876E+00  0.917684E+00  0.886415E+00  0.841820E+00  0.780827E+00  0.701939E+00
  0.607066E+00  0.502683E+00  0.398817E+00  0.305649E+00  0.230108E+00  0.174733E+00
  0.138504E+00  0.118587E+00  0.112302E+00  0.118587E+00  0.138504E+00  0.174733E+00
  0.230108E+00  0.305649E+00  0.398817E+00  0.502683E+00  0.607066E+00  0.701939E+00
  0.780827E+00  0.841820E+00  0.886415E+00  0.917684E+00  0.938876E+00  0.952720E+00
  0.961250E+00  0.965842E+00  0.967287E+00  0.965842E+00  0.961250E+00  0.965541E+00
  0.956025E+00  0.940864E+00  0.917684E+00  0.883345E+00  0.834202E+00  0.767015E+00
  0.680650E+00  0.578216E+00  0.468131E+00  0.362163E+00  0.270956E+00  0.200556E+00
  0.151939E+00  0.122620E+00  0.109116E+00  0.109116E+00  0.122620E+00  0.151939E+00
  0.200556E+00  0.270956E+00  0.362163E+00  0.468131E+00  0.578216E+00  0.680650E+00
  0.767015E+00  0.834202E+00  0.883345E+00  0.917684E+00  0.940864E+00  0.956025E+00
  0.965541E+00  0.971048E+00  0.973561E+00  0.973561E+00  0.971048E+00  0.965541E+00
  0.966889E+00  0.956025E+00  0.938876E+00  0.912663E+00  0.873792E+00  0.818294E+00
  0.743026E+00  0.647787E+00  0.537707E+00  0.423688E+00  0.318864E+00  0.233257E+00
  0.170971E+00  0.130867E+00  0.109179E+00  0.102404E+00  0.109179E+00  0.130867E+00
  0.170971E+00  0.233257E+00  0.318864E+00  0.423688E+00  0.537707E+00  0.647787E+00
  0.743026E+00  0.818294E+00  0.873792E+00  0.912663E+00  0.938876E+00  0.956025E+00
  0.966889E+00  0.973419E+00  0.976874E+00  0.977951E+00  0.976874E+00  0.973419E+00
  0.966889E+00  0.965541E+00  0.952720E+00  0.932611E+00  0.901961E+00  0.856730E+00
  0.792806E+00  0.707624E+00  0.602790E+00  0.486359E+00  0.371730E+00  0.272232E+00
  0.195821E+00  0.143800E+00  0.112959E+00  0.989401E-01  0.989401E-01  0.112959E+00
  0.143800E+00  0.195821E+00  0.272232E+00  0.371730E+00  0.486359E+00  0.602790E+00
  0.707624E+00  0.792806E+00  0.856730E+00  0.901961E+00  0.932611E+00  0.952720E+00
  0.965541E+00  0.973419E+00  0.977906E+00  0.979933E+00  0.979933E+00  0.977906E+00
  0.973419E+00  0.965541E+00  0.961250E+00  0.945554E+00  0.921142E+00  0.884243E+00
  0.830485E+00  0.755998E+00  0.659629E+00  0.545913E+00  0.426352E+00  0.315838E+00
  0.226036E+00  0.161543E+00  0.120701E+00  0.989401E-01  0.922012E-01  0.989401E-01
  0.120701E+00  0.161543E+00  0.226036E+00  0.315838E+00  0.426352E+00  0.545913E+00
  0.659629E+00  0.755998E+00  0.830485E+00  0.884243E+00  0.921142E+00  0.945554E+00
  0.961250E+00  0.971048E+00  0.976874E+00  0.979933E+00  0.980884E+00  0.979933E+00
  0.976874E+00  0.971048E+00  0.961250E+00  0.953239E+00  0.933366E+00  0.902860E+00
  0.857489E+00  0.792854E+00  0.706074E+00  0.598611E+00  0.478920E+00  0.361393E+00
  0.260280E+00  0.183687E+00  0.132372E+00  0.102404E+00  0.889275E-01  0.889275E-01
  0.102404E+00  0.132372E+00  0.183687E+00  0.260280E+00  0.361393E+00  0.478920E+00
  0.598611E+00  0.706074E+00  0.792854E+00  0.857489E+00  0.902860E+00  0.933366E+00
  0.953239E+00  0.965842E+00  0.973561E+00  0.977951E+00  0.979933E+00  0.979933E+00
  0.977951E+00  0.973561E+00  0.965842E+00  0.953239E+00  0.940107E+00  0.914279E+00
  0.875418E+00  0.819070E+00  0.741465E+00  0.641901E+00  0.525774E+00  0.405504E+00
  0.296263E+00  0.209087E+00  0.147533E+00  0.109116E+00  0.888698E-01  0.826370E-01
  0.888698E-01  0.109116E+00  0.147533E+00  0.209087E+00  0.296263E+00  0.405504E+00
  0.525774E+00  0.641901E+00  0.741465E+00  0.819070E+00  0.875418E+00  0.914279E+00
  0.940107E+00  0.956802E+00  0.967287E+00  0.973561E+00  0.976874E+00  0.977906E+00
  0.976874E+00  0.973561E+00  0.967287E+00  0.956802E+00  0.940107E+00  0.919685E+00
  0.885603E+00  0.835769E+00  0.766087E+00  0.674555E+00  0.564139E+00  0.444766E+00
  0.331053E+00  0.235823E+00  0.165197E+00  0.118587E+00  0.916369E-01  0.795882E-01
  0.795882E-01  0.916369E-01  0.118587E+00  0.165197E+00  0.235823E+00  0.331053E+00
  0.444766E+00  0.564139E+00  0.674555E+00  0.766087E+00  0.835769E+00  0.885603E+00
  0.919685E+00  0.942256E+00  0.956802E+00  0.965842E+00  0.971048E+00  0.973419E+00
  0.973419E+00  0.971048E+00  0.965842E+00  0.956802E+00  0.942256E+00  0.919685E+00
  0.888901E+00  0.843871E+00  0.780540E+00  0.696261E+00  0.592350E+00  0.476436E+00
  0.361682E+00  0.261481E+00  0.183820E+00  0.129979E+00  0.966975E-01  0.792327E-01
  0.738643E-01  0.792327E-01  0.966975E-01  0.129979E+00  0.183820E+00  0.261481E+00
  0.361682E+00  0.476436E+00  0.592350E+00  0.696261E+00  0.780540E+00  0.843871E+00
  0.888901E+00  0.919685E+00  0.940107E+00  0.953239E+00  0.961250E+00  0.965541E+00
  0.966889E+00  0.965541E+00  0.961250E+00  0.953239E+00  0.940107E+00  0.919685E+00
  0.888901E+00  0.863941E+00  0.808606E+00  0.732884E+00  0.636494E+00  0.525078E+00
  0.410136E+00  0.304822E+00  0.218708E+00  0.155522E+00  0.113966E+00  0.899606E-01
  0.792327E-01  0.792327E-01  0.899606E-01  0.113966E+00  0.155522E+00  0.218708E+00
  0.304822E+00  0.410136E+00  0.525078E+00  0.636494E+00  0.732884E+00  0.808606E+00
  0.863941E+00  0.902446E+00  0.928375E+00  0.945353E+00  0.956052E+00  0.962277E+00
  0.965128E+00  0.965128E+00  0.962277E+00  0.956052E+00  0.945353E+00  0.928375E+00
  0.902446E+00  0.863941E+00  0.808606E+00  0.738177E+00  0.648185E+00  0.542904E+00
  0.432040E+00  0.327607E+00  0.239303E+00  0.171861E+00  0.125226E+00  0.962713E-01
  0.809746E-01  0.762502E-01  0.809746E-01  0.962713E-01  0.125226E+00  0.171861E+00
  0.239303E+00  0.327607E+00  0.432040E+00  0.542904E+00  0.648185E+00  0.738177E+00
  0.808606E+00  0.860241E+00  0.896443E+00  0.921000E+00  0.937092E+00  0.947056E+00
  0.952446E+00  0.954147E+00  0.952446E+00  0.947056E+00  0.937092E+00  0.921000E+00
  0.896443E+00  0.860241E+00  0.808606E+00  0.732884E+00  0.648185E+00  0.548909E+00
  0.443365E+00  0.342200E+00  0.254535E+00  0.185464E+00  0.135769E+00  0.103162E+00
  0.841102E-01  0.754687E-01  0.754687E-01  0.841102E-01  0.103162E+00  0.135769E+00
  0.185464E+00  0.254535E+00  0.342200E+00  0.443365E+00  0.548909E+00  0.648185E+00
  0.732884E+00  0.799498E+00  0.848811E+00  0.883758E+00  0.907619E+00  0.923166E+00
  0.932440E+00  0.936757E+00  0.936757E+00  0.932440E+00  0.923166E+00  0.907619E+00
  0.883758E+00  0.848811E+00  0.799498E+00  0.732884E+00  0.636494E+00  0.542904E+00
  0.443365E+00  0.347227E+00  0.262635E+00  0.194467E+00  0.143941E+00  0.109394E+00
  0.877738E-01  0.761236E-01  0.724664E-01  0.761236E-01  0.877738E-01  0.109394E+00
  0.143941E+00  0.194467E+00  0.262635E+00  0.347227E+00  0.443365E+00  0.542904E+00
  0.636494E+00  0.716829E+00  0.780730E+00  0.828684E+00  0.863052E+00  0.886582E+00
  0.901650E+00  0.909997E+00  0.912665E+00  0.909997E+00  0.901650E+00  0.886582E+00
  0.863052E+00  0.828684E+00  0.780730E+00  0.716829E+00  0.636494E+00  0.525078E+00
  0.432040E+00  0.342200E+00  0.262635E+00  0.197613E+00  0.148389E+00  0.113729E+00
  0.909892E-01  0.774401E-01  0.711363E-01  0.711363E-01  0.774401E-01  0.909892E-01
  0.113729E+00  0.148389E+00  0.197613E+00  0.262635E+00  0.342200E+00  0.432040E+00
  0.525078E+00  0.613096E+00  0.689542E+00  0.751302E+00  0.798359E+00  0.832397E+00
  0.855590E+00  0.869890E+00  0.876685E+00  0.876685E+00  0.869890E+00  0.855590E+00
  0.832397E+00  0.798359E+00  0.751302E+00  0.689542E+00  0.613096E+00  0.525078E+00
  0.410136E+00  0.327607E+00  0.254535E+00  0.194467E+00  0.148389E+00  0.115279E+00
  0.928661E-01  0.786511E-01  0.707651E-01  0.682293E-01  0.707651E-01  0.786511E-01
  0.928661E-01  0.115279E+00  0.148389E+00  0.194467E+00  0.254535E+00  0.327607E+00
  0.410136E+00  0.496028E+00  0.578122E+00  0.650538E+00  0.710083E+00  0.756099E+00
  0.789514E+00  0.811875E+00  0.824639E+00  0.828782E+00  0.824639E+00  0.811875E+00
  0.789514E+00  0.756099E+00  0.710083E+00  0.650538E+00  0.578122E+00  0.496028E+00
  0.410136E+00  0.304822E+00  0.239303E+00  0.185464E+00  0.143941E+00  0.113729E+00
  0.928661E-01  0.791367E-01  0.707612E-01  0.667477E-01  0.667477E-01  0.707612E-01
  0.791367E-01  0.928661E-01  0.113729E+00  0.143941E+00  0.185464E+00  0.239303E+00
  0.304822E+00  0.379088E+00  0.456937E+00  0.532288E+00  0.599900E+00  0.656429E+00
  0.700534E+00  0.732368E+00  0.752806E+00  0.762760E+00  0.762760E+00  0.752806E+00
  0.732368E+00  0.700534E+00  0.656429E+00  0.599900E+00  0.532288E+00  0.456937E+00
  0.379088E+00  0.304822E+00  0.218708E+00  0.171861E+00  0.135769E+00  0.109394E+00
  0.909892E-01  0.786511E-01  0.707612E-01  0.662978E-01  0.648386E-01  0.662978E-01
  0.707612E-01  0.786511E-01  0.909892E-01  0.109394E+00  0.135769E+00  0.171861E+00
  0.218708E+00  0.275912E+00  0.341058E+00  0.409915E+00  0.477448E+00  0.538975E+00
  0.591005E+00  0.631625E+00  0.660301E+00  0.677257E+00  0.682859E+00  0.677257E+00
  0.660301E+00  0.631625E+00  0.591005E+00  0.538975E+00  0.477448E+00  0.409915E+00
  0.341058E+00  0.275912E+00  0.218708E+00  0.155522E+00  0.125226E+00  0.103162E+00
  0.877738E-01  0.774401E-01  0.707651E-01  0.667477E-01  0.648386E-01  0.648386E-01
  0.667477E-01  0.707651E-01  0.774401E-01  0.877738E-01  0.103162E+00  0.125226E+00
  0.155522E+00  0.195030E+00  0.243483E+00  0.298971E+00  0.358140E+00  0.416815E+00
  0.470762E+00  0.516486E+00  0.551750E+00  0.575505E+00  0.587415E+00  0.587415E+00
  0.575505E+00  0.551750E+00  0.516486E+00  0.470762E+00  0.416815E+00  0.358140E+00
  0.298971E+00  0.243483E+00  0.195030E+00  0.155522E+00  0.113966E+00  0.962713E-01
  0.841102E-01  0.761236E-01  0.711363E-01  0.682293E-01  0.667477E-01  0.662978E-01
  0.667477E-01  0.682293E-01  0.711363E-01  0.761236E-01  0.841102E-01  0.962713E-01
  0.113966E+00  0.138504E+00  0.170709E+00  0.210423E+00  0.256219E+00  0.305439E+00
  0.354538E+00  0.399717E+00  0.437682E+00  0.466115E+00  0.483640E+00  0.489555E+00
  0.483640E+00  0.466115E+00  0.437682E+00  0.399717E+00  0.354538E+00  0.305439E+00
  0.256219E+00  0.210423E+00  0.170709E+00  0.138504E+00  0.113966E+00  0.899606E-01
  0.809746E-01  0.754687E-01  0.724664E-01  0.711363E-01  0.707651E-01  0.707612E-01
  0.707612E-01  0.707651E-01  0.711363E-01  0.724664E-01  0.754687E-01  0.809746E-01
  0.899606E-01  0.103506E+00  0.122620E+00  0.147952E+00  0.179438E+00  0.216013E+00
  0.255519E+00  0.294936E+00  0.330950E+00  0.360589E+00  0.381590E+00  0.392463E+00
  0.392463E+00  0.381590E+00  0.360589E+00  0.330950E+00  0.294936E+00  0.255519E+00
  0.216013E+00  0.179438E+00  0.147952E+00  0.122620E+00  0.103506E+00  0.899606E-01
  0.792327E-01  0.762502E-01  0.754687E-01  0.761236E-01  0.774401E-01  0.786511E-01
  0.791367E-01  0.786511E-01  0.774401E-01  0.761236E-01  0.754687E-01  0.762502E-01
  0.792327E-01  0.851972E-01  0.949373E-01  0.109179E+00  0.128399E+00  0.152551E+00
  0.180788E+00  0.211341E+00  0.241692E+00  0.269005E+00  0.290628E+00  0.304477E+00
  0.309241E+00  0.304477E+00  0.290628E+00  0.269005E+00  0.241692E+00  0.211341E+00
  0.180788E+00  0.152551E+00  0.128399E+00  0.109179E+00  0.949373E-01  0.851972E-01
  0.792327E-01  0.792327E-01  0.809746E-01  0.841102E-01  0.877738E-01  0.909892E-01
  0.928661E-01  0.928661E-01  0.909892E-01  0.877738E-01  0.841102E-01  0.809746E-01
  0.792327E-01  0.795882E-01  0.826370E-01  0.889275E-01  0.989401E-01  0.112959E+00
  0.130867E+00  0.151939E+00  0.174733E+00  0.197159E+00  0.216781E+00  0.231293E+00
  0.238988E+00  0.238988E+00  0.231293E+00  0.216781E+00  0.197159E+00  0.174733E+00
  0.151939E+00  0.130867E+00  0.112959E+00  0.989401E-01  0.889275E-01  0.826370E-01
  0.795882E-01  0.792327E-01  0.899606E-01  0.962713E-01  0.103162E+00  0.109394E+00
  0.113729E+00  0.115279E+00  0.113729E+00  0.109394E+00  0.103162E+00  0.962713E-01
  0.899606E-01  0.851972E-01  0.826370E-01  0.827351E-01  0.858413E-01  0.922012E-01
  0.101879E+00  0.114642E+00  0.129829E+00  0.146226E+00  0.162057E+00  0.175255E+00
  0.183971E+00  0.187010E+00  0.183971E+00  0.175255E+00  0.162057E+00  0.146226E+00
  0.129829E+00  0.114642E+00  0.101879E+00  0.922012E-01  0.858413E-01  0.827351E-01
  0.826370E-01  0.851972E-01  0.899606E-01  0.113966E+00  0.125226E+00  0.135769E+00
  0.143941E+00  0.148389E+00  0.148389E+00  0.143941E+00  0.135769E+00  0.125226E+00
  0.113966E+00  0.103506E+00  0.949373E-01  0.889275E-01  0.858413E-01  0.858413E-01
  0.889275E-01  0.949373E-01  0.103506E+00  0.113966E+00  0.125226E+00  0.135769E+00
  0.143941E+00  0.148389E+00  0.148389E+00  0.143941E+00  0.135769E+00  0.125226E+00
  0.113966E+00  0.103506E+00  0.949373E-01  0.889275E-01  0.858413E-01  0.858413E-01
  0.889275E-01  0.949373E-01  0.103506E+00  0.113966E+00  0.155522E+00  0.171861E+00
  0.185464E+00  0.194467E+00  0.197613E+00  0.194467E+00  0.185464E+00  0.171861E+00
  0.155522E+00  0.138504E+00  0.122620E+00  0.109179E+00  0.989401E-01  0.922012E-01
  0.889275E-01  0.888698E-01  0.916369E-01  0.966975E-01  0.103316E+00  0.110481E+00
  0.116948E+00  0.121460E+00  0.123080E+00  0.121460E+00  0.116948E+00  0.110481E+00
  0.103316E+00  0.966975E-01  0.916369E-01  0.888698E-01  0.889275E-01  0.922012E-01
  0.989401E-01  0.109179E+00  0.122620E+00  0.138504E+00  0.155522E+00  0.218708E+00
  0.239303E+00  0.254535E+00  0.262635E+00  0.262635E+00  0.254535E+00  0.239303E+00
  0.218708E+00  0.195030E+00  0.170709E+00  0.147952E+00  0.128399E+00  0.112959E+00
  0.101879E+00  0.949373E-01  0.916369E-01  0.913308E-01  0.932804E-01  0.966659E-01
  0.100574E+00  0.104008E+00  0.106027E+00  0.106027E+00  0.104008E+00  0.100574E+00
  0.966659E-01  0.932804E-01  0.913308E-01  0.916369E-01  0.949373E-01  0.101879E+00
  0.112959E+00  0.128399E+00  0.147952E+00  0.170709E+00  0.195030E+00  0.218708E+00
  0.304822E+00  0.327607E+00  0.342200E+00  0.347227E+00  0.342200E+00  0.327607E+00
  0.304822E+00  0.275912E+00  0.243483E+00  0.210423E+00  0.179438E+00  0.152551E+00
  0.130867E+00  0.114642E+00  0.103506E+00  0.966975E-01  0.932804E-01  0.923048E-01
  0.928909E-01  0.942128E-01  0.954644E-01  0.959732E-01  0.954644E-01  0.942128E-01
  0.928909E-01  0.923048E-01  0.932804E-01  0.966975E-01  0.103506E+00  0.114642E+00
  0.130867E+00  0.152551E+00  0.179438E+00  0.210423E+00  0.243483E+00  0.275912E+00
  0.304822E+00  0.410136E+00  0.432040E+00  0.443365E+00  0.443365E+00  0.432040E+00
  0.410136E+00  0.379088E+00  0.341058E+00  0.298971E+00  0.256219E+00  0.216013E+00
  0.180788E+00  0.151939E+00  0.129829E+00  0.113966E+00  0.103316E+00  0.966659E-01
  0.928909E-01  0.910503E-01  0.903669E-01  0.902148E-01  0.902148E-01  0.903669E-01
  0.910503E-01  0.928909E-01  0.966659E-01  0.103316E+00  0.113966E+00  0.129829E+00
  0.151939E+00  0.180788E+00  0.216013E+00  0.256219E+00  0.298971E+00  0.341058E+00
  0.379088E+00  0.410136E+00  0.525078E+00  0.542904E+00  0.548909E+00  0.542904E+00
  0.525078E+00  0.496028E+00  0.456937E+00  0.409915E+00  0.358140E+00  0.305439E+00
  0.255519E+00  0.211341E+00  0.174733E+00  0.146226E+00  0.125226E+00  0.110481E+00
  0.100574E+00  0.942128E-01  0.903669E-01  0.883211E-01  0.876797E-01  0.883211E-01
  0.903669E-01  0.942128E-01  0.100574E+00  0.110481E+00  0.125226E+00  0.146226E+00
  0.174733E+00  0.211341E+00  0.255519E+00  0.305439E+00  0.358140E+00  0.409915E+00
  0.456937E+00  0.496028E+00  0.525078E+00  0.636494E+00  0.648185E+00  0.648185E+00
  0.636494E+00  0.613096E+00  0.578122E+00  0.532288E+00  0.477448E+00  0.416815E+00
  0.354538E+00  0.294936E+00  0.241692E+00  0.197159E+00  0.162057E+00  0.135769E+00
  0.116948E+00  0.104008E+00  0.954644E-01  0.902148E-01  0.876797E-01  0.876797E-01
  0.902148E-01  0.954644E-01  0.104008E+00  0.116948E+00  0.135769E+00  0.162057E+00
  0.197159E+00  0.241692E+00  0.294936E+00  0.354538E+00  0.416815E+00  0.477448E+00
  0.532288E+00  0.578122E+00  0.613096E+00  0.636494E+00  0.732884E+00  0.738177E+00
  0.732884E+00  0.716829E+00  0.689542E+00  0.650538E+00  0.599900E+00  0.538975E+00
  0.470762E+00  0.399717E+00  0.330950E+00  0.269005E+00  0.216781E+00  0.175255E+00
  0.143941E+00  0.121460E+00  0.106027E+00  0.959732E-01  0.902148E-01  0.883211E-01
  0.902148E-01  0.959732E-01  0.106027E+00  0.121460E+00  0.143941E+00  0.175255E+00
  0.216781E+00  0.269005E+00  0.330950E+00  0.399717E+00  0.470762E+00  0.538975E+00
  0.599900E+00  0.650538E+00  0.689542E+00  0.716829E+00  0.732884E+00  0.808606E+00
  0.808606E+00  0.799498E+00  0.780730E+00  0.751302E+00  0.710083E+00  0.656429E+00
  0.591005E+00  0.516486E+00  0.437682E+00  0.360589E+00  0.290628E+00  0.231293E+00
  0.183971E+00  0.148389E+00  0.123080E+00  0.106027E+00  0.954644E-01  0.903669E-01
  0.903669E-01  0.954644E-01  0.106027E+00  0.123080E+00  0.148389E+00  0.183971E+00
  0.231293E+00  0.290628E+00  0.360589E+00  0.437682E+00  0.516486E+00  0.591005E+00
  0.656429E+00  0.710083E+00  0.751302E+00  0.780730E+00  0.799498E+00  0.808606E+00
  0.863941E+00  0.860241E+00  0.848811E+00  0.828684E+00  0.798359E+00  0.756099E+00
  0.700534E+00  0.631625E+00  0.551750E+00  0.466115E+00  0.381590E+00  0.304477E+00
  0.238988E+00  0.187010E+00  0.148389E+00  0.121460E+00  0.104008E+00  0.942128E-01
  0.910503E-01  0.942128E-01  0.104008E+00  0.121460E+00  0.148389E+00  0.187010E+00
  0.238988E+00  0.304477E+00  0.381590E+00  0.466115E+00  0.551750E+00  0.631625E+00
  0.700534E+00  0.756099E+00  0.798359E+00  0.828684E+00  0.848811E+00  0.860241E+00
  0.863941E+00  0.902446E+00  0.896443E+00  0.883758E+00  0.863052E+00  0.832397E+00
  0.789514E+00  0.732368E+00  0.660301E+00  0.575505E+00  0.483640E+00  0.392463E+00
  0.309241E+00  0.238988E+00  0.183971E+00  0.143941E+00  0.116948E+00  0.100574E+00
  0.928909E-01  0.928909E-01  0.100574E+00  0.116948E+00  0.143941E+00  0.183971E+00
  0.238988E+00  0.309241E+00  0.392463E+00  0.483640E+00  0.575505E+00  0.660301E+00
  0.732368E+00  0.789514E+00  0.832397E+00  0.863052E+00  0.883758E+00  0.896443E+00
  0.902446E+00  0.902446E+00  0.928375E+00  0.921000E+00  0.907619E+00  0.886582E+00
  0.855590E+00  0.811875E+00  0.752806E+00  0.677257E+00  0.587415E+00  0.489555E+00
  0.392463E+00  0.304477E+00  0.231293E+00  0.175255E+00  0.135769E+00  0.110481E+00
  0.966659E-01  0.923048E-01  0.966659E-01  0.110481E+00  0.135769E+00  0.175255E+00
  0.231293E+00  0.304477E+00  0.392463E+00  0.489555E+00  0.587415E+00  0.677257E+00
  0.752806E+00  0.811875E+00  0.855590E+00  0.886582E+00  0.907619E+00  0.921000E+00
  0.928375E+00  0.930725E+00  0.928375E+00  0.945353E+00  0.937092E+00  0.923166E+00
  0.901650E+00  0.869890E+00  0.824639E+00  0.762760E+00  0.682859E+00  0.587415E+00
  0.483640E+00  0.381590E+00  0.290628E+00  0.216781E+00  0.162057E+00  0.125226E+00
  0.103316E+00  0.932804E-01  0.932804E-01  0.103316E+00  0.125226E+00  0.162057E+00
  0.216781E+00  0.290628E+00  0.381590E+00  0.483640E+00  0.587415E+00  0.682859E+00
  0.762760E+00  0.824639E+00  0.869890E+00  0.901650E+00  0.923166E+00  0.937092E+00
  0.945353E+00  0.949183E+00  0.949183E+00  0.945353E+00  0.956052E+00  0.947056E+00
  0.932440E+00  0.909997E+00  0.876685E+00  0.828782E+00  0.762760E+00  0.677257E+00
  0.575505E+00  0.466115E+00  0.360589E+00  0.269005E+00  0.197159E+00  0.146226E+00
  0.113966E+00  0.966975E-01  0.913308E-01  0.966975E-01  0.113966E+00  0.146226E+00
  0.197159E+00  0.269005E+00  0.360589E+00  0.466115E+00  0.575505E+00  0.677257E+00
  0.762760E+00  0.828782E+00  0.876685E+00  0.909997E+00  0.932440E+00  0.947056E+00
  0.956052E+00  0.960896E+00  0.962421E+00  0.960896E+00  0.956052E+00  0.962277E+00
  0.952446E+00  0.936757E+00  0.912665E+00  0.876685E+00  0.824639E+00  0.752806E+00
  0.660301E+00  0.551750E+00  0.437682E+00  0.330950E+00  0.241692E+00  0.174733E+00
  0.129829E+00  0.103506E+00  0.916369E-01  0.916369E-01  0.103506E+00  0.129829E+00
  0.174733E+00  0.241692E+00  0.330950E+00  0.437682E+00  0.551750E+00  0.660301E+00
  0.752806E+00  0.824639E+00  0.876685E+00  0.912665E+00  0.936757E+00  0.952446E+00
  0.962277E+00  0.967966E+00  0.970562E+00  0.970562E+00  0.967966E+00  0.962277E+00
  0.965128E+00  0.954147E+00  0.936757E+00  0.909997E+00  0.869890E+00  0.811875E+00
  0.732368E+00  0.631625E+00  0.516486E+00  0.399717E+00  0.294936E+00  0.211341E+00
  0.151939E+00  0.114642E+00  0.949373E-01  0.888698E-01  0.949373E-01  0.114642E+00
  0.151939E+00  0.211341E+00  0.294936E+00  0.399717E+00  0.516486E+00  0.631625E+00
  0.732368E+00  0.811875E+00  0.869890E+00  0.909997E+00  0.936757E+00  0.954147E+00
  0.965128E+00  0.971722E+00  0.975211E+00  0.976299E+00  0.975211E+00  0.971722E+00
  0.965128E+00  0.965128E+00  0.952446E+00  0.932440E+00  0.901650E+00  0.855590E+00
  0.789514E+00  0.700534E+00  0.591005E+00  0.470762E+00  0.354538E+00  0.255519E+00
  0.180788E+00  0.130867E+00  0.101879E+00  0.889275E-01  0.889275E-01  0.101879E+00
  0.130867E+00  0.180788E+00  0.255519E+00  0.354538E+00  0.470762E+00  0.591005E+00
  0.700534E+00  0.789514E+00  0.855590E+00  0.901650E+00  0.932440E+00  0.952446E+00
  0.965128E+00  0.972897E+00  0.977315E+00  0.979310E+00  0.979310E+00  0.977315E+00
  0.972897E+00  0.965128E+00  0.962277E+00  0.947056E+00  0.923166E+00  0.886582E+00
  0.832397E+00  0.756099E+00  0.656429E+00  0.538975E+00  0.416815E+00  0.305439E+00
  0.216013E+00  0.152551E+00  0.112959E+00  0.922012E-01  0.858413E-01  0.922012E-01
  0.112959E+00  0.152551E+00  0.216013E+00  0.305439E+00  0.416815E+00  0.538975E+00
  0.656429E+00  0.756099E+00  0.832397E+00  0.886582E+00  0.923166E+00  0.947056E+00
  0.962277E+00  0.971722E+00  0.977315E+00  0.980246E+00  0.981155E+00  0.980246E+00
  0.977315E+00  0.971722E+00  0.962277E+00  0.956052E+00  0.937092E+00  0.907619E+00
  0.863052E+00  0.798359E+00  0.710083E+00  0.599900E+00  0.477448E+00  0.358140E+00
  0.256219E+00  0.179438E+00  0.128399E+00  0.989401E-01  0.858413E-01  0.858413E-01
  0.989401E-01  0.128399E+00  0.179438E+00  0.256219E+00  0.358140E+00  0.477448E+00
  0.599900E+00  0.710083E+00  0.798359E+00  0.863052E+00  0.907619E+00  0.937092E+00
  0.956052E+00  0.967966E+00  0.975211E+00  0.979310E+00  0.981155E+00  0.981155E+00
  0.979310E+00  0.975211E+00  0.967966E+00  0.956052E+00  0.945353E+00  0.921000E+00
  0.883758E+00  0.828684E+00  0.751302E+00  0.650538E+00  0.532288E+00  0.409915E+00
  0.298971E+00  0.210423E+00  0.147952E+00  0.109179E+00  0.889275E-01  0.827351E-01
  0.889275E-01  0.109179E+00  0.147952E+00  0.210423E+00  0.298971E+00  0.409915E+00
  0.532288E+00  0.650538E+00  0.751302E+00  0.828684E+00  0.883758E+00  0.921000E+00
  0.945353E+00  0.960896E+00  0.970562E+00  0.976299E+00  0.979310E+00  0.980246E+00
  0.979310E+00  0.976299E+00  0.970562E+00  0.960896E+00  0.945353E+00  0.928375E+00
  0.896443E+00  0.848811E+00  0.780730E+00  0.689542E+00  0.578122E+00  0.456937E+00
  0.341058E+00  0.243483E+00  0.170709E+00  0.122620E+00  0.949373E-01  0.826370E-01
  0.826370E-01  0.949373E-01  0.122620E+00  0.170709E+00  0.243483E+00  0.341058E+00
  0.456937E+00  0.578122E+00  0.689542E+00  0.780730E+00  0.848811E+00  0.896443E+00
  0.928375E+00  0.949183E+00  0.962421E+00  0.970562E+00  0.975211E+00  0.977315E+00
  0.977315E+00  0.975211E+00  0.970562E+00  0.962421E+00  0.949183E+00  0.928375E+00
  0.902446E+00  0.860241E+00  0.799498E+00  0.716829E+00  0.613096E+00  0.496028E+00
  0.379088E+00  0.275912E+00  0.195030E+00  0.138504E+00  0.103506E+00  0.851972E-01
  0.795882E-01  0.851972E-01  0.103506E+00  0.138504E+00  0.195030E+00  0.275912E+00
  0.379088E+00  0.496028E+00  0.613096E+00  0.716829E+00  0.799498E+00  0.860241E+00
  0.902446E+00  0.930725E+00  0.949183E+00  0.960896E+00  0.967966E+00  0.971722E+00
  0.972897E+00  0.971722E+00  0.967966E+00  0.960896E+00  0.949183E+00  0.930725E+00
  0.902446E+00  0.863941E+00  0.808606E+00  0.732884E+00  0.636494E+00  0.525078E+00
  0.410136E+00  0.304822E+00  0.218708E+00  0.155522E+00  0.113966E+00  0.899606E-01
  0.792327E-01  0.792327E-01  0.899606E-01  0.113966E+00  0.155522E+00  0.218708E+00
  0.304822E+00  0.410136E+00  0.525078E+00  0.636494E+00  0.732884E+00  0.808606E+00
  0.863941E+00  0.902446E+00  0.928375E+00  0.945353E+00  0.956052E+00  0.962277E+00
  0.965128E+00  0.965128E+00  0.962277E+00  0.956052E+00  0.945353E+00  0.928375E+00
  0.902446E+00  0.863941E+00  0.828782E+00  0.762760E+00  0.677257E+00  0.575505E+00
  0.466115E+00  0.360589E+00  0.269005E+00  0.197159E+00  0.146226E+00  0.113966E+00
  0.966975E-01  0.913308E-01  0.966975E-01  0.113966E+00  0.146226E+00  0.197159E+00
  0.269005E+00  0.360589E+00  0.466115E+00  0.575505E+00  0.677257E+00  0.762760E+00
  0.828782E+00  0.876685E+00  0.909997E+00  0.932440E+00  0.947056E+00  0.956052E+00
  0.960896E+00  0.962421E+00  0.960896E+00  0.956052E+00  0.947056E+00  0.932440E+00
  0.909997E+00  0.876685E+00  0.828782E+00  0.762760E+00  0.682859E+00  0.587415E+00
  0.483640E+00  0.381590E+00  0.290628E+00  0.216781E+00  0.162057E+00  0.125226E+00
  0.103316E+00  0.932804E-01  0.932804E-01  0.103316E+00  0.125226E+00  0.162057E+00
  0.216781E+00  0.290628E+00  0.381590E+00  0.483640E+00  0.587415E+00  0.682859E+00
  0.762760E+00  0.824639E+00  0.869890E+00  0.901650E+00  0.923166E+00  0.937092E+00
  0.945353E+00  0.949183E+00  0.949183E+00  0.945353E+00  0.937092E+00  0.923166E+00
  0.901650E+00  0.869890E+00  0.824639E+00  0.762760E+00  0.677257E+00  0.587415E+00
  0.489555E+00  0.392463E+00  0.304477E+00  0.231293E+00  0.175255E+00  0.135769E+00
  0.110481E+00  0.966659E-01  0.923048E-01  0.966659E-01  0.110481E+00  0.135769E+00
  0.175255E+00  0.231293E+00  0.304477E+00  0.392463E+00  0.489555E+00  0.587415E+00
  0.677257E+00  0.752806E+00  0.811875E+00  0.855590E+00  0.886582E+00  0.907619E+00
  0.921000E+00  0.928375E+00  0.930725E+00  0.928375E+00  0.921000E+00  0.907619E+00
  0.886582E+00  0.855590E+00  0.811875E+00  0.752806E+00  0.677257E+00  0.575505E+00
  0.483640E+00  0.392463E+00  0.309241E+00  0.238988E+00  0.183971E+00  0.143941E+00
  0.116948E+00  0.100574E+00  0.928909E-01  0.928909E-01  0.100574E+00  0.116948E+00
  0.143941E+00  0.183971E+00  0.238988E+00  0.309241E+00  0.392463E+00  0.483640E+00
  0.575505E+00  0.660301E+00  0.732368E+00  0.789514E+00  0.832397E+00  0.863052E+00
  0.883758E+00  0.896443E+00  0.902446E+00  0.902446E+00  0.896443E+00  0.883758E+00
  0.863052E+00  0.832397E+00  0.789514E+00  0.732368E+00  0.660301E+00  0.575505E+00
  0.466115E+00  0.381590E+00  0.304477E+00  0.238988E+00  0.187010E+00  0.148389E+00
  0.121460E+00  0.104008E+00  0.942128E-01  0.910503E-01  0.942128E-01  0.104008E+00
  0.121460E+00  0.148389E+00  0.187010E+00  0.238988E+00  0.304477E+00  0.381590E+00
  0.466115E+00  0.551750E+00  0.631625E+00  0.700534E+00  0.756099E+00  0.798359E+00
  0.828684E+00  0.848811E+00  0.860241E+00  0.863941E+00  0.860241E+00  0.848811E+00
  0.828684E+00  0.798359E+00  0.756099E+00  0.700534E+00  0.631625E+00  0.551750E+00
  0.466115E+00  0.360589E+00  0.290628E+00  0.231293E+00  0.183971E+00  0.148389E+00
  0.123080E+00  0.106027E+00  0.954644E-01  0.903669E-01  0.903669E-01  0.954644E-01
  0.106027E+00  0.123080E+00  0.148389E+00  0.183971E+00  0.231293E+00  0.290628E+00
  0.360589E+00  0.437682E+00  0.516486E+00  0.591005E+00  0.656429E+00  0.710083E+00
  0.751302E+00  0.780730E+00  0.799498E+00  0.808606E+00  0.808606E+00  0.799498E+00
  0.780730E+00  0.751302E+00  0.710083E+00  0.656429E+00  0.591005E+00  0.516486E+00
  0.437682E+00  0.360589E+00  0.269005E+00  0.216781E+00  0.175255E+00  0.143941E+00
  0.121460E+00  0.106027E+00  0.959732E-01  0.902148E-01  0.883211E-01  0.902148E-01
  0.959732E-01  0.106027E+00  0.121460E+00  0.143941E+00  0.175255E+00  0.216781E+00
  0.269005E+00  0.330950E+00  0.399717E+00  0.470762E+00  0.538975E+00  0.599900E+00
  0.650538E+00  0.689542E+00  0.716829E+00  0.732884E+00  0.738177E+00  0.732884E+00
  0.716829E+00  0.689542E+00  0.650538E+00  0.599900E+00  0.538975E+00  0.470762E+00
  0.399717E+00  0.330950E+00  0.269005E+00  0.197159E+00  0.162057E+00  0.135769E+00
  0.116948E+00  0.104008E+00  0.954644E-01  0.902148E-01  0.876797E-01  0.876797E-01
  0.902148E-01  0.954644E-01  0.104008E+00  0.116948E+00  0.135769E+00  0.162057E+00
  0.197159E+00  0.241692E+00  0.294936E+00  0.354538E+00  0.416815E+00  0.477448E+00
  0.532288E+00  0.578122E+00  0.613096E+00  0.636494E+00  0.648185E+00  0.648185E+00
  0.636494E+00  0.613096E+00  0.578122E+00  0.532288E+00  0.477448E+00  0.416815E+00
  0.354538E+00  0.294936E+00  0.241692E+00  0.197159E+00  0.146226E+00  0.125226E+00
  0.110481E+00  0.100574E+00  0.942128E-01  0.903669E-01  0.883211E-01  0.876797E-01
  0.883211E-01  0.903669E-01  0.942128E-01  0.100574E+00  0.110481E+00  0.125226E+00
  0.146226E+00  0.174733E+00  0.211341E+00  0.255519E+00  0.305439E+00  0.358140E+00
  0.409915E+00  0.456937E+00  0.496028E+00  0.525078E+00  0.542904E+00  0.548909E+00
  0.542904E+00  0.525078E+00  0.496028E+00  0.456937E+00  0.409915E+00  0.358140E+00
  0.305439E+00  0.255519E+00  0.211341E+00  0.174733E+00  0.146226E+00  0.113966E+00
  0.103316E+00  0.966659E-01  0.928909E-01  0.910503E-01  0.903669E-01  0.902148E-01
  0.902148E-01  0.903669E-01  0.910503E-01  0.928909E-01  0.966659E-01  0.103316E+00
  0.113966E+00  0.129829E+00  0.151939E+00  0.180788E+00  0.216013E+00  0.256219E+00
  0.298971E+00  0.341058E+00  0.379088E+00  0.410136E+00  0.432040E+00  0.443365E+00
  0.443365E+00  0.432040E+00  0.410136E+00  0.379088E+00  0.341058E+00  0.298971E+00
  0.256219E+00  0.216013E+00  0.180788E+00  0.151939E+00  0.129829E+00  0.113966E+00
  0.966975E-01  0.932804E-01  0.923048E-01  0.928909E-01  0.942128E-01  0.954644E-01
  0.959732E-01  0.954644E-01  0.942128E-01  0.928909E-01  0.923048E-01  0.932804E-01
  0.966975E-01  0.103506E+00  0.114642E+00  0.130867E+00  0.152551E+00  0.179438E+00
  0.210423E+00  0.243483E+00  0.275912E+00  0.304822E+00  0.327607E+00  0.342200E+00
  0.347227E+00  0.342200E+00  0.327607E+00  0.304822E+00  0.275912E+00  0.243483E+00
  0.210423E+00  0.179438E+00  0.152551E+00  0.130867E+00  0.114642E+00  0.103506E+00
  0.966975E-01  0.913308E-01  0.932804E-01  0.966659E-01  0.100574E+00  0.104008E+00
  0.106027E+00  0.106027E+00  0.104008E+00  0.100574E+00  0.966659E-01  0.932804E-01
  0.913308E-01  0.916369E-01  0.949373E-01  0.101879E+00  0.112959E+00  0.128399E+00
  0.147952E+00  0.170709E+00  0.195030E+00  0.218708E+00  0.239303E+00  0.254535E+00
  0.262635E+00  0.262635E+00  0.254535E+00  0.239303E+00  0.218708E+00  0.195030E+00
  0.170709E+00  0.147952E+00  0.128399E+00  0.112959E+00  0.101879E+00  0.949373E-01
  0.916369E-01  0.913308E-01  0.966975E-01  0.103316E+00  0.110481E+00  0.116948E+00
  0.121460E+00  0.123080E+00  0.121460E+00  0.116948E+00  0.110481E+00  0.103316E+00
  0.966975E-01  0.916369E-01  0.888698E-01  0.889275E-01  0.922012E-01  0.989401E-01
  0.109179E+00  0.122620E+00  0.138504E+00  0.155522E+00  0.171861E+00  0.185464E+00
  0.194467E+00  0.197613E+00  0.194467E+00  0.185464E+00  0.171861E+00  0.155522E+00
  0.138504E+00  0.122620E+00  0.109179E+00  0.989401E-01  0.922012E-01  0.889275E-01
  0.888698E-01  0.916369E-01  0.966975E-01  0.113966E+00  0.125226E+00  0.135769E+00
  0.143941E+00  0.148389E+00  0.148389E+00  0.143941E+00  0.135769E+00  0.125226E+00
  0.113966E+00  0.103506E+00  0.949373E-01  0.889275E-01  0.858413E-01  0.858413E-01
  0.889275E-01  0.949373E-01  0.103506E+00  0.113966E+00  0.125226E+00  0.135769E+00
  0.143941E+00  0.148389E+00  0.148389E+00  0.143941E+00  0.135769E+00  0.125226E+00
  0.113966E+00  0.103506E+00  0.949373E-01  0.889275E-01  0.858413E-01  0.858413E-01
  0.889275E-01  0.949373E-01  0.103506E+00  0.113966E+00  0.146226E+00  0.162057E+00
  0.175255E+00  0.183971E+00  0.187010E+00  0.183971E+00  0.175255E+00  0.162057E+00
  0.146226E+00  0.129829E+00  0.114642E+00  0.101879E+00  0.922012E-01  0.858413E-01
  0.827351E-01  0.826370E-01  0.851972E-01  0.899606E-01  0.962713E-01  0.103162E+00
  0.109394E+00  0.113729E+00  0.115279E+00  0.113729E+00  0.109394E+00  0.103162E+00
  0.962713E-01  0.899606E-01  0.851972E-01  0.826370E-01  0.827351E-01  0.858413E-01
  0.922012E-01  0.101879E+00  0.114642E+00  0.129829E+00  0.146226E+00  0.197159E+00
  0.216781E+00  0.231293E+00  0.238988E+00  0.238988E+00  0.231293E+00  0.216781E+00
  0.197159E+00  0.174733E+00  0.151939E+00  0.130867E+00  0.112959E+00  0.989401E-01
  0.889275E-01  0.826370E-01  0.795882E-01  0.792327E-01  0.809746E-01  0.841102E-01
  0.877738E-01  0.909892E-01  0.928661E-01  0.928661E-01  0.909892E-01  0.877738E-01
  0.841102E-01  0.809746E-01  0.792327E-01  0.795882E-01  0.826370E-01  0.889275E-01
  0.989401E-01  0.112959E+00  0.130867E+00  0.151939E+00  0.174733E+00  0.197159E+00
  0.269005E+00  0.290628E+00  0.304477E+00  0.309241E+00  0.304477E+00  0.290628E+00
  0.269005E+00  0.241692E+00  0.211341E+00  0.180788E+00  0.152551E+00  0.128399E+00
  0.109179E+00  0.949373E-01  0.851972E-01  0.792327E-01  0.762502E-01  0.754687E-01
  0.761236E-01  0.774401E-01  0.786511E-01  0.791367E-01  0.786511E-01  0.774401E-01
  0.761236E-01  0.754687E-01  0.762502E-01  0.792327E-01  0.851972E-01  0.949373E-01
  0.109179E+00  0.128399E+00  0.152551E+00  0.180788E+00  0.211341E+00  0.241692E+00
  0.269005E+00  0.360589E+00  0.381590E+00  0.392463E+00  0.392463E+00  0.381590E+00
  0.360589E+00  0.330950E+00  0.294936E+00  0.255519E+00  0.216013E+00  0.179438E+00
  0.147952E+00  0.122620E+00  0.103506E+00  0.899606E-01  0.809746E-01  0.754687E-01
  0.724664E-01  0.711363E-01  0.707651E-01  0.707612E-01  0.707612E-01  0.707651E-01
  0.711363E-01  0.724664E-01  0.754687E-01  0.809746E-01  0.899606E-01  0.103506E+00
  0.122620E+00  0.147952E+00  0.179438E+00  0.216013E+00  0.255519E+00  0.294936E+00
  0.330950E+00  0.360589E+00  0.466115E+00  0.483640E+00  0.489555E+00  0.483640E+00
  0.466115E+00  0.437682E+00  0.399717E+00  0.354538E+00  0.305439E+00  0.256219E+00
  0.210423E+00  0.170709E+00  0.138504E+00  0.113966E+00  0.962713E-01  0.841102E-01
  0.761236E-01  0.711363E-01  0.682293E-01  0.667477E-01  0.662978E-01  0.667477E-01
  0.682293E-01  0.711363E-01  0.761236E-01  0.841102E-01  0.962713E-01  0.113966E+00
  0.138504E+00  0.170709E+00  0.210423E+00  0.256219E+00  0.305439E+00  0.354538E+00
  0.399717E+00  0.437682E+00  0.466115E+00  0.575505E+00  0.587415E+00  0.587415E+00
  0.575505E+00  0.551750E+00  0.516486E+00  0.470762E+00  0.416815E+00  0.358140E+00
  0.298971E+00  0.243483E+00  0.195030E+00  0.155522E+00  0.125226E+00  0.103162E+00
  0.877738E-01  0.774401E-01  0.707651E-01  0.667477E-01  0.648386E-01  0.648386E-01
  0.667477E-01  0.707651E-01  0.774401E-01  0.877738E-01  0.103162E+00  0.125226E+00
  0.155522E+00  0.195030E+00  0.243483E+00  0.298971E+00  0.358140E+00  0.416815E+00
  0.470762E+00  0.516486E+00  0.551750E+00  0.575505E+00  0.677257E+00  0.682859E+00
  0.677257E+00  0.660301E+00  0.631625E+00  0.591005E+00  0.538975E+00  0.477448E+00
  0.409915E+00  0.341058E+00  0.275912E+00  0.218708E+00  0.171861E+00  0.135769E+00
  0.109394E+00  0.909892E-01  0.786511E-01  0.707612E-01  0.662978E-01  0.648386E-01
  0.662978E-01  0.707612E-01  0.786511E-01  0.909892E-01  0.109394E+00  0.135769E+00
  0.171861E+00  0.218708E+00  0.275912E+00  0.341058E+00  0.409915E+00  0.477448E+00
  0.538975E+00  0.591005E+00  0.631625E+00  0.660301E+00  0.677257E+00  0.762760E+00
  0.762760E+00  0.752806E+00  0.732368E+00  0.700534E+00  0.656429E+00  0.599900E+00
  0.532288E+00  0.456937E+00  0.379088E+00  0.304822E+00  0.239303E+00  0.185464E+00
  0.143941E+00  0.113729E+00  0.928661E-01  0.791367E-01  0.707612E-01  0.667477E-01
  0.667477E-01  0.707612E-01  0.791367E-01  0.928661E-01  0.113729E+00  0.143941E+00
  0.185464E+00  0.239303E+00  0.304822E+00  0.379088E+00  0.456937E+00  0.532288E+00
  0.599900E+00  0.656429E+00  0.700534E+00  0.732368E+00  0.752806E+00  0.762760E+00
  0.828782E+00  0.824639E+00  0.811875E+00  0.789514E+00  0.756099E+00  0.710083E+00
  0.650538E+00  0.578122E+00  0.496028E+00  0.410136E+00  0.327607E+00  0.254535E+00
  0.194467E+00  0.148389E+00  0.115279E+00  0.928661E-01  0.786511E-01  0.707651E-01
  0.682293E-01  0.707651E-01  0.786511E-01  0.928661E-01  0.115279E+00  0.148389E+00
  0.194467E+00  0.254535E+00  0.327607E+00  0.410136E+00  0.496028E+00  0.578122E+00
  0.650538E+00  0.710083E+00  0.756099E+00  0.789514E+00  0.811875E+00  0.824639E+00
  0.828782E+00  0.876685E+00  0.869890E+00  0.855590E+00  0.832397E+00  0.798359E+00
  0.751302E+00  0.689542E+00  0.613096E+00  0.525078E+00  0.432040E+00  0.342200E+00
  0.262635E+00  0.197613E+00  0.148389E+00  0.113729E+00  0.909892E-01  0.774401E-01
  0.711363E-01  0.711363E-01  0.774401E-01  0.909892E-01  0.113729E+00  0.148389E+00
  0.197613E+00  0.262635E+00  0.342200E+00  0.432040E+00  0.525078E+00  0.613096E+00
  0.689542E+00  0.751302E+00  0.798359E+00  0.832397E+00  0.855590E+00  0.869890E+00
  0.876685E+00  0.876685E+00  0.909997E+00  0.901650E+00  0.886582E+00  0.863052E+00
  0.828684E+00  0.780730E+00  0.716829E+00  0.636494E+00  0.542904E+00  0.443365E+00
  0.347227E+00  0.262635E+00  0.194467E+00  0.143941E+00  0.109394E+00  0.877738E-01
  0.761236E-01  0.724664E-01  0.761236E-01  0.877738E-01  0.109394E+00  0.143941E+00
  0.194467E+00  0.262635E+00  0.347227E+00  0.443365E+00  0.542904E+00  0.636494E+00
  0.716829E+00  0.780730E+00  0.828684E+00  0.863052E+00  0.886582E+00  0.901650E+00
  0.909997E+00  0.912665E+00  0.909997E+00  0.932440E+00  0.923166E+00  0.907619E+00
  0.883758E+00  0.848811E+00  0.799498E+00  0.732884E+00  0.648185E+00  0.548909E+00
  0.443365E+00  0.342200E+00  0.254535E+00  0.185464E+00  0.135769E+00  0.103162E+00
  0.841102E-01  0.754687E-01  0.754687E-01  0.841102E-01  0.103162E+00  0.135769E+00
  0.185464E+00  0.254535E+00  0.342200E+00  0.443365E+00  0.548909E+00  0.648185E+00
  0.732884E+00  0.799498E+00  0.848811E+00  0.883758E+00  0.907619E+00  0.923166E+00
  0.932440E+00  0.936757E+00  0.936757E+00  0.932440E+00  0.947056E+00  0.937092E+00
  0.921000E+00  0.896443E+00  0.860241E+00  0.808606E+00  0.738177E+00  0.648185E+00
  0.542904E+00  0.432040E+00  0.327607E+00  0.239303E+00  0.171861E+00  0.125226E+00
  0.962713E-01  0.809746E-01  0.762502E-01  0.809746E-01  0.962713E-01  0.125226E+00
  0.171861E+00  0.239303E+00  0.327607E+00  0.432040E+00  0.542904E+00  0.648185E+00
  0.738177E+00  0.808606E+00  0.860241E+00  0.896443E+00  0.921000E+00  0.937092E+00
  0.947056E+00  0.952446E+00  0.954147E+00  0.952446E+00  0.947056E+00  0.956052E+00
  0.945353E+00  0.928375E+00  0.902446E+00  0.863941E+00  0.808606E+00  0.732884E+00
  0.636494E+00  0.525078E+00  0.410136E+00  0.304822E+00  0.218708E+00  0.155522E+00
  0.113966E+00  0.899606E-01  0.792327E-01  0.792327E-01  0.899606E-01  0.113966E+00
  0.155522E+00  0.218708E+00  0.304822E+00  0.410136E+00  0.525078E+00  0.636494E+00
  0.732884E+00  0.808606E+00  0.863941E+00  0.902446E+00  0.928375E+00  0.945353E+00
  0.956052E+00  0.962277E+00  0.965128E+00  0.965128E+00  0.962277E+00  0.956052E+00
  0.960896E+00  0.949183E+00  0.930725E+00  0.902446E+00  0.860241E+00  0.799498E+00
  0.716829E+00  0.613096E+00  0.496028E+00  0.379088E+00  0.275912E+00  0.195030E+00
  0.138504E+00  0.103506E+00  0.851972E-01  0.795882E-01  0.851972E-01  0.103506E+00
  0.138504E+00  0.195030E+00  0.275912E+00  0.379088E+00  0.496028E+00  0.613096E+00
  0.716829E+00  0.799498E+00  0.860241E+00  0.902446E+00  0.930725E+00  0.949183E+00
  0.960896E+00  0.967966E+00  0.971722E+00  0.972897E+00  0.971722E+00  0.967966E+00
  0.960896E+00  0.962421E+00  0.949183E+00  0.928375E+00  0.896443E+00  0.848811E+00
  0.780730E+00  0.689542E+00  0.578122E+00  0.456937E+00  0.341058E+00  0.243483E+00
  0.170709E+00  0.122620E+00  0.949373E-01  0.826370E-01  0.826370E-01  0.949373E-01
  0.122620E+00  0.170709E+00  0.243483E+00  0.341058E+00  0.456937E+00  0.578122E+00
  0.689542E+00  0.780730E+00  0.848811E+00  0.896443E+00  0.928375E+00  0.949183E+00
  0.962421E+00  0.970562E+00  0.975211E+00  0.977315E+00  0.977315E+00  0.975211E+00
  0.970562E+00  0.962421E+00  0.960896E+00  0.945353E+00  0.921000E+00  0.883758E+00
  0.828684E+00  0.751302E+00  0.650538E+00  0.532288E+00  0.409915E+00  0.298971E+00
  0.210423E+00  0.147952E+00  0.109179E+00  0.889275E-01  0.827351E-01  0.889275E-01
  0.109179E+00  0.147952E+00  0.210423E+00  0.298971E+00  0.409915E+00  0.532288E+00
  0.650538E+00  0.751302E+00  0.828684E+00  0.883758E+00  0.921000E+00  0.945353E+00
  0.960896E+00  0.970562E+00  0.976299E+00  0.979310E+00  0.980246E+00  0.979310E+00
  0.976299E+00  0.970562E+00  0.960896E+00  0.956052E+00  0.937092E+00  0.907619E+00
  0.863052E+00  0.798359E+00  0.710083E+00  0.599900E+00  0.477448E+00  0.358140E+00
  0.256219E+00  0.179438E+00  0.128399E+00  0.989401E-01  0.858413E-01  0.858413E-01
  0.989401E-01  0.128399E+00  0.179438E+00  0.256219E+00  0.358140E+00  0.477448E+00
  0.599900E+00  0.710083E+00  0.798359E+00  0.863052E+00  0.907619E+00  0.937092E+00
  0.956052E+00  0.967966E+00  0.975211E+00  0.979310E+00  0.981155E+00  0.981155E+00
  0.979310E+00  0.975211E+00  0.967966E+00  0.956052E+00  0.947056E+00  0.923166E+00
  0.886582E+00  0.832397E+00  0.756099E+00  0.656429E+00  0.538975E+00  0.416815E+00
  0.305439E+00  0.216013E+00  0.152551E+00  0.112959E+00  0.922012E-01  0.858413E-01
  0.922012E-01  0.112959E+00  0.152551E+00  0.216013E+00  0.305439E+00  0.416815E+00
  0.538975E+00  0.656429E+00  0.756099E+00  0.832397E+00  0.886582E+00  0.923166E+00
  0.947056E+00  0.962277E+00  0.971722E+00  0.977315E+00  0.980246E+00  0.981155E+00
  0.980246E+00  0.977315E+00  0.971722E+00  0.962277E+00  0.947056E+00  0.932440E+00
  0.901650E+00  0.855590E+00  0.789514E+00  0.700534E+00  0.591005E+00  0.470762E+00
  0.354538E+00  0.255519E+00  0.180788E+00  0.130867E+00  0.101879E+00  0.889275E-01
  0.889275E-01  0.101879E+00  0.130867E+00  0.180788E+00  0.255519E+00  0.354538E+00
  0.470762E+00  0.591005E+00  0.700534E+00  0.789514E+00  0.855590E+00  0.901650E+00
  0.932440E+00  0.952446E+00  0.965128E+00  0.972897E+00  0.977315E+00  0.979310E+00
  0.979310E+00  0.977315E+00  0.972897E+00  0.965128E+00  0.952446E+00  0.932440E+00
  0.909997E+00  0.869890E+00  0.811875E+00  0.732368E+00  0.631625E+00  0.516486E+00
  0.399717E+00  0.294936E+00  0.211341E+00  0.151939E+00  0.114642E+00  0.949373E-01
  0.888698E-01  0.949373E-01  0.114642E+00  0.151939E+00  0.211341E+00  0.294936E+00
  0.399717E+00  0.516486E+00  0.631625E+00  0.732368E+00  0.811875E+00  0.869890E+00
  0.909997E+00  0.936757E+00  0.954147E+00  0.965128E+00  0.971722E+00  0.975211E+00
  0.976299E+00  0.975211E+00  0.971722E+00  0.965128E+00  0.954147E+00  0.936757E+00
  0.909997E+00  0.876685E+00  0.824639E+00  0.752806E+00  0.660301E+00  0.551750E+00
  0.437682E+00  0.330950E+00  0.241692E+00  0.174733E+00  0.129829E+00  0.103506E+00
  0.916369E-01  0.916369E-01  0.103506E+00  0.129829E+00  0.174733E+00  0.241692E+00
  0.330950E+00  0.437682E+00  0.551750E+00  0.660301E+00  0.752806E+00  0.824639E+00
  0.876685E+00  0.912665E+00  0.936757E+00  0.952446E+00  0.962277E+00  0.967966E+00
  0.970562E+00  0.970562E+00  0.967966E+00  0.962277E+00  0.952446E+00  0.936757E+00
  0.912665E+00  0.876685E+00  0.828782E+00  0.762760E+00  0.677257E+00  0.575505E+00
  0.466115E+00  0.360589E+00  0.269005E+00  0.197159E+00  0.146226E+00  0.113966E+00
  0.966975E-01  0.913308E-01  0.966975E-01  0.113966E+00  0.146226E+00  0.197159E+00
  0.269005E+00  0.360589E+00  0.466115E+00  0.575505E+00  0.677257E+00  0.762760E+00
  0.828782E+00  0.876685E+00  0.909997E+00  0.932440E+00  0.947056E+00  0.956052E+00
  0.960896E+00  0.962421E+00  0.960896E+00  0.956052E+00  0.947056E+00  0.932440E+00
  0.909997E+00  0.876685E+00  0.828782E+00  0.785330E+00  0.712363E+00  0.624232E+00
  0.526112E+00  0.426430E+00  0.334345E+00  0.256807E+00  0.197159E+00  0.155522E+00
  0.129979E+00  0.118040E+00  0.118040E+00  0.129979E+00  0.155522E+00  0.197159E+00
  0.256807E+00  0.334345E+00  0.426430E+00  0.526112E+00  0.624232E+00  0.712363E+00
  0.785330E+00  0.841820E+00  0.883345E+00  0.912663E+00  0.932611E+00  0.945554E+00
  0.953239E+00  0.956802E+00  0.956802E+00  0.953239E+00  0.945554E+00  0.932611E+00
  0.912663E+00  0.883345E+00  0.841820E+00  0.785330E+00  0.712363E+00  0.629920E+00
  0.537909E+00  0.443516E+00  0.354731E+00  0.277980E+00  0.216781E+00  0.171861E+00
  0.142065E+00  0.125397E+00  0.120077E+00  0.125397E+00  0.142065E+00  0.171861E+00
  0.216781E+00  0.277980E+00  0.354731E+00  0.443516E+00  0.537909E+00  0.629920E+00
  0.712363E+00  0.780827E+00  0.834202E+00  0.873792E+00  0.901961E+00  0.921142E+00
  0.933366E+00  0.940107E+00  0.942256E+00  0.940107E+00  0.933366E+00  0.921142E+00
  0.901961E+00  0.873792E+00  0.834202E+00  0.780827E+00  0.712363E+00  0.624232E+00
  0.537909E+00  0.449293E+00  0.365293E+00  0.291536E+00  0.231293E+00  0.185464E+00
  0.153291E+00  0.133230E+00  0.123697E+00  0.123697E+00  0.133230E+00  0.153291E+00
  0.185464E+00  0.231293E+00  0.291536E+00  0.365293E+00  0.449293E+00  0.537909E+00
  0.624232E+00  0.701939E+00  0.767015E+00  0.818294E+00  0.856730E+00  0.884243E+00
  0.902860E+00  0.914279E+00  0.919685E+00  0.919685E+00  0.914279E+00  0.902860E+00
  0.884243E+00  0.856730E+00  0.818294E+00  0.767015E+00  0.701939E+00  0.624232E+00
  0.526112E+00  0.443516E+00  0.365293E+00  0.296196E+00  0.238988E+00  0.194467E+00
  0.161995E+00  0.140247E+00  0.127860E+00  0.123849E+00  0.127860E+00  0.140247E+00
  0.161995E+00  0.194467E+00  0.238988E+00  0.296196E+00  0.365293E+00  0.443516E+00
  0.526112E+00  0.607066E+00  0.680650E+00  0.743026E+00  0.792806E+00  0.830485E+00
  0.857489E+00  0.875418E+00  0.885603E+00  0.888901E+00  0.885603E+00  0.875418E+00
  0.857489E+00  0.830485E+00  0.792806E+00  0.743026E+00  0.680650E+00  0.607066E+00
  0.526112E+00  0.426430E+00  0.354731E+00  0.291536E+00  0.238988E+00  0.197613E+00
  0.166758E+00  0.145151E+00  0.131505E+00  0.124903E+00  0.124903E+00  0.131505E+00
  0.145151E+00  0.166758E+00  0.197613E+00  0.238988E+00  0.291536E+00  0.354731E+00
  0.426430E+00  0.502683E+00  0.578216E+00  0.647787E+00  0.707624E+00  0.755998E+00
  0.792854E+00  0.819070E+00  0.835769E+00  0.843871E+00  0.843871E+00  0.835769E+00
  0.819070E+00  0.792854E+00  0.755998E+00  0.707624E+00  0.647787E+00  0.578216E+00
  0.502683E+00  0.426430E+00  0.334345E+00  0.277980E+00  0.231293E+00  0.194467E+00
  0.166758E+00  0.146918E+00  0.133646E+00  0.125991E+00  0.123481E+00  0.125991E+00
  0.133646E+00  0.146918E+00  0.166758E+00  0.194467E+00  0.231293E+00  0.277980E+00
  0.334345E+00  0.398817E+00  0.468131E+00  0.537707E+00  0.602790E+00  0.659629E+00
  0.706074E+00  0.741465E+00  0.766087E+00  0.780540E+00  0.785300E+00  0.780540E+00
  0.766087E+00  0.741465E+00  0.706074E+00  0.659629E+00  0.602790E+00  0.537707E+00
  0.468131E+00  0.398817E+00  0.334345E+00  0.256807E+00  0.216781E+00  0.185464E+00
  0.161995E+00  0.145151E+00  0.133646E+00  0.126442E+00  0.122944E+00  0.122944E+00
  0.126442E+00  0.133646E+00  0.145151E+00  0.161995E+00  0.185464E+00  0.216781E+00
  0.256807E+00  0.305649E+00  0.362163E+00  0.423688E+00  0.486359E+00  0.545913E+00
  0.598611E+00  0.641901E+00  0.674555E+00  0.696261E+00  0.707074E+00  0.707074E+00
  0.696261E+00  0.674555E+00  0.641901E+00  0.598611E+00  0.545913E+00  0.486359E+00
  0.423688E+00  0.362163E+00  0.305649E+00  0.256807E+00  0.197159E+00  0.171861E+00
  0.153291E+00  0.140247E+00  0.131505E+00  0.125991E+00  0.122944E+00  0.121966E+00
  0.122944E+00  0.125991E+00  0.131505E+00  0.140247E+00  0.153291E+00  0.171861E+00
  0.197159E+00  0.230108E+00  0.270956E+00  0.318864E+00  0.371730E+00  0.426352E+00
  0.478920E+00  0.525774E+00  0.564139E+00  0.592350E+00  0.609557E+00  0.615338E+00
  0.609557E+00  0.592350E+00  0.564139E+00  0.525774E+00  0.478920E+00  0.426352E+00
  0.371730E+00  0.318864E+00  0.270956E+00  0.230108E+00  0.197159E+00  0.155522E+00
  0.142065E+00  0.133230E+00  0.127860E+00  0.124903E+00  0.123481E+00  0.122944E+00
  0.122944E+00  0.123481E+00  0.124903E+00  0.127860E+00  0.133230E+00  0.142065E+00
  0.155522E+00  0.174733E+00  0.200556E+00  0.233257E+00  0.272232E+00  0.315838E+00
  0.361393E+00  0.405504E+00  0.444766E+00  0.476436E+00  0.498600E+00  0.510013E+00
  0.510013E+00  0.498600E+00  0.476436E+00  0.444766E+00  0.405504E+00  0.361393E+00
  0.315838E+00  0.272232E+00  0.233257E+00  0.200556E+00  0.174733E+00  0.155522E+00
  0.129979E+00  0.125397E+00  0.123697E+00  0.123849E+00  0.124903E+00  0.125991E+00
  0.126442E+00  0.125991E+00  0.124903E+00  0.123849E+00  0.123697E+00  0.125397E+00
  0.129979E+00  0.138504E+00  0.151939E+00  0.170971E+00  0.195821E+00  0.226036E+00
  0.260280E+00  0.296263E+00  0.331053E+00  0.361682E+00  0.385618E+00  0.400887E+00
  0.406142E+00  0.400887E+00  0.385618E+00  0.361682E+00  0.331053E+00  0.296263E+00
  0.260280E+00  0.226036E+00  0.195821E+00  0.170971E+00  0.151939E+00  0.138504E+00
  0.129979E+00  0.118040E+00  0.120077E+00  0.123697E+00  0.127860E+00  0.131505E+00
  0.133646E+00  0.133646E+00  0.131505E+00  0.127860E+00  0.123697E+00  0.120077E+00
  0.118040E+00  0.118587E+00  0.122620E+00  0.130867E+00  0.143800E+00  0.161543E+00
  0.183687E+00  0.209087E+00  0.235823E+00  0.261481E+00  0.283574E+00  0.299855E+00
  0.308521E+00  0.308521E+00  0.299855E+00  0.283574E+00  0.261481E+00  0.235823E+00
  0.209087E+00  0.183687E+00  0.161543E+00  0.143800E+00  0.130867E+00  0.122620E+00
  0.118587E+00  0.118040E+00  0.118040E+00  0.125397E+00  0.133230E+00  0.140247E+00
  0.145151E+00  0.146918E+00  0.145151E+00  0.140247E+00  0.133230E+00  0.125397E+00
  0.118040E+00  0.112302E+00  0.109116E+00  0.109179E+00  0.112959E+00  0.120701E+00
  0.132372E+00  0.147533E+00  0.165197E+00  0.183820E+00  0.201467E+00  0.216080E+00
  0.225771E+00  0.229171E+00  0.225771E+00  0.216080E+00  0.201467E+00  0.183820E+00
  0.165197E+00  0.147533E+00  0.132372E+00  0.120701E+00  0.112959E+00  0.109179E+00
  0.109116E+00  0.112302E+00  0.118040E+00  0.129979E+00  0.142065E+00  0.153291E+00
  0.161995E+00  0.166758E+00  0.166758E+00  0.161995E+00  0.153291E+00  0.142065E+00
  0.129979E+00  0.118587E+00  0.109116E+00  0.102404E+00  0.989401E-01  0.989401E-01
  0.102404E+00  0.109116E+00  0.118587E+00  0.129979E+00  0.142065E+00  0.153291E+00
  0.161995E+00  0.166758E+00  0.166758E+00  0.161995E+00  0.153291E+00  0.142065E+00
  0.129979E+00  0.118587E+00  0.109116E+00  0.102404E+00  0.989401E-01  0.989401E-01
  0.102404E+00  0.109116E+00  0.118587E+00  0.129979E+00  0.155522E+00  0.171861E+00
  0.185464E+00  0.194467E+00  0.197613E+00  0.194467E+00  0.185464E+00  0.171861E+00
  0.155522E+00  0.138504E+00  0.122620E+00  0.109179E+00  0.989401E-01  0.922012E-01
  0.889275E-01  0.888698E-01  0.916369E-01  0.966975E-01  0.103316E+00  0.110481E+00
  0.116948E+00  0.121460E+00  0.123080E+00  0.121460E+00  0.116948E+00  0.110481E+00
  0.103316E+00  0.966975E-01  0.916369E-01  0.888698E-01  0.889275E-01  0.922012E-01
  0.989401E-01  0.109179E+00  0.122620E+00  0.138504E+00  0.155522E+00  0.197159E+00
  0.216781E+00  0.231293E+00  0.238988E+00  0.238988E+00  0.231293E+00  0.216781E+00
  0.197159E+00  0.174733E+00  0.151939E+00  0.130867E+00  0.112959E+00  0.989401E-01
  0.889275E-01  0.826370E-01  0.795882E-01  0.792327E-01  0.809746E-01  0.841102E-01
  0.877738E-01  0.909892E-01  0.928661E-01  0.928661E-01  0.909892E-01  0.877738E-01
  0.841102E-01  0.809746E-01  0.792327E-01  0.795882E-01  0.826370E-01  0.889275E-01
  0.989401E-01  0.112959E+00  0.130867E+00  0.151939E+00  0.174733E+00  0.197159E+00
  0.256807E+00  0.277980E+00  0.291536E+00  0.296196E+00  0.291536E+00  0.277980E+00
  0.256807E+00  0.230108E+00  0.200556E+00  0.170971E+00  0.143800E+00  0.120701E+00
  0.102404E+00  0.888698E-01  0.795882E-01  0.738643E-01  0.709773E-01  0.702192E-01
  0.708653E-01  0.721514E-01  0.733228E-01  0.737893E-01  0.733228E-01  0.721514E-01
  0.708653E-01  0.702192E-01  0.709773E-01  0.738643E-01  0.795882E-01  0.888698E-01
  0.102404E+00  0.120701E+00  0.143800E+00  0.170971E+00  0.200556E+00  0.230108E+00
  0.256807E+00  0.334345E+00  0.354731E+00  0.365293E+00  0.365293E+00  0.354731E+00
  0.334345E+00  0.305649E+00  0.270956E+00  0.233257E+00  0.195821E+00  0.161543E+00
  0.132372E+00  0.109116E+00  0.916369E-01  0.792327E-01  0.709773E-01  0.659312E-01
  0.632284E-01  0.620888E-01  0.618185E-01  0.618510E-01  0.618510E-01  0.618185E-01
  0.620888E-01  0.632284E-01  0.659312E-01  0.709773E-01  0.792327E-01  0.916369E-01
  0.109116E+00  0.132372E+00  0.161543E+00  0.195821E+00  0.233257E+00  0.270956E+00
  0.305649E+00  0.334345E+00  0.426430E+00  0.443516E+00  0.449293E+00  0.443516E+00
  0.426430E+00  0.398817E+00  0.362163E+00  0.318864E+00  0.272232E+00  0.226036E+00
  0.183687E+00  0.147533E+00  0.118587E+00  0.966975E-01  0.809746E-01  0.702192E-01
  0.632284E-01  0.589448E-01  0.565142E-01  0.553107E-01  0.549524E-01  0.553107E-01
  0.565142E-01  0.589448E-01  0.632284E-01  0.702192E-01  0.809746E-01  0.966975E-01
  0.118587E+00  0.147533E+00  0.183687E+00  0.226036E+00  0.272232E+00  0.318864E+00
  0.362163E+00  0.398817E+00  0.426430E+00  0.526112E+00  0.537909E+00  0.537909E+00
  0.526112E+00  0.502683E+00  0.468131E+00  0.423688E+00  0.371730E+00  0.315838E+00
  0.260280E+00  0.209087E+00  0.165197E+00  0.129979E+00  0.103316E+00  0.841102E-01
  0.708653E-01  0.620888E-01  0.565142E-01  0.532247E-01  0.516883E-01  0.516883E-01
  0.532247E-01  0.565142E-01  0.620888E-01  0.708653E-01  0.841102E-01  0.103316E+00
  0.129979E+00  0.165197E+00  0.209087E+00  0.260280E+00  0.315838E+00  0.371730E+00
  0.423688E+00  0.468131E+00  0.502683E+00  0.526112E+00  0.624232E+00  0.629920E+00
  0.624232E+00  0.607066E+00  0.578216E+00  0.537707E+00  0.486359E+00  0.426352E+00
  0.361393E+00  0.296263E+00  0.235823E+00  0.183820E+00  0.142065E+00  0.110481E+00
  0.877738E-01  0.721514E-01  0.618185E-01  0.553107E-01  0.516883E-01  0.505171E-01
  0.516883E-01  0.553107E-01  0.618185E-01  0.721514E-01  0.877738E-01  0.110481E+00
  0.142065E+00  0.183820E+00  0.235823E+00  0.296263E+00  0.361393E+00  0.426352E+00
  0.486359E+00  0.537707E+00  0.578216E+00  0.607066E+00  0.624232E+00  0.712363E+00
  0.712363E+00  0.701939E+00  0.680650E+00  0.647787E+00  0.602790E+00  0.545913E+00
  0.478920E+00  0.405504E+00  0.331053E+00  0.261481E+00  0.201467E+00  0.153291E+00
  0.116948E+00  0.909892E-01  0.733228E-01  0.618510E-01  0.549524E-01  0.516883E-01
  0.516883E-01  0.549524E-01  0.618510E-01  0.733228E-01  0.909892E-01  0.116948E+00
  0.153291E+00  0.201467E+00  0.261481E+00  0.331053E+00  0.405504E+00  0.478920E+00
  0.545913E+00  0.602790E+00  0.647787E+00  0.680650E+00  0.701939E+00  0.712363E+00
  0.785330E+00  0.780827E+00  0.767015E+00  0.743026E+00  0.707624E+00  0.659629E+00
  0.598611E+00  0.525774E+00  0.444766E+00  0.361682E+00  0.283574E+00  0.216080E+00
  0.161995E+00  0.121460E+00  0.928661E-01  0.737893E-01  0.618510E-01  0.553107E-01
  0.532247E-01  0.553107E-01  0.618510E-01  0.737893E-01  0.928661E-01  0.121460E+00
  0.161995E+00  0.216080E+00  0.283574E+00  0.361682E+00  0.444766E+00  0.525774E+00
  0.598611E+00  0.659629E+00  0.707624E+00  0.743026E+00  0.767015E+00  0.780827E+00
  0.785330E+00  0.841820E+00  0.834202E+00  0.818294E+00  0.792806E+00  0.755998E+00
  0.706074E+00  0.641901E+00  0.564139E+00  0.476436E+00  0.385618E+00  0.299855E+00
  0.225771E+00  0.166758E+00  0.123080E+00  0.928661E-01  0.733228E-01  0.618185E-01
  0.565142E-01  0.565142E-01  0.618185E-01  0.733228E-01  0.928661E-01  0.123080E+00
  0.166758E+00  0.225771E+00  0.299855E+00  0.385618E+00  0.476436E+00  0.564139E+00
  0.641901E+00  0.706074E+00  0.755998E+00  0.792806E+00  0.818294E+00  0.834202E+00
  0.841820E+00  0.841820E+00  0.883345E+00  0.873792E+00  0.856730E+00  0.830485E+00
  0.792854E+00  0.741465E+00  0.674555E+00  0.592350E+00  0.498600E+00  0.400887E+00
  0.308521E+00  0.229171E+00  0.166758E+00  0.121460E+00  0.909892E-01  0.721514E-01
  0.620888E-01  0.589448E-01  0.620888E-01  0.721514E-01  0.909892E-01  0.121460E+00
  0.166758E+00  0.229171E+00  0.308521E+00  0.400887E+00  0.498600E+00  0.592350E+00
  0.674555E+00  0.741465E+00  0.792854E+00  0.830485E+00  0.856730E+00  0.873792E+00
  0.883345E+00  0.886415E+00  0.883345E+00  0.912663E+00  0.901961E+00  0.884243E+00
  0.857489E+00  0.819070E+00  0.766087E+00  0.696261E+00  0.609557E+00  0.510013E+00
  0.406142E+00  0.308521E+00  0.225771E+00  0.161995E+00  0.116948E+00  0.877738E-01
  0.708653E-01  0.632284E-01  0.632284E-01  0.708653E-01  0.877738E-01  0.116948E+00
  0.161995E+00  0.225771E+00  0.308521E+00  0.406142E+00  0.510013E+00  0.609557E+00
  0.696261E+00  0.766087E+00  0.819070E+00  0.857489E+00  0.884243E+00  0.901961E+00
  0.912663E+00  0.917684E+00  0.917684E+00  0.912663E+00  0.932611E+00  0.921142E+00
  0.902860E+00  0.875418E+00  0.835769E+00  0.780540E+00  0.707074E+00  0.615338E+00
  0.510013E+00  0.400887E+00  0.299855E+00  0.216080E+00  0.153291E+00  0.110481E+00
  0.841102E-01  0.702192E-01  0.659312E-01  0.702192E-01  0.841102E-01  0.110481E+00
  0.153291E+00  0.216080E+00  0.299855E+00  0.400887E+00  0.510013E+00  0.615338E+00
  0.707074E+00  0.780540E+00  0.835769E+00  0.875418E+00  0.902860E+00  0.921142E+00
  0.932611E+00  0.938876E+00  0.940864E+00  0.938876E+00  0.932611E+00  0.945554E+00
  0.933366E+00  0.914279E+00  0.885603E+00  0.843871E+00  0.785300E+00  0.707074E+00
  0.609557E+00  0.498600E+00  0.385618E+00  0.283574E+00  0.201467E+00  0.142065E+00
  0.103316E+00  0.809746E-01  0.709773E-01  0.709773E-01  0.809746E-01  0.103316E+00
  0.142065E+00  0.201467E+00  0.283574E+00  0.385618E+00  0.498600E+00  0.609557E+00
  0.707074E+00  0.785300E+00  0.843871E+00  0.885603E+00  0.914279E+00  0.933366E+00
  0.945554E+00  0.952720E+00  0.956025E+00  0.956025E+00  0.952720E+00  0.945554E+00
  0.953239E+00  0.940107E+00  0.919685E+00  0.888901E+00  0.843871E+00  0.780540E+00
  0.696261E+00  0.592350E+00  0.476436E+00  0.361682E+00  0.261481E+00  0.183820E+00
  0.129979E+00  0.966975E-01  0.792327E-01  0.738643E-01  0.792327E-01  0.966975E-01
  0.129979E+00  0.183820E+00  0.261481E+00  0.361682E+00  0.476436E+00  0.592350E+00
  0.696261E+00  0.780540E+00  0.843871E+00  0.888901E+00  0.919685E+00  0.940107E+00
  0.953239E+00  0.961250E+00  0.965541E+00  0.966889E+00  0.965541E+00  0.961250E+00
  0.953239E+00  0.956802E+00  0.942256E+00  0.919685E+00  0.885603E+00  0.835769E+00
  0.766087E+00  0.674555E+00  0.564139E+00  0.444766E+00  0.331053E+00  0.235823E+00
  0.165197E+00  0.118587E+00  0.916369E-01  0.795882E-01  0.795882E-01  0.916369E-01
  0.118587E+00  0.165197E+00  0.235823E+00  0.331053E+00  0.444766E+00  0.564139E+00
  0.674555E+00  0.766087E+00  0.835769E+00  0.885603E+00  0.919685E+00  0.942256E+00
  0.956802E+00  0.965842E+00  0.971048E+00  0.973419E+00  0.973419E+00  0.971048E+00
  0.965842E+00  0.956802E+00  0.956802E+00  0.940107E+00  0.914279E+00  0.875418E+00
  0.819070E+00  0.741465E+00  0.641901E+00  0.525774E+00  0.405504E+00  0.296263E+00
  0.209087E+00  0.147533E+00  0.109116E+00  0.888698E-01  0.826370E-01  0.888698E-01
  0.109116E+00  0.147533E+00  0.209087E+00  0.296263E+00  0.405504E+00  0.525774E+00
  0.641901E+00  0.741465E+00  0.819070E+00  0.875418E+00  0.914279E+00  0.940107E+00
  0.956802E+00  0.967287E+00  0.973561E+00  0.976874E+00  0.977906E+00  0.976874E+00
  0.973561E+00  0.967287E+00  0.956802E+00  0.953239E+00  0.933366E+00  0.902860E+00
  0.857489E+00  0.792854E+00  0.706074E+00  0.598611E+00  0.478920E+00  0.361393E+00
  0.260280E+00  0.183687E+00  0.132372E+00  0.102404E+00  0.889275E-01  0.889275E-01
  0.102404E+00  0.132372E+00  0.183687E+00  0.260280E+00  0.361393E+00  0.478920E+00
  0.598611E+00  0.706074E+00  0.792854E+00  0.857489E+00  0.902860E+00  0.933366E+00
  0.953239E+00  0.965842E+00  0.973561E+00  0.977951E+00  0.979933E+00  0.979933E+00
  0.977951E+00  0.973561E+00  0.965842E+00  0.953239E+00  0.945554E+00  0.921142E+00
  0.884243E+00  0.830485E+00  0.755998E+00  0.659629E+00  0.545913E+00  0.426352E+00
  0.315838E+00  0.226036E+00  0.161543E+00  0.120701E+00  0.989401E-01  0.922012E-01
  0.989401E-01  0.120701E+00  0.161543E+00  0.226036E+00  0.315838E+00  0.426352E+00
  0.545913E+00  0.659629E+00  0.755998E+00  0.830485E+00  0.884243E+00  0.921142E+00
  0.945554E+00  0.961250E+00  0.971048E+00  0.976874E+00  0.979933E+00  0.980884E+00
  0.979933E+00  0.976874E+00  0.971048E+00  0.961250E+00  0.945554E+00  0.932611E+00
  0.901961E+00  0.856730E+00  0.792806E+00  0.707624E+00  0.602790E+00  0.486359E+00
  0.371730E+00  0.272232E+00  0.195821E+00  0.143800E+00  0.112959E+00  0.989401E-01
  0.989401E-01  0.112959E+00  0.143800E+00  0.195821E+00  0.272232E+00  0.371730E+00
  0.486359E+00  0.602790E+00  0.707624E+00  0.792806E+00  0.856730E+00  0.901961E+00
  0.932611E+00  0.952720E+00  0.965541E+00  0.973419E+00  0.977906E+00  0.979933E+00
  0.979933E+00  0.977906E+00  0.973419E+00  0.965541E+00  0.952720E+00  0.932611E+00
  0.912663E+00  0.873792E+00  0.818294E+00  0.743026E+00  0.647787E+00  0.537707E+00
  0.423688E+00  0.318864E+00  0.233257E+00  0.170971E+00  0.130867E+00  0.109179E+00
  0.102404E+00  0.109179E+00  0.130867E+00  0.170971E+00  0.233257E+00  0.318864E+00
  0.423688E+00  0.537707E+00  0.647787E+00  0.743026E+00  0.818294E+00  0.873792E+00
  0.912663E+00  0.938876E+00  0.956025E+00  0.966889E+00  0.973419E+00  0.976874E+00
  0.977951E+00  0.976874E+00  0.973419E+00  0.966889E+00  0.956025E+00  0.938876E+00
  0.912663E+00  0.883345E+00  0.834202E+00  0.767015E+00  0.680650E+00  0.578216E+00
  0.468131E+00  0.362163E+00  0.270956E+00  0.200556E+00  0.151939E+00  0.122620E+00
  0.109116E+00  0.109116E+00  0.122620E+00  0.151939E+00  0.200556E+00  0.270956E+00
  0.362163E+00  0.468131E+00  0.578216E+00  0.680650E+00  0.767015E+00  0.834202E+00
  0.883345E+00  0.917684E+00  0.940864E+00  0.956025E+00  0.965541E+00  0.971048E+00
  0.973561E+00  0.973561E+00  0.971048E+00  0.965541E+00  0.956025E+00  0.940864E+00
  0.917684E+00  0.883345E+00  0.841820E+00  0.780827E+00  0.701939E+00  0.607066E+00
  0.502683E+00  0.398817E+00  0.305649E+00  0.230108E+00  0.174733E+00  0.138504E+00
  0.118587E+00  0.112302E+00  0.118587E+00  0.138504E+00  0.174733E+00  0.230108E+00
  0.305649E+00  0.398817E+00  0.502683E+00  0.607066E+00  0.701939E+00  0.780827E+00
  0.841820E+00  0.886415E+00  0.917684E+00  0.938876E+00  0.952720E+00  0.961250E+00
  0.965842E+00  0.967287E+00  0.965842E+00  0.961250E+00  0.952720E+00  0.938876E+00
  0.917684E+00  0.886415E+00  0.841820E+00  0.785330E+00  0.712363E+00  0.624232E+00
  0.526112E+00  0.426430E+00  0.334345E+00  0.256807E+00  0.197159E+00  0.155522E+00
  0.129979E+00  0.118040E+00  0.118040E+00  0.129979E+00  0.155522E+00  0.197159E+00
  0.256807E+00  0.334345E+00  0.426430E+00  0.526112E+00  0.624232E+00  0.712363E+00
  0.785330E+00  0.841820E+00  0.883345E+00  0.912663E+00  0.932611E+00  0.945554E+00
  0.953239E+00  0.956802E+00  0.956802E+00  0.953239E+00  0.945554E+00  0.932611E+00
  0.912663E+00  0.883345E+00  0.841820E+00  0.785330E+00  0.741358E+00  0.668868E+00
  0.586439E+00  0.498783E+00  0.412515E+00  0.334345E+00  0.269005E+00  0.218708E+00
  0.183820E+00  0.163607E+00  0.157029E+00  0.163607E+00  0.183820E+00  0.218708E+00
  0.269005E+00  0.334345E+00  0.412515E+00  0.498783E+00  0.586439E+00  0.668868E+00
  0.741358E+00  0.801535E+00  0.849008E+00  0.884808E+00  0.910708E+00  0.928605E+00
  0.940147E+00  0.946565E+00  0.948619E+00  0.946565E+00  0.940147E+00  0.928605E+00
  0.910708E+00  0.884808E+00  0.849008E+00  0.801535E+00  0.741358E+00  0.668868E+00
  0.592139E+00  0.510487E+00  0.429436E+00  0.354731E+00  0.290628E+00  0.239303E+00
  0.201467E+00  0.176953E+00  0.165035E+00  0.165035E+00  0.176953E+00  0.201467E+00
  0.239303E+00  0.290628E+00  0.354731E+00  0.429436E+00  0.510487E+00  0.592139E+00
  0.668868E+00  0.736650E+00  0.793306E+00  0.838351E+00  0.872569E+00  0.897403E+00
  0.914412E+00  0.924940E+00  0.929953E+00  0.929953E+00  0.924940E+00  0.914412E+00
  0.897403E+00  0.872569E+00  0.838351E+00  0.793306E+00  0.736650E+00  0.668868E+00
  0.586439E+00  0.510487E+00  0.435163E+00  0.365293E+00  0.304477E+00  0.254535E+00
  0.216080E+00  0.189184E+00  0.173487E+00  0.168361E+00  0.173487E+00  0.189184E+00
  0.216080E+00  0.254535E+00  0.304477E+00  0.365293E+00  0.435163E+00  0.510487E+00
  0.586439E+00  0.658266E+00  0.722272E+00  0.776261E+00  0.819558E+00  0.852646E+00
  0.876614E+00  0.892673E+00  0.901853E+00  0.904834E+00  0.901853E+00  0.892673E+00
  0.876614E+00  0.852646E+00  0.819558E+00  0.776261E+00  0.722272E+00  0.658266E+00
  0.586439E+00  0.498783E+00  0.429436E+00  0.365293E+00  0.309241E+00  0.262635E+00
  0.225771E+00  0.198609E+00  0.180953E+00  0.172350E+00  0.172350E+00  0.180953E+00
  0.198609E+00  0.225771E+00  0.262635E+00  0.309241E+00  0.365293E+00  0.429436E+00
  0.498783E+00  0.569300E+00  0.636737E+00  0.697512E+00  0.749298E+00  0.791153E+00
  0.823206E+00  0.846161E+00  0.860867E+00  0.868026E+00  0.868026E+00  0.860867E+00
  0.846161E+00  0.823206E+00  0.791153E+00  0.749298E+00  0.697512E+00  0.636737E+00
  0.569300E+00  0.498783E+00  0.412515E+00  0.354731E+00  0.304477E+00  0.262635E+00
  0.229171E+00  0.203763E+00  0.186104E+00  0.175818E+00  0.172460E+00  0.175818E+00
  0.186104E+00  0.203763E+00  0.229171E+00  0.262635E+00  0.304477E+00  0.354731E+00
  0.412515E+00  0.475622E+00  0.540677E+00  0.603784E+00  0.661396E+00  0.710989E+00
  0.751277E+00  0.781976E+00  0.803384E+00  0.815975E+00  0.820125E+00  0.815975E+00
  0.803384E+00  0.781976E+00  0.751277E+00  0.710989E+00  0.661396E+00  0.603784E+00
  0.540677E+00  0.475622E+00  0.412515E+00  0.334345E+00  0.290628E+00  0.254535E+00
  0.225771E+00  0.203763E+00  0.187947E+00  0.177818E+00  0.172910E+00  0.172910E+00
  0.177818E+00  0.187947E+00  0.203763E+00  0.225771E+00  0.254535E+00  0.290628E+00
  0.334345E+00  0.385222E+00  0.441640E+00  0.500785E+00  0.559099E+00  0.613075E+00
  0.659954E+00  0.698049E+00  0.726635E+00  0.745591E+00  0.755020E+00  0.755020E+00
  0.745591E+00  0.726635E+00  0.698049E+00  0.659954E+00  0.613075E+00  0.559099E+00
  0.500785E+00  0.441640E+00  0.385222E+00  0.334345E+00  0.269005E+00  0.239303E+00
  0.216080E+00  0.198609E+00  0.186104E+00  0.177818E+00  0.173124E+00  0.171608E+00
  0.173124E+00  0.177818E+00  0.186104E+00  0.198609E+00  0.216080E+00  0.239303E+00
  0.269005E+00  0.305649E+00  0.349086E+00  0.398166E+00  0.450587E+00  0.503166E+00
  0.552474E+00  0.595540E+00  0.630305E+00  0.655630E+00  0.670979E+00  0.676119E+00
  0.670979E+00  0.655630E+00  0.630305E+00  0.595540E+00  0.552474E+00  0.503166E+00
  0.450587E+00  0.398166E+00  0.349086E+00  0.305649E+00  0.269005E+00  0.218708E+00
  0.201467E+00  0.189184E+00  0.180953E+00  0.175818E+00  0.172910E+00  0.171608E+00
  0.171608E+00  0.172910E+00  0.175818E+00  0.180953E+00  0.189184E+00  0.201467E+00
  0.218708E+00  0.241692E+00  0.270956E+00  0.306530E+00  0.347614E+00  0.392362E+00
  0.437967E+00  0.481145E+00  0.518853E+00  0.548807E+00  0.569526E+00  0.580113E+00
  0.580113E+00  0.569526E+00  0.548807E+00  0.518853E+00  0.481145E+00  0.437967E+00
  0.392362E+00  0.347614E+00  0.306530E+00  0.270956E+00  0.241692E+00  0.218708E+00
  0.183820E+00  0.176953E+00  0.173487E+00  0.172350E+00  0.172460E+00  0.172910E+00
  0.173124E+00  0.172910E+00  0.172460E+00  0.172350E+00  0.173487E+00  0.176953E+00
  0.183820E+00  0.195030E+00  0.211341E+00  0.233257E+00  0.260869E+00  0.293597E+00
  0.329933E+00  0.367405E+00  0.402996E+00  0.433817E+00  0.457556E+00  0.472532E+00
  0.477656E+00  0.472532E+00  0.457556E+00  0.433817E+00  0.402996E+00  0.367405E+00
  0.329933E+00  0.293597E+00  0.260869E+00  0.233257E+00  0.211341E+00  0.195030E+00
  0.183820E+00  0.163607E+00  0.165035E+00  0.168361E+00  0.172350E+00  0.175818E+00
  0.177818E+00  0.177818E+00  0.175818E+00  0.172350E+00  0.168361E+00  0.165035E+00
  0.163607E+00  0.165197E+00  0.170709E+00  0.180788E+00  0.195821E+00  0.215859E+00
  0.240401E+00  0.268136E+00  0.296914E+00  0.324121E+00  0.347211E+00  0.364024E+00
  0.372906E+00  0.372906E+00  0.364024E+00  0.347211E+00  0.324121E+00  0.296914E+00
  0.268136E+00  0.240401E+00  0.215859E+00  0.195821E+00  0.180788E+00  0.170709E+00
  0.165197E+00  0.163607E+00  0.157029E+00  0.165035E+00  0.173487E+00  0.180953E+00
  0.186104E+00  0.187947E+00  0.186104E+00  0.180953E+00  0.173487E+00  0.165035E+00
  0.157029E+00  0.150822E+00  0.147533E+00  0.147952E+00  0.152551E+00  0.161543E+00
  0.174852E+00  0.191940E+00  0.211619E+00  0.232079E+00  0.251185E+00  0.266818E+00
  0.277114E+00  0.280716E+00  0.277114E+00  0.266818E+00  0.251185E+00  0.232079E+00
  0.211619E+00  0.191940E+00  0.174852E+00  0.161543E+00  0.152551E+00  0.147952E+00
  0.147533E+00  0.150822E+00  0.157029E+00  0.163607E+00  0.176953E+00  0.189184E+00
  0.198609E+00  0.203763E+00  0.203763E+00  0.198609E+00  0.189184E+00  0.176953E+00
  0.163607E+00  0.150822E+00  0.140055E+00  0.132372E+00  0.128399E+00  0.128399E+00
  0.132372E+00  0.140055E+00  0.150822E+00  0.163607E+00  0.176953E+00  0.189184E+00
  0.198609E+00  0.203763E+00  0.203763E+00  0.198609E+00  0.189184E+00  0.176953E+00
  0.163607E+00  0.150822E+00  0.140055E+00  0.132372E+00  0.128399E+00  0.128399E+00
  0.132372E+00  0.140055E+00  0.150822E+00  0.163607E+00  0.183820E+00  0.201467E+00
  0.216080E+00  0.225771E+00  0.229171E+00  0.225771E+00  0.216080E+00  0.201467E+00
  0.183820E+00  0.165197E+00  0.147533E+00  0.132372E+00  0.120701E+00  0.112959E+00
  0.109179E+00  0.109116E+00  0.112302E+00  0.118040E+00  0.125397E+00  0.133230E+00
  0.140247E+00  0.145151E+00  0.146918E+00  0.145151E+00  0.140247E+00  0.133230E+00
  0.125397E+00  0.118040E+00  0.112302E+00  0.109116E+00  0.109179E+00  0.112959E+00
  0.120701E+00  0.132372E+00  0.147533E+00  0.165197E+00  0.183820E+00  0.218708E+00
  0.239303E+00  0.254535E+00  0.262635E+00  0.262635E+00  0.254535E+00  0.239303E+00
  0.218708E+00  0.195030E+00  0.170709E+00  0.147952E+00  0.128399E+00  0.112959E+00
  0.101879E+00  0.949373E-01  0.916369E-01  0.913308E-01  0.932804E-01  0.966659E-01
  0.100574E+00  0.104008E+00  0.106027E+00  0.106027E+00  0.104008E+00  0.100574E+00
  0.966659E-01  0.932804E-01  0.913308E-01  0.916369E-01  0.949373E-01  0.101879E+00
  0.112959E+00  0.128399E+00  0.147952E+00  0.170709E+00  0.195030E+00  0.218708E+00
  0.269005E+00  0.290628E+00  0.304477E+00  0.309241E+00  0.304477E+00  0.290628E+00
  0.269005E+00  0.241692E+00  0.211341E+00  0.180788E+00  0.152551E+00  0.128399E+00
  0.109179E+00  0.949373E-01  0.851972E-01  0.792327E-01  0.762502E-01  0.754687E-01
  0.761236E-01  0.774401E-01  0.786511E-01  0.791367E-01  0.786511E-01  0.774401E-01
  0.761236E-01  0.754687E-01  0.762502E-01  0.792327E-01  0.851972E-01  0.949373E-01
  0.109179E+00  0.128399E+00  0.152551E+00  0.180788E+00  0.211341E+00  0.241692E+00
  0.269005E+00  0.334345E+00  0.354731E+00  0.365293E+00  0.365293E+00  0.354731E+00
  0.334345E+00  0.305649E+00  0.270956E+00  0.233257E+00  0.195821E+00  0.161543E+00
  0.132372E+00  0.109116E+00  0.916369E-01  0.792327E-01  0.709773E-01  0.659312E-01
  0.632284E-01  0.620888E-01  0.618185E-01  0.618510E-01  0.618510E-01  0.618185E-01
  0.620888E-01  0.632284E-01  0.659312E-01  0.709773E-01  0.792327E-01  0.916369E-01
  0.109116E+00  0.132372E+00  0.161543E+00  0.195821E+00  0.233257E+00  0.270956E+00
  0.305649E+00  0.334345E+00  0.412515E+00  0.429436E+00  0.435163E+00  0.429436E+00
  0.412515E+00  0.385222E+00  0.349086E+00  0.306530E+00  0.260869E+00  0.215859E+00
  0.174852E+00  0.140055E+00  0.112302E+00  0.913308E-01  0.762502E-01  0.659312E-01
  0.592448E-01  0.551780E-01  0.528940E-01  0.517735E-01  0.514414E-01  0.517735E-01
  0.528940E-01  0.551780E-01  0.592448E-01  0.659312E-01  0.762502E-01  0.913308E-01
  0.112302E+00  0.140055E+00  0.174852E+00  0.215859E+00  0.260869E+00  0.306530E+00
  0.349086E+00  0.385222E+00  0.412515E+00  0.498783E+00  0.510487E+00  0.510487E+00
  0.498783E+00  0.475622E+00  0.441640E+00  0.398166E+00  0.347614E+00  0.293597E+00
  0.240401E+00  0.191940E+00  0.150822E+00  0.118040E+00  0.932804E-01  0.754687E-01
  0.632284E-01  0.551780E-01  0.501219E-01  0.471758E-01  0.458132E-01  0.458132E-01
  0.471758E-01  0.501219E-01  0.551780E-01  0.632284E-01  0.754687E-01  0.932804E-01
  0.118040E+00  0.150822E+00  0.191940E+00  0.240401E+00  0.293597E+00  0.347614E+00
  0.398166E+00  0.441640E+00  0.475622E+00  0.498783E+00  0.586439E+00  0.592139E+00
  0.586439E+00  0.569300E+00  0.540677E+00  0.500785E+00  0.450587E+00  0.392362E+00
  0.329933E+00  0.268136E+00  0.211619E+00  0.163607E+00  0.125397E+00  0.966659E-01
  0.761236E-01  0.620888E-01  0.528940E-01  0.471758E-01  0.440359E-01  0.430300E-01
  0.440359E-01  0.471758E-01  0.528940E-01  0.620888E-01  0.761236E-01  0.966659E-01
  0.125397E+00  0.163607E+00  0.211619E+00  0.268136E+00  0.329933E+00  0.392362E+00
  0.450587E+00  0.500785E+00  0.540677E+00  0.569300E+00  0.586439E+00  0.668868E+00
  0.668868E+00  0.658266E+00  0.636737E+00  0.603784E+00  0.559099E+00  0.503166E+00
  0.437967E+00  0.367405E+00  0.296914E+00  0.232079E+00  0.176953E+00  0.133230E+00
  0.100574E+00  0.774401E-01  0.618185E-01  0.517735E-01  0.458132E-01  0.430300E-01
  0.430300E-01  0.458132E-01  0.517735E-01  0.618185E-01  0.774401E-01  0.100574E+00
  0.133230E+00  0.176953E+00  0.232079E+00  0.296914E+00  0.367405E+00  0.437967E+00
  0.503166E+00  0.559099E+00  0.603784E+00  0.636737E+00  0.658266E+00  0.668868E+00
  0.741358E+00  0.736650E+00  0.722272E+00  0.697512E+00  0.661396E+00  0.613075E+00
  0.552474E+00  0.481145E+00  0.402996E+00  0.324121E+00  0.251185E+00  0.189184E+00
  0.140247E+00  0.104008E+00  0.786511E-01  0.618510E-01  0.514414E-01  0.458132E-01
  0.440359E-01  0.458132E-01  0.514414E-01  0.618510E-01  0.786511E-01  0.104008E+00
  0.140247E+00  0.189184E+00  0.251185E+00  0.324121E+00  0.402996E+00  0.481145E+00
  0.552474E+00  0.613075E+00  0.661396E+00  0.697512E+00  0.722272E+00  0.736650E+00
  0.741358E+00  0.801535E+00  0.793306E+00  0.776261E+00  0.749298E+00  0.710989E+00
  0.659954E+00  0.595540E+00  0.518853E+00  0.433817E+00  0.347211E+00  0.266818E+00
  0.198609E+00  0.145151E+00  0.106027E+00  0.791367E-01  0.618510E-01  0.517735E-01
  0.471758E-01  0.471758E-01  0.517735E-01  0.618510E-01  0.791367E-01  0.106027E+00
  0.145151E+00  0.198609E+00  0.266818E+00  0.347211E+00  0.433817E+00  0.518853E+00
  0.595540E+00  0.659954E+00  0.710989E+00  0.749298E+00  0.776261E+00  0.793306E+00
  0.801535E+00  0.801535E+00  0.849008E+00  0.838351E+00  0.819558E+00  0.791153E+00
  0.751277E+00  0.698049E+00  0.630305E+00  0.548807E+00  0.457556E+00  0.364024E+00
  0.277114E+00  0.203763E+00  0.146918E+00  0.106027E+00  0.786511E-01  0.618185E-01
  0.528940E-01  0.501219E-01  0.528940E-01  0.618185E-01  0.786511E-01  0.106027E+00
  0.146918E+00  0.203763E+00  0.277114E+00  0.364024E+00  0.457556E+00  0.548807E+00
  0.630305E+00  0.698049E+00  0.751277E+00  0.791153E+00  0.819558E+00  0.838351E+00
  0.849008E+00  0.852456E+00  0.849008E+00  0.884808E+00  0.872569E+00  0.852646E+00
  0.823206E+00  0.781976E+00  0.726635E+00  0.655630E+00  0.569526E+00  0.472532E+00
  0.372906E+00  0.280716E+00  0.203763E+00  0.145151E+00  0.104008E+00  0.774401E-01
  0.620888E-01  0.551780E-01  0.551780E-01  0.620888E-01  0.774401E-01  0.104008E+00
  0.145151E+00  0.203763E+00  0.280716E+00  0.372906E+00  0.472532E+00  0.569526E+00
  0.655630E+00  0.726635E+00  0.781976E+00  0.823206E+00  0.852646E+00  0.872569E+00
  0.884808E+00  0.890613E+00  0.890613E+00  0.884808E+00  0.910708E+00  0.897403E+00
  0.876614E+00  0.846161E+00  0.803384E+00  0.745591E+00  0.670979E+00  0.580113E+00
  0.477656E+00  0.372906E+00  0.277114E+00  0.198609E+00  0.140247E+00  0.100574E+00
  0.761236E-01  0.632284E-01  0.592448E-01  0.632284E-01  0.761236E-01  0.100574E+00
  0.140247E+00  0.198609E+00  0.277114E+00  0.372906E+00  0.477656E+00  0.580113E+00
  0.670979E+00  0.745591E+00  0.803384E+00  0.846161E+00  0.876614E+00  0.897403E+00
  0.910708E+00  0.918080E+00  0.920437E+00  0.918080E+00  0.910708E+00  0.928605E+00
  0.914412E+00  0.892673E+00  0.860867E+00  0.815975E+00  0.755020E+00  0.676119E+00
  0.580113E+00  0.472532E+00  0.364024E+00  0.266818E+00  0.189184E+00  0.133230E+00
  0.966659E-01  0.754687E-01  0.659312E-01  0.659312E-01  0.754687E-01  0.966659E-01
  0.133230E+00  0.189184E+00  0.266818E+00  0.364024E+00  0.472532E+00  0.580113E+00
  0.676119E+00  0.755020E+00  0.815975E+00  0.860867E+00  0.892673E+00  0.914412E+00
  0.928605E+00  0.937093E+00  0.941053E+00  0.941053E+00  0.937093E+00  0.928605E+00
  0.940147E+00  0.924940E+00  0.901853E+00  0.868026E+00  0.820125E+00  0.755020E+00
  0.670979E+00  0.569526E+00  0.457556E+00  0.347211E+00  0.251185E+00  0.176953E+00
  0.125397E+00  0.932804E-01  0.762502E-01  0.709773E-01  0.762502E-01  0.932804E-01
  0.125397E+00  0.176953E+00  0.251185E+00  0.347211E+00  0.457556E+00  0.569526E+00
  0.670979E+00  0.755020E+00  0.820125E+00  0.868026E+00  0.901853E+00  0.924940E+00
  0.940147E+00  0.949607E+00  0.954747E+00  0.956374E+00  0.954747E+00  0.949607E+00
  0.940147E+00  0.946565E+00  0.929953E+00  0.904834E+00  0.868026E+00  0.815975E+00
  0.745591E+00  0.655630E+00  0.548807E+00  0.433817E+00  0.324121E+00  0.232079E+00
  0.163607E+00  0.118040E+00  0.913308E-01  0.792327E-01  0.792327E-01  0.913308E-01
  0.118040E+00  0.163607E+00  0.232079E+00  0.324121E+00  0.433817E+00  0.548807E+00
  0.655630E+00  0.745591E+00  0.815975E+00  0.868026E+00  0.904834E+00  0.929953E+00
  0.946565E+00  0.957117E+00  0.963297E+00  0.966141E+00  0.966141E+00  0.963297E+00
  0.957117E+00  0.946565E+00  0.948619E+00  0.929953E+00  0.901853E+00  0.860867E+00
  0.803384E+00  0.726635E+00  0.630305E+00  0.518853E+00  0.402996E+00  0.296914E+00
  0.211619E+00  0.150822E+00  0.112302E+00  0.916369E-01  0.851972E-01  0.916369E-01
  0.112302E+00  0.150822E+00  0.211619E+00  0.296914E+00  0.402996E+00  0.518853E+00
  0.630305E+00  0.726635E+00  0.803384E+00  0.860867E+00  0.901853E+00  0.929953E+00
  0.948619E+00  0.960622E+00  0.967940E+00  0.971857E+00  0.973086E+00  0.971857E+00
  0.967940E+00  0.960622E+00  0.948619E+00  0.946565E+00  0.924940E+00  0.892673E+00
  0.846161E+00  0.781976E+00  0.698049E+00  0.595540E+00  0.481145E+00  0.367405E+00
  0.268136E+00  0.191940E+00  0.140055E+00  0.109116E+00  0.949373E-01  0.949373E-01
  0.109116E+00  0.140055E+00  0.191940E+00  0.268136E+00  0.367405E+00  0.481145E+00
  0.595540E+00  0.698049E+00  0.781976E+00  0.846161E+00  0.892673E+00  0.924940E+00
  0.946565E+00  0.960622E+00  0.969408E+00  0.974481E+00  0.976792E+00  0.976792E+00
  0.974481E+00  0.969408E+00  0.960622E+00  0.946565E+00  0.940147E+00  0.914412E+00
  0.876614E+00  0.823206E+00  0.751277E+00  0.659954E+00  0.552474E+00  0.437967E+00
  0.329933E+00  0.240401E+00  0.174852E+00  0.132372E+00  0.109179E+00  0.101879E+00
  0.109179E+00  0.132372E+00  0.174852E+00  0.240401E+00  0.329933E+00  0.437967E+00
  0.552474E+00  0.659954E+00  0.751277E+00  0.823206E+00  0.876614E+00  0.914412E+00
  0.940147E+00  0.957117E+00  0.967940E+00  0.974481E+00  0.977953E+00  0.979037E+00
  0.977953E+00  0.974481E+00  0.967940E+00  0.957117E+00  0.940147E+00  0.928605E+00
  0.897403E+00  0.852646E+00  0.791153E+00  0.710989E+00  0.613075E+00  0.503166E+00
  0.392362E+00  0.293597E+00  0.215859E+00  0.161543E+00  0.128399E+00  0.112959E+00
  0.112959E+00  0.128399E+00  0.161543E+00  0.215859E+00  0.293597E+00  0.392362E+00
  0.503166E+00  0.613075E+00  0.710989E+00  0.791153E+00  0.852646E+00  0.897403E+00
  0.928605E+00  0.949607E+00  0.963297E+00  0.971857E+00  0.976792E+00  0.979037E+00
  0.979037E+00  0.976792E+00  0.971857E+00  0.963297E+00  0.949607E+00  0.928605E+00
  0.910708E+00  0.872569E+00  0.819558E+00  0.749298E+00  0.661396E+00  0.559099E+00
  0.450587E+00  0.347614E+00  0.260869E+00  0.195821E+00  0.152551E+00  0.128399E+00
  0.120701E+00  0.128399E+00  0.152551E+00  0.195821E+00  0.260869E+00  0.347614E+00
  0.450587E+00  0.559099E+00  0.661396E+00  0.749298E+00  0.819558E+00  0.872569E+00
  0.910708E+00  0.937093E+00  0.954747E+00  0.966141E+00  0.973086E+00  0.976792E+00
  0.977953E+00  0.976792E+00  0.973086E+00  0.966141E+00  0.954747E+00  0.937093E+00
  0.910708E+00  0.884808E+00  0.838351E+00  0.776261E+00  0.697512E+00  0.603784E+00
  0.500785E+00  0.398166E+00  0.306530E+00  0.233257E+00  0.180788E+00  0.147952E+00
  0.132372E+00  0.132372E+00  0.147952E+00  0.180788E+00  0.233257E+00  0.306530E+00
  0.398166E+00  0.500785E+00  0.603784E+00  0.697512E+00  0.776261E+00  0.838351E+00
  0.884808E+00  0.918080E+00  0.941053E+00  0.956374E+00  0.966141E+00  0.971857E+00
  0.974481E+00  0.974481E+00  0.971857E+00  0.966141E+00  0.956374E+00  0.941053E+00
  0.918080E+00  0.884808E+00  0.849008E+00  0.793306E+00  0.722272E+00  0.636737E+00
  0.540677E+00  0.441640E+00  0.349086E+00  0.270956E+00  0.211341E+00  0.170709E+00
  0.147533E+00  0.140055E+00  0.147533E+00  0.170709E+00  0.211341E+00  0.270956E+00
  0.349086E+00  0.441640E+00  0.540677E+00  0.636737E+00  0.722272E+00  0.793306E+00
  0.849008E+00  0.890613E+00  0.920437E+00  0.941053E+00  0.954747E+00  0.963297E+00
  0.967940E+00  0.969408E+00  0.967940E+00  0.963297E+00  0.954747E+00  0.941053E+00
  0.920437E+00  0.890613E+00  0.849008E+00  0.801535E+00  0.736650E+00  0.658266E+00
  0.569300E+00  0.475622E+00  0.385222E+00  0.305649E+00  0.241692E+00  0.195030E+00
  0.165197E+00  0.150822E+00  0.150822E+00  0.165197E+00  0.195030E+00  0.241692E+00
  0.305649E+00  0.385222E+00  0.475622E+00  0.569300E+00  0.658266E+00  0.736650E+00
  0.801535E+00  0.852456E+00  0.890613E+00  0.918080E+00  0.937093E+00  0.949607E+00
  0.957117E+00  0.960622E+00  0.960622E+00  0.957117E+00  0.949607E+00  0.937093E+00
  0.918080E+00  0.890613E+00  0.852456E+00  0.801535E+00  0.741358E+00  0.668868E+00
  0.586439E+00  0.498783E+00  0.412515E+00  0.334345E+00  0.269005E+00  0.218708E+00
  0.183820E+00  0.163607E+00  0.157029E+00  0.163607E+00  0.183820E+00  0.218708E+00
  0.269005E+00  0.334345E+00  0.412515E+00  0.498783E+00  0.586439E+00  0.668868E+00
  0.741358E+00  0.801535E+00  0.849008E+00  0.884808E+00  0.910708E+00  0.928605E+00
  0.940147E+00  0.946565E+00  0.948619E+00  0.946565E+00  0.940147E+00  0.928605E+00
  0.910708E+00  0.884808E+00  0.849008E+00  0.801535E+00  0.741358E+00  0.708408E+00
  0.643805E+00  0.572830E+00  0.498783E+00  0.426430E+00  0.360589E+00  0.304822E+00
  0.261481E+00  0.232079E+00  0.217317E+00  0.217317E+00  0.232079E+00  0.261481E+00
  0.304822E+00  0.360589E+00  0.426430E+00  0.498783E+00  0.572830E+00  0.643805E+00
  0.708408E+00  0.764890E+00  0.812443E+00  0.850949E+00  0.880931E+00  0.903309E+00
  0.919071E+00  0.929061E+00  0.933893E+00  0.933893E+00  0.929061E+00  0.919071E+00
  0.903309E+00  0.880931E+00  0.850949E+00  0.812443E+00  0.764890E+00  0.708408E+00
  0.643805E+00  0.578536E+00  0.510487E+00  0.443516E+00  0.381590E+00  0.327607E+00
  0.283574E+00  0.251185E+00  0.231575E+00  0.225048E+00  0.231575E+00  0.251185E+00
  0.283574E+00  0.327607E+00  0.381590E+00  0.443516E+00  0.510487E+00  0.578536E+00
  0.643805E+00  0.703605E+00  0.756335E+00  0.801078E+00  0.837532E+00  0.865986E+00
  0.887074E+00  0.901506E+00  0.909889E+00  0.912635E+00  0.909889E+00  0.901506E+00
  0.887074E+00  0.865986E+00  0.837532E+00  0.801078E+00  0.756335E+00  0.703605E+00
  0.643805E+00  0.572830E+00  0.510487E+00  0.449293E+00  0.392463E+00  0.342200E+00
  0.299855E+00  0.266818E+00  0.244441E+00  0.233294E+00  0.233294E+00  0.244441E+00
  0.266818E+00  0.299855E+00  0.342200E+00  0.392463E+00  0.449293E+00  0.510487E+00
  0.572830E+00  0.633130E+00  0.688982E+00  0.738712E+00  0.781224E+00  0.816017E+00
  0.843118E+00  0.862867E+00  0.875698E+00  0.882001E+00  0.882001E+00  0.875698E+00
  0.862867E+00  0.843118E+00  0.816017E+00  0.781224E+00  0.738712E+00  0.688982E+00
  0.633130E+00  0.572830E+00  0.498783E+00  0.443516E+00  0.392463E+00  0.347227E+00
  0.308521E+00  0.277114E+00  0.254168E+00  0.240457E+00  0.235949E+00  0.240457E+00
  0.254168E+00  0.277114E+00  0.308521E+00  0.347227E+00  0.392463E+00  0.443516E+00
  0.498783E+00  0.555703E+00  0.611545E+00  0.663959E+00  0.711089E+00  0.751624E+00
  0.784830E+00  0.810442E+00  0.828502E+00  0.839203E+00  0.842743E+00  0.839203E+00
  0.828502E+00  0.810442E+00  0.784830E+00  0.751624E+00  0.711089E+00  0.663959E+00
  0.611545E+00  0.555703E+00  0.498783E+00  0.426430E+00  0.381590E+00  0.342200E+00
  0.308521E+00  0.280716E+00  0.259404E+00  0.245252E+00  0.238331E+00  0.238331E+00
  0.245252E+00  0.259404E+00  0.280716E+00  0.308521E+00  0.342200E+00  0.381590E+00
  0.426430E+00  0.475622E+00  0.527183E+00  0.578695E+00  0.627760E+00  0.672303E+00
  0.710759E+00  0.742102E+00  0.765762E+00  0.781519E+00  0.789369E+00  0.789369E+00
  0.781519E+00  0.765762E+00  0.742102E+00  0.710759E+00  0.672303E+00  0.627760E+00
  0.578695E+00  0.527183E+00  0.475622E+00  0.426430E+00  0.360589E+00  0.327607E+00
  0.299855E+00  0.277114E+00  0.259404E+00  0.246929E+00  0.239673E+00  0.237321E+00
  0.239673E+00  0.246929E+00  0.259404E+00  0.277114E+00  0.299855E+00  0.327607E+00
  0.360589E+00  0.398817E+00  0.441640E+00  0.487565E+00  0.534423E+00  0.579769E+00
  0.621313E+00  0.657192E+00  0.686054E+00  0.707044E+00  0.719732E+00  0.723970E+00
  0.719732E+00  0.707044E+00  0.686054E+00  0.657192E+00  0.621313E+00  0.579769E+00
  0.534423E+00  0.487565E+00  0.441640E+00  0.398817E+00  0.360589E+00  0.304822E+00
  0.283574E+00  0.266818E+00  0.254168E+00  0.245252E+00  0.239673E+00  0.237021E+00
  0.237021E+00  0.239673E+00  0.245252E+00  0.254168E+00  0.266818E+00  0.283574E+00
  0.304822E+00  0.330950E+00  0.362163E+00  0.398166E+00  0.437862E+00  0.479330E+00
  0.520146E+00  0.557842E+00  0.590259E+00  0.615745E+00  0.633212E+00  0.642067E+00
  0.642067E+00  0.633212E+00  0.615745E+00  0.590259E+00  0.557842E+00  0.520146E+00
  0.479330E+00  0.437862E+00  0.398166E+00  0.362163E+00  0.330950E+00  0.304822E+00
  0.261481E+00  0.251185E+00  0.244441E+00  0.240457E+00  0.238331E+00  0.237321E+00
  0.237021E+00  0.237321E+00  0.238331E+00  0.240457E+00  0.244441E+00  0.251185E+00
  0.261481E+00  0.275912E+00  0.294936E+00  0.318864E+00  0.347614E+00  0.380383E+00
  0.415512E+00  0.450686E+00  0.483344E+00  0.511129E+00  0.532190E+00  0.545284E+00
  0.549721E+00  0.545284E+00  0.532190E+00  0.511129E+00  0.483344E+00  0.450686E+00
  0.415512E+00  0.380383E+00  0.347614E+00  0.318864E+00  0.294936E+00  0.275912E+00
  0.261481E+00  0.232079E+00  0.231575E+00  0.233294E+00  0.235949E+00  0.238331E+00
  0.239673E+00  0.239673E+00  0.238331E+00  0.235949E+00  0.233294E+00  0.231575E+00
  0.232079E+00  0.235823E+00  0.243483E+00  0.255519E+00  0.272232E+00  0.293597E+00
  0.318989E+00  0.346987E+00  0.375446E+00  0.401859E+00  0.423859E+00  0.439572E+00
  0.447741E+00  0.447741E+00  0.439572E+00  0.423859E+00  0.401859E+00  0.375446E+00
  0.346987E+00  0.318989E+00  0.293597E+00  0.272232E+00  0.255519E+00  0.243483E+00
  0.235823E+00  0.232079E+00  0.217317E+00  0.225048E+00  0.233294E+00  0.240457E+00
  0.245252E+00  0.246929E+00  0.245252E+00  0.240457E+00  0.233294E+00  0.225048E+00
  0.217317E+00  0.211619E+00  0.209087E+00  0.210423E+00  0.216013E+00  0.226036E+00
  0.240401E+00  0.258533E+00  0.279165E+00  0.300361E+00  0.319849E+00  0.335484E+00
  0.345579E+00  0.349066E+00  0.345579E+00  0.335484E+00  0.319849E+00  0.300361E+00
  0.279165E+00  0.258533E+00  0.240401E+00  0.226036E+00  0.216013E+00  0.210423E+00
  0.209087E+00  0.211619E+00  0.217317E+00  0.217317E+00  0.231575E+00  0.244441E+00
  0.254168E+00  0.259404E+00  0.259404E+00  0.254168E+00  0.244441E+00  0.231575E+00
  0.217317E+00  0.203547E+00  0.191940E+00  0.183687E+00  0.179438E+00  0.179438E+00
  0.183687E+00  0.191940E+00  0.203547E+00  0.217317E+00  0.231575E+00  0.244441E+00
  0.254168E+00  0.259404E+00  0.259404E+00  0.254168E+00  0.244441E+00  0.231575E+00
  0.217317E+00  0.203547E+00  0.191940E+00  0.183687E+00  0.179438E+00  0.179438E+00
  0.183687E+00  0.191940E+00  0.203547E+00  0.217317E+00  0.232079E+00  0.251185E+00
  0.266818E+00  0.277114E+00  0.280716E+00  0.277114E+00  0.266818E+00  0.251185E+00
  0.232079E+00  0.211619E+00  0.191940E+00  0.174852E+00  0.161543E+00  0.152551E+00
  0.147952E+00  0.147533E+00  0.150822E+00  0.157029E+00  0.165035E+00  0.173487E+00
  0.180953E+00  0.186104E+00  0.187947E+00  0.186104E+00  0.180953E+00  0.173487E+00
  0.165035E+00  0.157029E+00  0.150822E+00  0.147533E+00  0.147952E+00  0.152551E+00
  0.161543E+00  0.174852E+00  0.191940E+00  0.211619E+00  0.232079E+00  0.261481E+00
  0.283574E+00  0.299855E+00  0.308521E+00  0.308521E+00  0.299855E+00  0.283574E+00
  0.261481E+00  0.235823E+00  0.209087E+00  0.183687E+00  0.161543E+00  0.143800E+00
  0.130867E+00  0.122620E+00  0.118587E+00  0.118040E+00  0.120077E+00  0.123697E+00
  0.127860E+00  0.131505E+00  0.133646E+00  0.133646E+00  0.131505E+00  0.127860E+00
  0.123697E+00  0.120077E+00  0.118040E+00  0.118587E+00  0.122620E+00  0.130867E+00
  0.143800E+00  0.161543E+00  0.183687E+00  0.209087E+00  0.235823E+00  0.261481E+00
  0.304822E+00  0.327607E+00  0.342200E+00  0.347227E+00  0.342200E+00  0.327607E+00
  0.304822E+00  0.275912E+00  0.243483E+00  0.210423E+00  0.179438E+00  0.152551E+00
  0.130867E+00  0.114642E+00  0.103506E+00  0.966975E-01  0.932804E-01  0.923048E-01
  0.928909E-01  0.942128E-01  0.954644E-01  0.959732E-01  0.954644E-01  0.942128E-01
  0.928909E-01  0.923048E-01  0.932804E-01  0.966975E-01  0.103506E+00  0.114642E+00
  0.130867E+00  0.152551E+00  0.179438E+00  0.210423E+00  0.243483E+00  0.275912E+00
  0.304822E+00  0.360589E+00  0.381590E+00  0.392463E+00  0.392463E+00  0.381590E+00
  0.360589E+00  0.330950E+00  0.294936E+00  0.255519E+00  0.216013E+00  0.179438E+00
  0.147952E+00  0.122620E+00  0.103506E+00  0.899606E-01  0.809746E-01  0.754687E-01
  0.724664E-01  0.711363E-01  0.707651E-01  0.707612E-01  0.707612E-01  0.707651E-01
  0.711363E-01  0.724664E-01  0.754687E-01  0.809746E-01  0.899606E-01  0.103506E+00
  0.122620E+00  0.147952E+00  0.179438E+00  0.216013E+00  0.255519E+00  0.294936E+00
  0.330950E+00  0.360589E+00  0.426430E+00  0.443516E+00  0.449293E+00  0.443516E+00
  0.426430E+00  0.398817E+00  0.362163E+00  0.318864E+00  0.272232E+00  0.226036E+00
  0.183687E+00  0.147533E+00  0.118587E+00  0.966975E-01  0.809746E-01  0.702192E-01
  0.632284E-01  0.589448E-01  0.565142E-01  0.553107E-01  0.549524E-01  0.553107E-01
  0.565142E-01  0.589448E-01  0.632284E-01  0.702192E-01  0.809746E-01  0.966975E-01
  0.118587E+00  0.147533E+00  0.183687E+00  0.226036E+00  0.272232E+00  0.318864E+00
  0.362163E+00  0.398817E+00  0.426430E+00  0.498783E+00  0.510487E+00  0.510487E+00
  0.498783E+00  0.475622E+00  0.441640E+00  0.398166E+00  0.347614E+00  0.293597E+00
  0.240401E+00  0.191940E+00  0.150822E+00  0.118040E+00  0.932804E-01  0.754687E-01
  0.632284E-01  0.551780E-01  0.501219E-01  0.471758E-01  0.458132E-01  0.458132E-01
  0.471758E-01  0.501219E-01  0.551780E-01  0.632284E-01  0.754687E-01  0.932804E-01
  0.118040E+00  0.150822E+00  0.191940E+00  0.240401E+00  0.293597E+00  0.347614E+00
  0.398166E+00  0.441640E+00  0.475622E+00  0.498783E+00  0.572830E+00  0.578536E+00
  0.572830E+00  0.555703E+00  0.527183E+00  0.487565E+00  0.437862E+00  0.380383E+00
  0.318989E+00  0.258533E+00  0.203547E+00  0.157029E+00  0.120077E+00  0.923048E-01
  0.724664E-01  0.589448E-01  0.501219E-01  0.446642E-01  0.416834E-01  0.407317E-01
  0.416834E-01  0.446642E-01  0.501219E-01  0.589448E-01  0.724664E-01  0.923048E-01
  0.120077E+00  0.157029E+00  0.203547E+00  0.258533E+00  0.318989E+00  0.380383E+00
  0.437862E+00  0.487565E+00  0.527183E+00  0.555703E+00  0.572830E+00  0.643805E+00
  0.643805E+00  0.633130E+00  0.611545E+00  0.578695E+00  0.534423E+00  0.479330E+00
  0.415512E+00  0.346987E+00  0.279165E+00  0.217317E+00  0.165035E+00  0.123697E+00
  0.928909E-01  0.711363E-01  0.565142E-01  0.471758E-01  0.416834E-01  0.391398E-01
  0.391398E-01  0.416834E-01  0.471758E-01  0.565142E-01  0.711363E-01  0.928909E-01
  0.123697E+00  0.165035E+00  0.217317E+00  0.279165E+00  0.346987E+00  0.415512E+00
  0.479330E+00  0.534423E+00  0.578695E+00  0.611545E+00  0.633130E+00  0.643805E+00
  0.708408E+00  0.703605E+00  0.688982E+00  0.663959E+00  0.627760E+00  0.579769E+00
  0.520146E+00  0.450686E+00  0.375446E+00  0.300361E+00  0.231575E+00  0.173487E+00
  0.127860E+00  0.942128E-01  0.707651E-01  0.553107E-01  0.458132E-01  0.407317E-01
  0.391398E-01  0.407317E-01  0.458132E-01  0.553107E-01  0.707651E-01  0.942128E-01
  0.127860E+00  0.173487E+00  0.231575E+00  0.300361E+00  0.375446E+00  0.450686E+00
  0.520146E+00  0.579769E+00  0.627760E+00  0.663959E+00  0.688982E+00  0.703605E+00
  0.708408E+00  0.764890E+00  0.756335E+00  0.738712E+00  0.711089E+00  0.672303E+00
  0.621313E+00  0.557842E+00  0.483344E+00  0.401859E+00  0.319849E+00  0.244441E+00
  0.180953E+00  0.131505E+00  0.954644E-01  0.707612E-01  0.549524E-01  0.458132E-01
  0.416834E-01  0.416834E-01  0.458132E-01  0.549524E-01  0.707612E-01  0.954644E-01
  0.131505E+00  0.180953E+00  0.244441E+00  0.319849E+00  0.401859E+00  0.483344E+00
  0.557842E+00  0.621313E+00  0.672303E+00  0.711089E+00  0.738712E+00  0.756335E+00
  0.764890E+00  0.764890E+00  0.812443E+00  0.801078E+00  0.781224E+00  0.751624E+00
  0.710759E+00  0.657192E+00  0.590259E+00  0.511129E+00  0.423859E+00  0.335484E+00
  0.254168E+00  0.186104E+00  0.133646E+00  0.959732E-01  0.707612E-01  0.553107E-01
  0.471758E-01  0.446642E-01  0.471758E-01  0.553107E-01  0.707612E-01  0.959732E-01
  0.133646E+00  0.186104E+00  0.254168E+00  0.335484E+00  0.423859E+00  0.511129E+00
  0.590259E+00  0.657192E+00  0.710759E+00  0.751624E+00  0.781224E+00  0.801078E+00
  0.812443E+00  0.816137E+00  0.812443E+00  0.850949E+00  0.837532E+00  0.816017E+00
  0.784830E+00  0.742102E+00  0.686054E+00  0.615745E+00  0.532190E+00  0.439572E+00
  0.345579E+00  0.259404E+00  0.187947E+00  0.133646E+00  0.954644E-01  0.707651E-01
  0.565142E-01  0.501219E-01  0.501219E-01  0.565142E-01  0.707651E-01  0.954644E-01
  0.133646E+00  0.187947E+00  0.259404E+00  0.345579E+00  0.439572E+00  0.532190E+00
  0.615745E+00  0.686054E+00  0.742102E+00  0.784830E+00  0.816017E+00  0.837532E+00
  0.850949E+00  0.857373E+00  0.857373E+00  0.850949E+00  0.880931E+00  0.865986E+00
  0.843118E+00  0.810442E+00  0.765762E+00  0.707044E+00  0.633212E+00  0.545284E+00
  0.447741E+00  0.349066E+00  0.259404E+00  0.186104E+00  0.131505E+00  0.942128E-01
  0.711363E-01  0.589448E-01  0.551780E-01  0.589448E-01  0.711363E-01  0.942128E-01
  0.131505E+00  0.186104E+00  0.259404E+00  0.349066E+00  0.447741E+00  0.545284E+00
  0.633212E+00  0.707044E+00  0.765762E+00  0.810442E+00  0.843118E+00  0.865986E+00
  0.880931E+00  0.889340E+00  0.892051E+00  0.889340E+00  0.880931E+00  0.903309E+00
  0.887074E+00  0.862867E+00  0.828502E+00  0.781519E+00  0.719732E+00  0.642067E+00
  0.549721E+00  0.447741E+00  0.345579E+00  0.254168E+00  0.180953E+00  0.127860E+00
  0.928909E-01  0.724664E-01  0.632284E-01  0.632284E-01  0.724664E-01  0.928909E-01
  0.127860E+00  0.180953E+00  0.254168E+00  0.345579E+00  0.447741E+00  0.549721E+00
  0.642067E+00  0.719732E+00  0.781519E+00  0.828502E+00  0.862867E+00  0.887074E+00
  0.903309E+00  0.913231E+00  0.917925E+00  0.917925E+00  0.913231E+00  0.903309E+00
  0.919071E+00  0.901506E+00  0.875698E+00  0.839203E+00  0.789369E+00  0.723970E+00
  0.642067E+00  0.545284E+00  0.439572E+00  0.335484E+00  0.244441E+00  0.173487E+00
  0.123697E+00  0.923048E-01  0.754687E-01  0.702192E-01  0.754687E-01  0.923048E-01
  0.123697E+00  0.173487E+00  0.244441E+00  0.335484E+00  0.439572E+00  0.545284E+00
  0.642067E+00  0.723970E+00  0.789369E+00  0.839203E+00  0.875698E+00  0.901506E+00
  0.919071E+00  0.930310E+00  0.936544E+00  0.938539E+00  0.936544E+00  0.930310E+00
  0.919071E+00  0.929061E+00  0.909889E+00  0.882001E+00  0.842743E+00  0.789369E+00
  0.719732E+00  0.633212E+00  0.532190E+00  0.423859E+00  0.319849E+00  0.231575E+00
  0.165035E+00  0.120077E+00  0.932804E-01  0.809746E-01  0.809746E-01  0.932804E-01
  0.120077E+00  0.165035E+00  0.231575E+00  0.319849E+00  0.423859E+00  0.532190E+00
  0.633212E+00  0.719732E+00  0.789369E+00  0.842743E+00  0.882001E+00  0.909889E+00
  0.929061E+00  0.941667E+00  0.949255E+00  0.952809E+00  0.952809E+00  0.949255E+00
  0.941667E+00  0.929061E+00  0.933893E+00  0.912635E+00  0.882001E+00  0.839203E+00
  0.781519E+00  0.707044E+00  0.615745E+00  0.511129E+00  0.401859E+00  0.300361E+00
  0.217317E+00  0.157029E+00  0.118040E+00  0.966975E-01  0.899606E-01  0.966975E-01
  0.118040E+00  0.157029E+00  0.217317E+00  0.300361E+00  0.401859E+00  0.511129E+00
  0.615745E+00  0.707044E+00  0.781519E+00  0.839203E+00  0.882001E+00  0.912635E+00
  0.933893E+00  0.948129E+00  0.957107E+00  0.962027E+00  0.963591E+00  0.962027E+00
  0.957107E+00  0.948129E+00  0.933893E+00  0.933893E+00  0.909889E+00  0.875698E+00
  0.828502E+00  0.765762E+00  0.686054E+00  0.590259E+00  0.483344E+00  0.375446E+00
  0.279165E+00  0.203547E+00  0.150822E+00  0.118587E+00  0.103506E+00  0.103506E+00
  0.118587E+00  0.150822E+00  0.203547E+00  0.279165E+00  0.375446E+00  0.483344E+00
  0.590259E+00  0.686054E+00  0.765762E+00  0.828502E+00  0.875698E+00  0.909889E+00
  0.933893E+00  0.950221E+00  0.960838E+00  0.967152E+00  0.970080E+00  0.970080E+00
  0.967152E+00  0.960838E+00  0.950221E+00  0.933893E+00  0.929061E+00  0.901506E+00
  0.862867E+00  0.810442E+00  0.742102E+00  0.657192E+00  0.557842E+00  0.450686E+00
  0.346987E+00  0.258533E+00  0.191940E+00  0.147533E+00  0.122620E+00  0.114642E+00
  0.122620E+00  0.147533E+00  0.191940E+00  0.258533E+00  0.346987E+00  0.450686E+00
  0.557842E+00  0.657192E+00  0.742102E+00  0.810442E+00  0.862867E+00  0.901506E+00
  0.929061E+00  0.948129E+00  0.960838E+00  0.968789E+00  0.973107E+00  0.974471E+00
  0.973107E+00  0.968789E+00  0.960838E+00  0.948129E+00  0.929061E+00  0.919071E+00
  0.887074E+00  0.843118E+00  0.784830E+00  0.710759E+00  0.621313E+00  0.520146E+00
  0.415512E+00  0.318989E+00  0.240401E+00  0.183687E+00  0.147952E+00  0.130867E+00
  0.130867E+00  0.147952E+00  0.183687E+00  0.240401E+00  0.318989E+00  0.415512E+00
  0.520146E+00  0.621313E+00  0.710759E+00  0.784830E+00  0.843118E+00  0.887074E+00
  0.919071E+00  0.941667E+00  0.957107E+00  0.967152E+00  0.973107E+00  0.975858E+00
  0.975858E+00  0.973107E+00  0.967152E+00  0.957107E+00  0.941667E+00  0.919071E+00
  0.903309E+00  0.865986E+00  0.816017E+00  0.751624E+00  0.672303E+00  0.579769E+00
  0.479330E+00  0.380383E+00  0.293597E+00  0.226036E+00  0.179438E+00  0.152551E+00
  0.143800E+00  0.152551E+00  0.179438E+00  0.226036E+00  0.293597E+00  0.380383E+00
  0.479330E+00  0.579769E+00  0.672303E+00  0.751624E+00  0.816017E+00  0.865986E+00
  0.903309E+00  0.930310E+00  0.949255E+00  0.962027E+00  0.970080E+00  0.974471E+00
  0.975858E+00  0.974471E+00  0.970080E+00  0.962027E+00  0.949255E+00  0.930310E+00
  0.903309E+00  0.880931E+00  0.837532E+00  0.781224E+00  0.711089E+00  0.627760E+00
  0.534423E+00  0.437862E+00  0.347614E+00  0.272232E+00  0.216013E+00  0.179438E+00
  0.161543E+00  0.161543E+00  0.179438E+00  0.216013E+00  0.272232E+00  0.347614E+00
  0.437862E+00  0.534423E+00  0.627760E+00  0.711089E+00  0.781224E+00  0.837532E+00
  0.880931E+00  0.913231E+00  0.936544E+00  0.952809E+00  0.963591E+00  0.970080E+00
  0.973107E+00  0.973107E+00  0.970080E+00  0.963591E+00  0.952809E+00  0.936544E+00
  0.913231E+00  0.880931E+00  0.850949E+00  0.801078E+00  0.738712E+00  0.663959E+00
  0.578695E+00  0.487565E+00  0.398166E+00  0.318864E+00  0.255519E+00  0.210423E+00
  0.183687E+00  0.174852E+00  0.183687E+00  0.210423E+00  0.255519E+00  0.318864E+00
  0.398166E+00  0.487565E+00  0.578695E+00  0.663959E+00  0.738712E+00  0.801078E+00
  0.850949E+00  0.889340E+00  0.917925E+00  0.938539E+00  0.952809E+00  0.962027E+00
  0.967152E+00  0.968789E+00  0.967152E+00  0.962027E+00  0.952809E+00  0.938539E+00
  0.917925E+00  0.889340E+00  0.850949E+00  0.812443E+00  0.756335E+00  0.688982E+00
  0.611545E+00  0.527183E+00  0.441640E+00  0.362163E+00  0.294936E+00  0.243483E+00
  0.209087E+00  0.191940E+00  0.191940E+00  0.209087E+00  0.243483E+00  0.294936E+00
  0.362163E+00  0.441640E+00  0.527183E+00  0.611545E+00  0.688982E+00  0.756335E+00
  0.812443E+00  0.857373E+00  0.892051E+00  0.917925E+00  0.936544E+00  0.949255E+00
  0.957107E+00  0.960838E+00  0.960838E+00  0.957107E+00  0.949255E+00  0.936544E+00
  0.917925E+00  0.892051E+00  0.857373E+00  0.812443E+00  0.764890E+00  0.703605E+00
  0.633130E+00  0.555703E+00  0.475622E+00  0.398817E+00  0.330950E+00  0.275912E+00
  0.235823E+00  0.211619E+00  0.203547E+00  0.211619E+00  0.235823E+00  0.275912E+00
  0.330950E+00  0.398817E+00  0.475622E+00  0.555703E+00  0.633130E+00  0.703605E+00
  0.764890E+00  0.816137E+00  0.857373E+00  0.889340E+00  0.913231E+00  0.930310E+00
  0.941667E+00  0.948129E+00  0.950221E+00  0.948129E+00  0.941667E+00  0.930310E+00
  0.913231E+00  0.889340E+00  0.857373E+00  0.816137E+00  0.764890E+00  0.708408E+00
  0.643805E+00  0.572830E+00  0.498783E+00  0.426430E+00  0.360589E+00  0.304822E+00
  0.261481E+00  0.232079E+00  0.217317E+00  0.217317E+00  0.232079E+00  0.261481E+00
  0.304822E+00  0.360589E+00  0.426430E+00  0.498783E+00  0.572830E+00  0.643805E+00
  0.708408E+00  0.764890E+00  0.812443E+00  0.850949E+00  0.880931E+00  0.903309E+00
  0.919071E+00  0.929061E+00  0.933893E+00  0.933893E+00  0.929061E+00  0.919071E+00
  0.903309E+00  0.880931E+00  0.850949E+00  0.812443E+00  0.764890E+00  0.708408E+00
  0.696202E+00  0.643805E+00  0.586439E+00  0.526112E+00  0.466115E+00  0.410136E+00
  0.361682E+00  0.324121E+00  0.300361E+00  0.292243E+00  0.300361E+00  0.324121E+00
  0.361682E+00  0.410136E+00  0.466115E+00  0.526112E+00  0.586439E+00  0.643805E+00
  0.696202E+00  0.742887E+00  0.783640E+00  0.818380E+00  0.847231E+00  0.870516E+00
  0.888546E+00  0.901455E+00  0.909232E+00  0.911831E+00  0.909232E+00  0.901455E+00
  0.888546E+00  0.870516E+00  0.847231E+00  0.818380E+00  0.783640E+00  0.742887E+00
  0.696202E+00  0.643805E+00  0.592139E+00  0.537909E+00  0.483640E+00  0.432040E+00
  0.385618E+00  0.347211E+00  0.319849E+00  0.305714E+00  0.305714E+00  0.319849E+00
  0.347211E+00  0.385618E+00  0.432040E+00  0.483640E+00  0.537909E+00  0.592139E+00
  0.643805E+00  0.691368E+00  0.734199E+00  0.771957E+00  0.804365E+00  0.831331E+00
  0.852917E+00  0.869174E+00  0.880071E+00  0.885539E+00  0.885539E+00  0.880071E+00
  0.869174E+00  0.852917E+00  0.831331E+00  0.804365E+00  0.771957E+00  0.734199E+00
  0.691368E+00  0.643805E+00  0.586439E+00  0.537909E+00  0.489555E+00  0.443365E+00
  0.400887E+00  0.364024E+00  0.335484E+00  0.317665E+00  0.311663E+00  0.317665E+00
  0.335484E+00  0.364024E+00  0.400887E+00  0.443365E+00  0.489555E+00  0.537909E+00
  0.586439E+00  0.633130E+00  0.676670E+00  0.716350E+00  0.751638E+00  0.782080E+00
  0.807366E+00  0.827277E+00  0.841629E+00  0.850280E+00  0.853169E+00  0.850280E+00
  0.841629E+00  0.827277E+00  0.807366E+00  0.782080E+00  0.751638E+00  0.716350E+00
  0.676670E+00  0.633130E+00  0.586439E+00  0.526112E+00  0.483640E+00  0.443365E+00
  0.406142E+00  0.372906E+00  0.345579E+00  0.326445E+00  0.316781E+00  0.316781E+00
  0.326445E+00  0.345579E+00  0.372906E+00  0.406142E+00  0.443365E+00  0.483640E+00
  0.526112E+00  0.569300E+00  0.611545E+00  0.651578E+00  0.688497E+00  0.721570E+00
  0.750167E+00  0.773732E+00  0.791772E+00  0.803921E+00  0.810011E+00  0.810011E+00
  0.803921E+00  0.791772E+00  0.773732E+00  0.750167E+00  0.721570E+00  0.688497E+00
  0.651578E+00  0.611545E+00  0.569300E+00  0.526112E+00  0.466115E+00  0.432040E+00
  0.400887E+00  0.372906E+00  0.349066E+00  0.331037E+00  0.320079E+00  0.316458E+00
  0.320079E+00  0.331037E+00  0.349066E+00  0.372906E+00  0.400887E+00  0.432040E+00
  0.466115E+00  0.502683E+00  0.540677E+00  0.578695E+00  0.615394E+00  0.649635E+00
  0.680479E+00  0.707087E+00  0.728638E+00  0.744410E+00  0.753962E+00  0.757150E+00
  0.753962E+00  0.744410E+00  0.728638E+00  0.707087E+00  0.680479E+00  0.649635E+00
  0.615394E+00  0.578695E+00  0.540677E+00  0.502683E+00  0.466115E+00  0.410136E+00
  0.385618E+00  0.364024E+00  0.345579E+00  0.331037E+00  0.321192E+00  0.316323E+00
  0.316323E+00  0.321192E+00  0.331037E+00  0.345579E+00  0.364024E+00  0.385618E+00
  0.410136E+00  0.437682E+00  0.468131E+00  0.500785E+00  0.534423E+00  0.567592E+00
  0.598933E+00  0.627275E+00  0.651514E+00  0.670570E+00  0.683598E+00  0.690167E+00
  0.690167E+00  0.683598E+00  0.670570E+00  0.651514E+00  0.627275E+00  0.598933E+00
  0.567592E+00  0.534423E+00  0.500785E+00  0.468131E+00  0.437682E+00  0.410136E+00
  0.361682E+00  0.347211E+00  0.335484E+00  0.326445E+00  0.320079E+00  0.316323E+00
  0.315086E+00  0.316323E+00  0.320079E+00  0.326445E+00  0.335484E+00  0.347211E+00
  0.361682E+00  0.379088E+00  0.399717E+00  0.423688E+00  0.450587E+00  0.479330E+00
  0.508428E+00  0.536362E+00  0.561693E+00  0.583001E+00  0.599008E+00  0.608849E+00
  0.612155E+00  0.608849E+00  0.599008E+00  0.583001E+00  0.561693E+00  0.536362E+00
  0.508428E+00  0.479330E+00  0.450587E+00  0.423688E+00  0.399717E+00  0.379088E+00
  0.361682E+00  0.324121E+00  0.319849E+00  0.317665E+00  0.316781E+00  0.316458E+00
  0.316323E+00  0.316323E+00  0.316458E+00  0.316781E+00  0.317665E+00  0.319849E+00
  0.324121E+00  0.331053E+00  0.341058E+00  0.354538E+00  0.371730E+00  0.392362E+00
  0.415512E+00  0.439792E+00  0.463594E+00  0.485189E+00  0.502869E+00  0.515266E+00
  0.521601E+00  0.521601E+00  0.515266E+00  0.502869E+00  0.485189E+00  0.463594E+00
  0.439792E+00  0.415512E+00  0.392362E+00  0.371730E+00  0.354538E+00  0.341058E+00
  0.331053E+00  0.324121E+00  0.300361E+00  0.305714E+00  0.311663E+00  0.316781E+00
  0.320079E+00  0.321192E+00  0.320079E+00  0.316781E+00  0.311663E+00  0.305714E+00
  0.300361E+00  0.296914E+00  0.296263E+00  0.298971E+00  0.305439E+00  0.315838E+00
  0.329933E+00  0.346987E+00  0.365787E+00  0.384674E+00  0.401709E+00  0.415065E+00
  0.423467E+00  0.426317E+00  0.423467E+00  0.415065E+00  0.401709E+00  0.384674E+00
  0.365787E+00  0.346987E+00  0.329933E+00  0.315838E+00  0.305439E+00  0.298971E+00
  0.296263E+00  0.296914E+00  0.300361E+00  0.292243E+00  0.305714E+00  0.317665E+00
  0.326445E+00  0.331037E+00  0.331037E+00  0.326445E+00  0.317665E+00  0.305714E+00
  0.292243E+00  0.279165E+00  0.268136E+00  0.260280E+00  0.256219E+00  0.256219E+00
  0.260280E+00  0.268136E+00  0.279165E+00  0.292243E+00  0.305714E+00  0.317665E+00
  0.326445E+00  0.331037E+00  0.331037E+00  0.326445E+00  0.317665E+00  0.305714E+00
  0.292243E+00  0.279165E+00  0.268136E+00  0.260280E+00  0.256219E+00  0.256219E+00
  0.260280E+00  0.268136E+00  0.279165E+00  0.292243E+00  0.300361E+00  0.319849E+00
  0.335484E+00  0.345579E+00  0.349066E+00  0.345579E+00  0.335484E+00  0.319849E+00
  0.300361E+00  0.279165E+00  0.258533E+00  0.240401E+00  0.226036E+00  0.216013E+00
  0.210423E+00  0.209087E+00  0.211619E+00  0.217317E+00  0.225048E+00  0.233294E+00
  0.240457E+00  0.245252E+00  0.246929E+00  0.245252E+00  0.240457E+00  0.233294E+00
  0.225048E+00  0.217317E+00  0.211619E+00  0.209087E+00  0.210423E+00  0.216013E+00
  0.226036E+00  0.240401E+00  0.258533E+00  0.279165E+00  0.300361E+00  0.324121E+00
  0.347211E+00  0.364024E+00  0.372906E+00  0.372906E+00  0.364024E+00  0.347211E+00
  0.324121E+00  0.296914E+00  0.268136E+00  0.240401E+00  0.215859E+00  0.195821E+00
  0.180788E+00  0.170709E+00  0.165197E+00  0.163607E+00  0.165035E+00  0.168361E+00
  0.172350E+00  0.175818E+00  0.177818E+00  0.177818E+00  0.175818E+00  0.172350E+00
  0.168361E+00  0.165035E+00  0.163607E+00  0.165197E+00  0.170709E+00  0.180788E+00
  0.195821E+00  0.215859E+00  0.240401E+00  0.268136E+00  0.296914E+00  0.324121E+00
  0.361682E+00  0.385618E+00  0.400887E+00  0.406142E+00  0.400887E+00  0.385618E+00
  0.361682E+00  0.331053E+00  0.296263E+00  0.260280E+00  0.226036E+00  0.195821E+00
  0.170971E+00  0.151939E+00  0.138504E+00  0.129979E+00  0.125397E+00  0.123697E+00
  0.123849E+00  0.124903E+00  0.125991E+00  0.126442E+00  0.125991E+00  0.124903E+00
  0.123849E+00  0.123697E+00  0.125397E+00  0.129979E+00  0.138504E+00  0.151939E+00
  0.170971E+00  0.195821E+00  0.226036E+00  0.260280E+00  0.296263E+00  0.331053E+00
  0.361682E+00  0.410136E+00  0.432040E+00  0.443365E+00  0.443365E+00  0.432040E+00
  0.410136E+00  0.379088E+00  0.341058E+00  0.298971E+00  0.256219E+00  0.216013E+00
  0.180788E+00  0.151939E+00  0.129829E+00  0.113966E+00  0.103316E+00  0.966659E-01
  0.928909E-01  0.910503E-01  0.903669E-01  0.902148E-01  0.902148E-01  0.903669E-01
  0.910503E-01  0.928909E-01  0.966659E-01  0.103316E+00  0.113966E+00  0.129829E+00
  0.151939E+00  0.180788E+00  0.216013E+00  0.256219E+00  0.298971E+00  0.341058E+00
  0.379088E+00  0.410136E+00  0.466115E+00  0.483640E+00  0.489555E+00  0.483640E+00
  0.466115E+00  0.437682E+00  0.399717E+00  0.354538E+00  0.305439E+00  0.256219E+00
  0.210423E+00  0.170709E+00  0.138504E+00  0.113966E+00  0.962713E-01  0.841102E-01
  0.761236E-01  0.711363E-01  0.682293E-01  0.667477E-01  0.662978E-01  0.667477E-01
  0.682293E-01  0.711363E-01  0.761236E-01  0.841102E-01  0.962713E-01  0.113966E+00
  0.138504E+00  0.170709E+00  0.210423E+00  0.256219E+00  0.305439E+00  0.354538E+00
  0.399717E+00  0.437682E+00  0.466115E+00  0.526112E+00  0.537909E+00  0.537909E+00
  0.526112E+00  0.502683E+00  0.468131E+00  0.423688E+00  0.371730E+00  0.315838E+00
  0.260280E+00  0.209087E+00  0.165197E+00  0.129979E+00  0.103316E+00  0.841102E-01
  0.708653E-01  0.620888E-01  0.565142E-01  0.532247E-01  0.516883E-01  0.516883E-01
  0.532247E-01  0.565142E-01  0.620888E-01  0.708653E-01  0.841102E-01  0.103316E+00
  0.129979E+00  0.165197E+00  0.209087E+00  0.260280E+00  0.315838E+00  0.371730E+00
  0.423688E+00  0.468131E+00  0.502683E+00  0.526112E+00  0.586439E+00  0.592139E+00
  0.586439E+00  0.569300E+00  0.540677E+00  0.500785E+00  0.450587E+00  0.392362E+00
  0.329933E+00  0.268136E+00  0.211619E+00  0.163607E+00  0.125397E+00  0.966659E-01
  0.761236E-01  0.620888E-01  0.528940E-01  0.471758E-01  0.440359E-01  0.430300E-01
  0.440359E-01  0.471758E-01  0.528940E-01  0.620888E-01  0.761236E-01  0.966659E-01
  0.125397E+00  0.163607E+00  0.211619E+00  0.268136E+00  0.329933E+00  0.392362E+00
  0.450587E+00  0.500785E+00  0.540677E+00  0.569300E+00  0.586439E+00  0.643805E+00
  0.643805E+00  0.633130E+00  0.611545E+00  0.578695E+00  0.534423E+00  0.479330E+00
  0.415512E+00  0.346987E+00  0.279165E+00  0.217317E+00  0.165035E+00  0.123697E+00
  0.928909E-01  0.711363E-01  0.565142E-01  0.471758E-01  0.416834E-01  0.391398E-01
  0.391398E-01  0.416834E-01  0.471758E-01  0.565142E-01  0.711363E-01  0.928909E-01
  0.123697E+00  0.165035E+00  0.217317E+00  0.279165E+00  0.346987E+00  0.415512E+00
  0.479330E+00  0.534423E+00  0.578695E+00  0.611545E+00  0.633130E+00  0.643805E+00
  0.696202E+00  0.691368E+00  0.676670E+00  0.651578E+00  0.615394E+00  0.567592E+00
  0.508428E+00  0.439792E+00  0.365787E+00  0.292243E+00  0.225048E+00  0.168361E+00
  0.123849E+00  0.910503E-01  0.682293E-01  0.532247E-01  0.440359E-01  0.391398E-01
  0.376104E-01  0.391398E-01  0.440359E-01  0.532247E-01  0.682293E-01  0.910503E-01
  0.123849E+00  0.168361E+00  0.225048E+00  0.292243E+00  0.365787E+00  0.439792E+00
  0.508428E+00  0.567592E+00  0.615394E+00  0.651578E+00  0.676670E+00  0.691368E+00
  0.696202E+00  0.742887E+00  0.734199E+00  0.716350E+00  0.688497E+00  0.649635E+00
  0.598933E+00  0.536362E+00  0.463594E+00  0.384674E+00  0.305714E+00  0.233294E+00
  0.172350E+00  0.124903E+00  0.903669E-01  0.667477E-01  0.516883E-01  0.430300E-01
  0.391398E-01  0.391398E-01  0.430300E-01  0.516883E-01  0.667477E-01  0.903669E-01
  0.124903E+00  0.172350E+00  0.233294E+00  0.305714E+00  0.384674E+00  0.463594E+00
  0.536362E+00  0.598933E+00  0.649635E+00  0.688497E+00  0.716350E+00  0.734199E+00
  0.742887E+00  0.742887E+00  0.783640E+00  0.771957E+00  0.751638E+00  0.721570E+00
  0.680479E+00  0.627275E+00  0.561693E+00  0.485189E+00  0.401709E+00  0.317665E+00
  0.240457E+00  0.175818E+00  0.125991E+00  0.902148E-01  0.662978E-01  0.516883E-01
  0.440359E-01  0.416834E-01  0.440359E-01  0.516883E-01  0.662978E-01  0.902148E-01
  0.125991E+00  0.175818E+00  0.240457E+00  0.317665E+00  0.401709E+00  0.485189E+00
  0.561693E+00  0.627275E+00  0.680479E+00  0.721570E+00  0.751638E+00  0.771957E+00
  0.783640E+00  0.787445E+00  0.783640E+00  0.818380E+00  0.804365E+00  0.782080E+00
  0.750167E+00  0.707087E+00  0.651514E+00  0.583001E+00  0.502869E+00  0.415065E+00
  0.326445E+00  0.245252E+00  0.177818E+00  0.126442E+00  0.902148E-01  0.667477E-01
  0.532247E-01  0.471758E-01  0.471758E-01  0.532247E-01  0.667477E-01  0.902148E-01
  0.126442E+00  0.177818E+00  0.245252E+00  0.326445E+00  0.415065E+00  0.502869E+00
  0.583001E+00  0.651514E+00  0.707087E+00  0.750167E+00  0.782080E+00  0.804365E+00
  0.818380E+00  0.825123E+00  0.825123E+00  0.818380E+00  0.847231E+00  0.831331E+00
  0.807366E+00  0.773732E+00  0.728638E+00  0.670570E+00  0.599008E+00  0.515266E+00
  0.423467E+00  0.331037E+00  0.246929E+00  0.177818E+00  0.125991E+00  0.903669E-01
  0.682293E-01  0.565142E-01  0.528940E-01  0.565142E-01  0.682293E-01  0.903669E-01
  0.125991E+00  0.177818E+00  0.246929E+00  0.331037E+00  0.423467E+00  0.515266E+00
  0.599008E+00  0.670570E+00  0.728638E+00  0.773732E+00  0.807366E+00  0.831331E+00
  0.847231E+00  0.856271E+00  0.859200E+00  0.856271E+00  0.847231E+00  0.870516E+00
  0.852917E+00  0.827277E+00  0.791772E+00  0.744410E+00  0.683598E+00  0.608849E+00
  0.521601E+00  0.426317E+00  0.331037E+00  0.245252E+00  0.175818E+00  0.124903E+00
  0.910503E-01  0.711363E-01  0.620888E-01  0.620888E-01  0.711363E-01  0.910503E-01
  0.124903E+00  0.175818E+00  0.245252E+00  0.331037E+00  0.426317E+00  0.521601E+00
  0.608849E+00  0.683598E+00  0.744410E+00  0.791772E+00  0.827277E+00  0.852917E+00
  0.870516E+00  0.881476E+00  0.886724E+00  0.886724E+00  0.881476E+00  0.870516E+00
  0.888546E+00  0.869174E+00  0.841629E+00  0.803921E+00  0.753962E+00  0.690167E+00
  0.612155E+00  0.521601E+00  0.423467E+00  0.326445E+00  0.240457E+00  0.172350E+00
  0.123849E+00  0.928909E-01  0.761236E-01  0.708653E-01  0.761236E-01  0.928909E-01
  0.123849E+00  0.172350E+00  0.240457E+00  0.326445E+00  0.423467E+00  0.521601E+00
  0.612155E+00  0.690167E+00  0.753962E+00  0.803921E+00  0.841629E+00  0.869174E+00
  0.888546E+00  0.901307E+00  0.908541E+00  0.910882E+00  0.908541E+00  0.901307E+00
  0.888546E+00  0.901455E+00  0.880071E+00  0.850280E+00  0.810011E+00  0.757150E+00
  0.690167E+00  0.608849E+00  0.515266E+00  0.415065E+00  0.317665E+00  0.233294E+00
  0.168361E+00  0.123697E+00  0.966659E-01  0.841102E-01  0.841102E-01  0.966659E-01
  0.123697E+00  0.168361E+00  0.233294E+00  0.317665E+00  0.415065E+00  0.515266E+00
  0.608849E+00  0.690167E+00  0.757150E+00  0.810011E+00  0.850280E+00  0.880071E+00
  0.901455E+00  0.916105E+00  0.925222E+00  0.929586E+00  0.929586E+00  0.925222E+00
  0.916105E+00  0.901455E+00  0.909232E+00  0.885539E+00  0.853169E+00  0.810011E+00
  0.753962E+00  0.683598E+00  0.599008E+00  0.502869E+00  0.401709E+00  0.305714E+00
  0.225048E+00  0.165035E+00  0.125397E+00  0.103316E+00  0.962713E-01  0.103316E+00
  0.125397E+00  0.165035E+00  0.225048E+00  0.305714E+00  0.401709E+00  0.502869E+00
  0.599008E+00  0.683598E+00  0.753962E+00  0.810011E+00  0.853169E+00  0.885539E+00
  0.909232E+00  0.925971E+00  0.937027E+00  0.943292E+00  0.945318E+00  0.943292E+00
  0.937027E+00  0.925971E+00  0.909232E+00  0.911831E+00  0.885539E+00  0.850280E+00
  0.803921E+00  0.744410E+00  0.670570E+00  0.583001E+00  0.485189E+00  0.384674E+00
  0.292243E+00  0.217317E+00  0.163607E+00  0.129979E+00  0.113966E+00  0.113966E+00
  0.129979E+00  0.163607E+00  0.217317E+00  0.292243E+00  0.384674E+00  0.485189E+00
  0.583001E+00  0.670570E+00  0.744410E+00  0.803921E+00  0.850280E+00  0.885539E+00
  0.911831E+00  0.930907E+00  0.944061E+00  0.952247E+00  0.956151E+00  0.956151E+00
  0.952247E+00  0.944061E+00  0.930907E+00  0.911831E+00  0.909232E+00  0.880071E+00
  0.841629E+00  0.791772E+00  0.728638E+00  0.651514E+00  0.561693E+00  0.463594E+00
  0.365787E+00  0.279165E+00  0.211619E+00  0.165197E+00  0.138504E+00  0.129829E+00
  0.138504E+00  0.165197E+00  0.211619E+00  0.279165E+00  0.365787E+00  0.463594E+00
  0.561693E+00  0.651514E+00  0.728638E+00  0.791772E+00  0.841629E+00  0.880071E+00
  0.909232E+00  0.930907E+00  0.946395E+00  0.956650E+00  0.962435E+00  0.964296E+00
  0.962435E+00  0.956650E+00  0.946395E+00  0.930907E+00  0.909232E+00  0.901455E+00
  0.869174E+00  0.827277E+00  0.773732E+00  0.707087E+00  0.627275E+00  0.536362E+00
  0.439792E+00  0.346987E+00  0.268136E+00  0.209087E+00  0.170709E+00  0.151939E+00
  0.151939E+00  0.170709E+00  0.209087E+00  0.268136E+00  0.346987E+00  0.439792E+00
  0.536362E+00  0.627275E+00  0.707087E+00  0.773732E+00  0.827277E+00  0.869174E+00
  0.901455E+00  0.925971E+00  0.944061E+00  0.956650E+00  0.964485E+00  0.968205E+00
  0.968205E+00  0.964485E+00  0.956650E+00  0.944061E+00  0.925971E+00  0.901455E+00
  0.888546E+00  0.852917E+00  0.807366E+00  0.750167E+00  0.680479E+00  0.598933E+00
  0.508428E+00  0.415512E+00  0.329933E+00  0.260280E+00  0.210423E+00  0.180788E+00
  0.170971E+00  0.180788E+00  0.210423E+00  0.260280E+00  0.329933E+00  0.415512E+00
  0.508428E+00  0.598933E+00  0.680479E+00  0.750167E+00  0.807366E+00  0.852917E+00
  0.888546E+00  0.916105E+00  0.937027E+00  0.952247E+00  0.962435E+00  0.968205E+00
  0.970060E+00  0.968205E+00  0.962435E+00  0.952247E+00  0.937027E+00  0.916105E+00
  0.888546E+00  0.870516E+00  0.831331E+00  0.782080E+00  0.721570E+00  0.649635E+00
  0.567592E+00  0.479330E+00  0.392362E+00  0.315838E+00  0.256219E+00  0.216013E+00
  0.195821E+00  0.195821E+00  0.216013E+00  0.256219E+00  0.315838E+00  0.392362E+00
  0.479330E+00  0.567592E+00  0.649635E+00  0.721570E+00  0.782080E+00  0.831331E+00
  0.870516E+00  0.901307E+00  0.925222E+00  0.943292E+00  0.956151E+00  0.964296E+00
  0.968205E+00  0.968205E+00  0.964296E+00  0.956151E+00  0.943292E+00  0.925222E+00
  0.901307E+00  0.870516E+00  0.847231E+00  0.804365E+00  0.751638E+00  0.688497E+00
  0.615394E+00  0.534423E+00  0.450587E+00  0.371730E+00  0.305439E+00  0.256219E+00
  0.226036E+00  0.215859E+00  0.226036E+00  0.256219E+00  0.305439E+00  0.371730E+00
  0.450587E+00  0.534423E+00  0.615394E+00  0.688497E+00  0.751638E+00  0.804365E+00
  0.847231E+00  0.881476E+00  0.908541E+00  0.929586E+00  0.945318E+00  0.956151E+00
  0.962435E+00  0.964485E+00  0.962435E+00  0.956151E+00  0.945318E+00  0.929586E+00
  0.908541E+00  0.881476E+00  0.847231E+00  0.818380E+00  0.771957E+00  0.716350E+00
  0.651578E+00  0.578695E+00  0.500785E+00  0.423688E+00  0.354538E+00  0.298971E+00
  0.260280E+00  0.240401E+00  0.240401E+00  0.260280E+00  0.298971E+00  0.354538E+00
  0.423688E+00  0.500785E+00  0.578695E+00  0.651578E+00  0.716350E+00  0.771957E+00
  0.818380E+00  0.856271E+00  0.886724E+00  0.910882E+00  0.929586E+00  0.943292E+00
  0.952247E+00  0.956650E+00  0.956650E+00  0.952247E+00  0.943292E+00  0.929586E+00
  0.910882E+00  0.886724E+00  0.856271E+00  0.818380E+00  0.783640E+00  0.734199E+00
  0.676670E+00  0.611545E+00  0.540677E+00  0.468131E+00  0.399717E+00  0.341058E+00
  0.296263E+00  0.268136E+00  0.258533E+00  0.268136E+00  0.296263E+00  0.341058E+00
  0.399717E+00  0.468131E+00  0.540677E+00  0.611545E+00  0.676670E+00  0.734199E+00
  0.783640E+00  0.825123E+00  0.859200E+00  0.886724E+00  0.908541E+00  0.925222E+00
  0.937027E+00  0.944061E+00  0.946395E+00  0.944061E+00  0.937027E+00  0.925222E+00
  0.908541E+00  0.886724E+00  0.859200E+00  0.825123E+00  0.783640E+00  0.742887E+00
  0.691368E+00  0.633130E+00  0.569300E+00  0.502683E+00  0.437682E+00  0.379088E+00
  0.331053E+00  0.296914E+00  0.279165E+00  0.279165E+00  0.296914E+00  0.331053E+00
  0.379088E+00  0.437682E+00  0.502683E+00  0.569300E+00  0.633130E+00  0.691368E+00
  0.742887E+00  0.787445E+00  0.825123E+00  0.856271E+00  0.881476E+00  0.901307E+00
  0.916105E+00  0.925971E+00  0.930907E+00  0.930907E+00  0.925971E+00  0.916105E+00
  0.901307E+00  0.881476E+00  0.856271E+00  0.825123E+00  0.787445E+00  0.742887E+00
  0.696202E+00  0.643805E+00  0.586439E+00  0.526112E+00  0.466115E+00  0.410136E+00
  0.361682E+00  0.324121E+00  0.300361E+00  0.292243E+00  0.300361E+00  0.324121E+00
  0.361682E+00  0.410136E+00  0.466115E+00  0.526112E+00  0.586439E+00  0.643805E+00
  0.696202E+00  0.742887E+00  0.783640E+00  0.818380E+00  0.847231E+00  0.870516E+00
  0.888546E+00  0.901455E+00  0.909232E+00  0.911831E+00  0.909232E+00  0.901455E+00
  0.888546E+00  0.870516E+00  0.847231E+00  0.818380E+00  0.783640E+00  0.742887E+00
  0.696202E+00  0.708408E+00  0.668868E+00  0.624232E+00  0.575505E+00  0.525078E+00
  0.476436E+00  0.433817E+00  0.401859E+00  0.384674E+00  0.384674E+00  0.401859E+00
  0.433817E+00  0.476436E+00  0.525078E+00  0.575505E+00  0.624232E+00  0.668868E+00
  0.708408E+00  0.742887E+00  0.772632E+00  0.797929E+00  0.819169E+00  0.836916E+00
  0.851650E+00  0.863434E+00  0.871856E+00  0.876291E+00  0.876291E+00  0.871856E+00
  0.863434E+00  0.851650E+00  0.836916E+00  0.819169E+00  0.797929E+00  0.772632E+00
  0.742887E+00  0.708408E+00  0.668868E+00  0.629920E+00  0.587415E+00  0.542904E+00
  0.498600E+00  0.457556E+00  0.423859E+00  0.401709E+00  0.394002E+00  0.401709E+00
  0.423859E+00  0.457556E+00  0.498600E+00  0.542904E+00  0.587415E+00  0.629920E+00
  0.668868E+00  0.703605E+00  0.734199E+00  0.760865E+00  0.783730E+00  0.803000E+00
  0.818992E+00  0.831886E+00  0.841543E+00  0.847584E+00  0.849646E+00  0.847584E+00
  0.841543E+00  0.831886E+00  0.818992E+00  0.803000E+00  0.783730E+00  0.760865E+00
  0.734199E+00  0.703605E+00  0.668868E+00  0.624232E+00  0.587415E+00  0.548909E+00
  0.510013E+00  0.472532E+00  0.439572E+00  0.415065E+00  0.402107E+00  0.402107E+00
  0.415065E+00  0.439572E+00  0.472532E+00  0.510013E+00  0.548909E+00  0.587415E+00
  0.624232E+00  0.658266E+00  0.688982E+00  0.716350E+00  0.740424E+00  0.761216E+00
  0.778789E+00  0.793206E+00  0.804360E+00  0.811996E+00  0.815873E+00  0.815873E+00
  0.811996E+00  0.804360E+00  0.793206E+00  0.778789E+00  0.761216E+00  0.740424E+00
  0.716350E+00  0.688982E+00  0.658266E+00  0.624232E+00  0.575505E+00  0.542904E+00
  0.510013E+00  0.477656E+00  0.447741E+00  0.423467E+00  0.407871E+00  0.402546E+00
  0.407871E+00  0.423467E+00  0.447741E+00  0.477656E+00  0.510013E+00  0.542904E+00
  0.575505E+00  0.607066E+00  0.636737E+00  0.663959E+00  0.688497E+00  0.710244E+00
  0.729141E+00  0.745125E+00  0.757992E+00  0.767405E+00  0.773099E+00  0.774995E+00
  0.773099E+00  0.767405E+00  0.757992E+00  0.745125E+00  0.729141E+00  0.710244E+00
  0.688497E+00  0.663959E+00  0.636737E+00  0.607066E+00  0.575505E+00  0.525078E+00
  0.498600E+00  0.472532E+00  0.447741E+00  0.426317E+00  0.410778E+00  0.402753E+00
  0.402753E+00  0.410778E+00  0.426317E+00  0.447741E+00  0.472532E+00  0.498600E+00
  0.525078E+00  0.551750E+00  0.578216E+00  0.603784E+00  0.627760E+00  0.649635E+00
  0.669144E+00  0.686171E+00  0.700498E+00  0.711682E+00  0.719263E+00  0.723045E+00
  0.723045E+00  0.719263E+00  0.711682E+00  0.700498E+00  0.686171E+00  0.669144E+00
  0.649635E+00  0.627760E+00  0.603784E+00  0.578216E+00  0.551750E+00  0.525078E+00
  0.476436E+00  0.457556E+00  0.439572E+00  0.423467E+00  0.410778E+00  0.402789E+00
  0.400088E+00  0.402789E+00  0.410778E+00  0.423467E+00  0.439572E+00  0.457556E+00
  0.476436E+00  0.496028E+00  0.516486E+00  0.537707E+00  0.559099E+00  0.579769E+00
  0.598933E+00  0.616176E+00  0.631262E+00  0.643764E+00  0.653061E+00  0.658698E+00
  0.660569E+00  0.658698E+00  0.653061E+00  0.643764E+00  0.631262E+00  0.616176E+00
  0.598933E+00  0.579769E+00  0.559099E+00  0.537707E+00  0.516486E+00  0.496028E+00
  0.476436E+00  0.433817E+00  0.423859E+00  0.415065E+00  0.407871E+00  0.402753E+00
  0.400088E+00  0.400088E+00  0.402753E+00  0.407871E+00  0.415065E+00  0.423859E+00
  0.433817E+00  0.444766E+00  0.456937E+00  0.470762E+00  0.486359E+00  0.503166E+00
  0.520146E+00  0.536362E+00  0.551240E+00  0.564277E+00  0.574767E+00  0.582001E+00
  0.585631E+00  0.585631E+00  0.582001E+00  0.574767E+00  0.564277E+00  0.551240E+00
  0.536362E+00  0.520146E+00  0.503166E+00  0.486359E+00  0.470762E+00  0.456937E+00
  0.444766E+00  0.433817E+00  0.401859E+00  0.401709E+00  0.402107E+00  0.402546E+00
  0.402753E+00  0.402789E+00  0.402753E+00  0.402546E+00  0.402107E+00  0.401709E+00
  0.401859E+00  0.402996E+00  0.405504E+00  0.409915E+00  0.416815E+00  0.426352E+00
  0.437967E+00  0.450686E+00  0.463594E+00  0.475896E+00  0.486670E+00  0.494920E+00
  0.499973E+00  0.501651E+00  0.499973E+00  0.494920E+00  0.486670E+00  0.475896E+00
  0.463594E+00  0.450686E+00  0.437967E+00  0.426352E+00  0.416815E+00  0.409915E+00
  0.405504E+00  0.402996E+00  0.401859E+00  0.384674E+00  0.394002E+00  0.402107E+00
  0.407871E+00  0.410778E+00  0.410778E+00  0.407871E+00  0.402107E+00  0.394002E+00
  0.384674E+00  0.375446E+00  0.367405E+00  0.361393E+00  0.358140E+00  0.358140E+00
  0.361393E+00  0.367405E+00  0.375446E+00  0.384674E+00  0.394002E+00  0.402107E+00
  0.407871E+00  0.410778E+00  0.410778E+00  0.407871E+00  0.402107E+00  0.394002E+00
  0.384674E+00  0.375446E+00  0.367405E+00  0.361393E+00  0.358140E+00  0.358140E+00
  0.361393E+00  0.367405E+00  0.375446E+00  0.384674E+00  0.384674E+00  0.401709E+00
  0.415065E+00  0.423467E+00  0.426317E+00  0.423467E+00  0.415065E+00  0.401709E+00
  0.384674E+00  0.365787E+00  0.346987E+00  0.329933E+00  0.315838E+00  0.305439E+00
  0.298971E+00  0.296263E+00  0.296914E+00  0.300361E+00  0.305714E+00  0.311663E+00
  0.316781E+00  0.320079E+00  0.321192E+00  0.320079E+00  0.316781E+00  0.311663E+00
  0.305714E+00  0.300361E+00  0.296914E+00  0.296263E+00  0.298971E+00  0.305439E+00
  0.315838E+00  0.329933E+00  0.346987E+00  0.365787E+00  0.384674E+00  0.401859E+00
  0.423859E+00  0.439572E+00  0.447741E+00  0.447741E+00  0.439572E+00  0.423859E+00
  0.401859E+00  0.375446E+00  0.346987E+00  0.318989E+00  0.293597E+00  0.272232E+00
  0.255519E+00  0.243483E+00  0.235823E+00  0.232079E+00  0.231575E+00  0.233294E+00
  0.235949E+00  0.238331E+00  0.239673E+00  0.239673E+00  0.238331E+00  0.235949E+00
  0.233294E+00  0.231575E+00  0.232079E+00  0.235823E+00  0.243483E+00  0.255519E+00
  0.272232E+00  0.293597E+00  0.318989E+00  0.346987E+00  0.375446E+00  0.401859E+00
  0.433817E+00  0.457556E+00  0.472532E+00  0.477656E+00  0.472532E+00  0.457556E+00
  0.433817E+00  0.402996E+00  0.367405E+00  0.329933E+00  0.293597E+00  0.260869E+00
  0.233257E+00  0.211341E+00  0.195030E+00  0.183820E+00  0.176953E+00  0.173487E+00
  0.172350E+00  0.172460E+00  0.172910E+00  0.173124E+00  0.172910E+00  0.172460E+00
  0.172350E+00  0.173487E+00  0.176953E+00  0.183820E+00  0.195030E+00  0.211341E+00
  0.233257E+00  0.260869E+00  0.293597E+00  0.329933E+00  0.367405E+00  0.402996E+00
  0.433817E+00  0.476436E+00  0.498600E+00  0.510013E+00  0.510013E+00  0.498600E+00
  0.476436E+00  0.444766E+00  0.405504E+00  0.361393E+00  0.315838E+00  0.272232E+00
  0.233257E+00  0.200556E+00  0.174733E+00  0.155522E+00  0.142065E+00  0.133230E+00
  0.127860E+00  0.124903E+00  0.123481E+00  0.122944E+00  0.122944E+00  0.123481E+00
  0.124903E+00  0.127860E+00  0.133230E+00  0.142065E+00  0.155522E+00  0.174733E+00
  0.200556E+00  0.233257E+00  0.272232E+00  0.315838E+00  0.361393E+00  0.405504E+00
  0.444766E+00  0.476436E+00  0.525078E+00  0.542904E+00  0.548909E+00  0.542904E+00
  0.525078E+00  0.496028E+00  0.456937E+00  0.409915E+00  0.358140E+00  0.305439E+00
  0.255519E+00  0.211341E+00  0.174733E+00  0.146226E+00  0.125226E+00  0.110481E+00
  0.100574E+00  0.942128E-01  0.903669E-01  0.883211E-01  0.876797E-01  0.883211E-01
  0.903669E-01  0.942128E-01  0.100574E+00  0.110481E+00  0.125226E+00  0.146226E+00
  0.174733E+00  0.211341E+00  0.255519E+00  0.305439E+00  0.358140E+00  0.409915E+00
  0.456937E+00  0.496028E+00  0.525078E+00  0.575505E+00  0.587415E+00  0.587415E+00
  0.575505E+00  0.551750E+00  0.516486E+00  0.470762E+00  0.416815E+00  0.358140E+00
  0.298971E+00  0.243483E+00  0.195030E+00  0.155522E+00  0.125226E+00  0.103162E+00
  0.877738E-01  0.774401E-01  0.707651E-01  0.667477E-01  0.648386E-01  0.648386E-01
  0.667477E-01  0.707651E-01  0.774401E-01  0.877738E-01  0.103162E+00  0.125226E+00
  0.155522E+00  0.195030E+00  0.243483E+00  0.298971E+00  0.358140E+00  0.416815E+00
  0.470762E+00  0.516486E+00  0.551750E+00  0.575505E+00  0.624232E+00  0.629920E+00
  0.624232E+00  0.607066E+00  0.578216E+00  0.537707E+00  0.486359E+00  0.426352E+00
  0.361393E+00  0.296263E+00  0.235823E+00  0.183820E+00  0.142065E+00  0.110481E+00
  0.877738E-01  0.721514E-01  0.618185E-01  0.553107E-01  0.516883E-01  0.505171E-01
  0.516883E-01  0.553107E-01  0.618185E-01  0.721514E-01  0.877738E-01  0.110481E+00
  0.142065E+00  0.183820E+00  0.235823E+00  0.296263E+00  0.361393E+00  0.426352E+00
  0.486359E+00  0.537707E+00  0.578216E+00  0.607066E+00  0.624232E+00  0.668868E+00
  0.668868E+00  0.658266E+00  0.636737E+00  0.603784E+00  0.559099E+00  0.503166E+00
  0.437967E+00  0.367405E+00  0.296914E+00  0.232079E+00  0.176953E+00  0.133230E+00
  0.100574E+00  0.774401E-01  0.618185E-01  0.517735E-01  0.458132E-01  0.430300E-01
  0.430300E-01  0.458132E-01  0.517735E-01  0.618185E-01  0.774401E-01  0.100574E+00
  0.133230E+00  0.176953E+00  0.232079E+00  0.296914E+00  0.367405E+00  0.437967E+00
  0.503166E+00  0.559099E+00  0.603784E+00  0.636737E+00  0.658266E+00  0.668868E+00
  0.708408E+00  0.703605E+00  0.688982E+00  0.663959E+00  0.627760E+00  0.579769E+00
  0.520146E+00  0.450686E+00  0.375446E+00  0.300361E+00  0.231575E+00  0.173487E+00
  0.127860E+00  0.942128E-01  0.707651E-01  0.553107E-01  0.458132E-01  0.407317E-01
  0.391398E-01  0.407317E-01  0.458132E-01  0.553107E-01  0.707651E-01  0.942128E-01
  0.127860E+00  0.173487E+00  0.231575E+00  0.300361E+00  0.375446E+00  0.450686E+00
  0.520146E+00  0.579769E+00  0.627760E+00  0.663959E+00  0.688982E+00  0.703605E+00
  0.708408E+00  0.742887E+00  0.734199E+00  0.716350E+00  0.688497E+00  0.649635E+00
  0.598933E+00  0.536362E+00  0.463594E+00  0.384674E+00  0.305714E+00  0.233294E+00
  0.172350E+00  0.124903E+00  0.903669E-01  0.667477E-01  0.516883E-01  0.430300E-01
  0.391398E-01  0.391398E-01  0.430300E-01  0.516883E-01  0.667477E-01  0.903669E-01
  0.124903E+00  0.172350E+00  0.233294E+00  0.305714E+00  0.384674E+00  0.463594E+00
  0.536362E+00  0.598933E+00  0.649635E+00  0.688497E+00  0.716350E+00  0.734199E+00
  0.742887E+00  0.742887E+00  0.772632E+00  0.760865E+00  0.740424E+00  0.710244E+00
  0.669144E+00  0.616176E+00  0.551240E+00  0.475896E+00  0.394002E+00  0.311663E+00
  0.235949E+00  0.172460E+00  0.123481E+00  0.883211E-01  0.648386E-01  0.505171E-01
  0.430300E-01  0.407317E-01  0.430300E-01  0.505171E-01  0.648386E-01  0.883211E-01
  0.123481E+00  0.172460E+00  0.235949E+00  0.311663E+00  0.394002E+00  0.475896E+00
  0.551240E+00  0.616176E+00  0.669144E+00  0.710244E+00  0.740424E+00  0.760865E+00
  0.772632E+00  0.776465E+00  0.772632E+00  0.797929E+00  0.783730E+00  0.761216E+00
  0.729141E+00  0.686171E+00  0.631262E+00  0.564277E+00  0.486670E+00  0.402107E+00
  0.316781E+00  0.238331E+00  0.172910E+00  0.122944E+00  0.876797E-01  0.648386E-01
  0.516883E-01  0.458132E-01  0.458132E-01  0.516883E-01  0.648386E-01  0.876797E-01
  0.122944E+00  0.172910E+00  0.238331E+00  0.316781E+00  0.402107E+00  0.486670E+00
  0.564277E+00  0.631262E+00  0.686171E+00  0.729141E+00  0.761216E+00  0.783730E+00
  0.797929E+00  0.804767E+00  0.804767E+00  0.797929E+00  0.819169E+00  0.803000E+00
  0.778789E+00  0.745125E+00  0.700498E+00  0.643764E+00  0.574767E+00  0.494920E+00
  0.407871E+00  0.320079E+00  0.239673E+00  0.173124E+00  0.122944E+00  0.883211E-01
  0.667477E-01  0.553107E-01  0.517735E-01  0.553107E-01  0.667477E-01  0.883211E-01
  0.122944E+00  0.173124E+00  0.239673E+00  0.320079E+00  0.407871E+00  0.494920E+00
  0.574767E+00  0.643764E+00  0.700498E+00  0.745125E+00  0.778789E+00  0.803000E+00
  0.819169E+00  0.828396E+00  0.831390E+00  0.828396E+00  0.819169E+00  0.836916E+00
  0.818992E+00  0.793206E+00  0.757992E+00  0.711682E+00  0.653061E+00  0.582001E+00
  0.499973E+00  0.410778E+00  0.321192E+00  0.239673E+00  0.172910E+00  0.123481E+00
  0.903669E-01  0.707651E-01  0.618185E-01  0.618185E-01  0.707651E-01  0.903669E-01
  0.123481E+00  0.172910E+00  0.239673E+00  0.321192E+00  0.410778E+00  0.499973E+00
  0.582001E+00  0.653061E+00  0.711682E+00  0.757992E+00  0.793206E+00  0.818992E+00
  0.836916E+00  0.848185E+00  0.853612E+00  0.853612E+00  0.848185E+00  0.836916E+00
  0.851650E+00  0.831886E+00  0.804360E+00  0.767405E+00  0.719263E+00  0.658698E+00
  0.585631E+00  0.501651E+00  0.410778E+00  0.320079E+00  0.238331E+00  0.172460E+00
  0.124903E+00  0.942128E-01  0.774401E-01  0.721514E-01  0.774401E-01  0.942128E-01
  0.124903E+00  0.172460E+00  0.238331E+00  0.320079E+00  0.410778E+00  0.501651E+00
  0.585631E+00  0.658698E+00  0.719263E+00  0.767405E+00  0.804360E+00  0.831886E+00
  0.851650E+00  0.864917E+00  0.872543E+00  0.875029E+00  0.872543E+00  0.864917E+00
  0.851650E+00  0.863434E+00  0.841543E+00  0.811996E+00  0.773099E+00  0.723045E+00
  0.660569E+00  0.585631E+00  0.499973E+00  0.407871E+00  0.316781E+00  0.235949E+00
  0.172350E+00  0.127860E+00  0.100574E+00  0.877738E-01  0.877738E-01  0.100574E+00
  0.127860E+00  0.172350E+00  0.235949E+00  0.316781E+00  0.407871E+00  0.499973E+00
  0.585631E+00  0.660569E+00  0.723045E+00  0.773099E+00  0.811996E+00  0.841543E+00
  0.863434E+00  0.878923E+00  0.888829E+00  0.893656E+00  0.893656E+00  0.888829E+00
  0.878923E+00  0.863434E+00  0.871856E+00  0.847584E+00  0.815873E+00  0.774995E+00
  0.723045E+00  0.658698E+00  0.582001E+00  0.494920E+00  0.402107E+00  0.311663E+00
  0.233294E+00  0.173487E+00  0.133230E+00  0.110481E+00  0.103162E+00  0.110481E+00
  0.133230E+00  0.173487E+00  0.233294E+00  0.311663E+00  0.402107E+00  0.494920E+00
  0.582001E+00  0.658698E+00  0.723045E+00  0.774995E+00  0.815873E+00  0.847584E+00
  0.871856E+00  0.889881E+00  0.902353E+00  0.909675E+00  0.912087E+00  0.909675E+00
  0.902353E+00  0.889881E+00  0.871856E+00  0.876291E+00  0.849646E+00  0.815873E+00
  0.773099E+00  0.719263E+00  0.653061E+00  0.574767E+00  0.486670E+00  0.394002E+00
  0.305714E+00  0.231575E+00  0.176953E+00  0.142065E+00  0.125226E+00  0.125226E+00
  0.142065E+00  0.176953E+00  0.231575E+00  0.305714E+00  0.394002E+00  0.486670E+00
  0.574767E+00  0.653061E+00  0.719263E+00  0.773099E+00  0.815873E+00  0.849646E+00
  0.876291E+00  0.896997E+00  0.912300E+00  0.922395E+00  0.927398E+00  0.927398E+00
  0.922395E+00  0.912300E+00  0.896997E+00  0.876291E+00  0.876291E+00  0.847584E+00
  0.811996E+00  0.767405E+00  0.711682E+00  0.643764E+00  0.564277E+00  0.475896E+00
  0.384674E+00  0.300361E+00  0.232079E+00  0.183820E+00  0.155522E+00  0.146226E+00
  0.155522E+00  0.183820E+00  0.232079E+00  0.300361E+00  0.384674E+00  0.475896E+00
  0.564277E+00  0.643764E+00  0.711682E+00  0.767405E+00  0.811996E+00  0.847584E+00
  0.876291E+00  0.899477E+00  0.917622E+00  0.930672E+00  0.938496E+00  0.941094E+00
  0.938496E+00  0.930672E+00  0.917622E+00  0.899477E+00  0.876291E+00  0.871856E+00
  0.841543E+00  0.804360E+00  0.757992E+00  0.700498E+00  0.631262E+00  0.551240E+00
  0.463594E+00  0.375446E+00  0.296914E+00  0.235823E+00  0.195030E+00  0.174733E+00
  0.174733E+00  0.195030E+00  0.235823E+00  0.296914E+00  0.375446E+00  0.463594E+00
  0.551240E+00  0.631262E+00  0.700498E+00  0.757992E+00  0.804360E+00  0.841543E+00
  0.871856E+00  0.896997E+00  0.917622E+00  0.933549E+00  0.944323E+00  0.949711E+00
  0.949711E+00  0.944323E+00  0.933549E+00  0.917622E+00  0.896997E+00  0.871856E+00
  0.863434E+00  0.831886E+00  0.793206E+00  0.745125E+00  0.686171E+00  0.616176E+00
  0.536362E+00  0.450686E+00  0.367405E+00  0.296263E+00  0.243483E+00  0.211341E+00
  0.200556E+00  0.211341E+00  0.243483E+00  0.296263E+00  0.367405E+00  0.450686E+00
  0.536362E+00  0.616176E+00  0.686171E+00  0.745125E+00  0.793206E+00  0.831886E+00
  0.863434E+00  0.889881E+00  0.912300E+00  0.930672E+00  0.944323E+00  0.952636E+00
  0.955406E+00  0.952636E+00  0.944323E+00  0.930672E+00  0.912300E+00  0.889881E+00
  0.863434E+00  0.851650E+00  0.818992E+00  0.778789E+00  0.729141E+00  0.669144E+00
  0.598933E+00  0.520146E+00  0.437967E+00  0.361393E+00  0.298971E+00  0.255519E+00
  0.233257E+00  0.233257E+00  0.255519E+00  0.298971E+00  0.361393E+00  0.437967E+00
  0.520146E+00  0.598933E+00  0.669144E+00  0.729141E+00  0.778789E+00  0.818992E+00
  0.851650E+00  0.878923E+00  0.902353E+00  0.922395E+00  0.938496E+00  0.949711E+00
  0.955406E+00  0.955406E+00  0.949711E+00  0.938496E+00  0.922395E+00  0.902353E+00
  0.878923E+00  0.851650E+00  0.836916E+00  0.803000E+00  0.761216E+00  0.710244E+00
  0.649635E+00  0.579769E+00  0.503166E+00  0.426352E+00  0.358140E+00  0.305439E+00
  0.272232E+00  0.260869E+00  0.272232E+00  0.305439E+00  0.358140E+00  0.426352E+00
  0.503166E+00  0.579769E+00  0.649635E+00  0.710244E+00  0.761216E+00  0.803000E+00
  0.836916E+00  0.864917E+00  0.888829E+00  0.909675E+00  0.927398E+00  0.941094E+00
  0.949711E+00  0.952636E+00  0.949711E+00  0.941094E+00  0.927398E+00  0.909675E+00
  0.888829E+00  0.864917E+00  0.836916E+00  0.819169E+00  0.783730E+00  0.740424E+00
  0.688497E+00  0.627760E+00  0.559099E+00  0.486359E+00  0.416815E+00  0.358140E+00
  0.315838E+00  0.293597E+00  0.293597E+00  0.315838E+00  0.358140E+00  0.416815E+00
  0.486359E+00  0.559099E+00  0.627760E+00  0.688497E+00  0.740424E+00  0.783730E+00
  0.819169E+00  0.848185E+00  0.872543E+00  0.893656E+00  0.912087E+00  0.927398E+00
  0.938496E+00  0.944323E+00  0.944323E+00  0.938496E+00  0.927398E+00  0.912087E+00
  0.893656E+00  0.872543E+00  0.848185E+00  0.819169E+00  0.797929E+00  0.760865E+00
  0.716350E+00  0.663959E+00  0.603784E+00  0.537707E+00  0.470762E+00  0.409915E+00
  0.361393E+00  0.329933E+00  0.318989E+00  0.329933E+00  0.361393E+00  0.409915E+00
  0.470762E+00  0.537707E+00  0.603784E+00  0.663959E+00  0.716350E+00  0.760865E+00
  0.797929E+00  0.828396E+00  0.853612E+00  0.875029E+00  0.893656E+00  0.909675E+00
  0.922395E+00  0.930672E+00  0.933549E+00  0.930672E+00  0.922395E+00  0.909675E+00
  0.893656E+00  0.875029E+00  0.853612E+00  0.828396E+00  0.797929E+00  0.772632E+00
  0.734199E+00  0.688982E+00  0.636737E+00  0.578216E+00  0.516486E+00  0.456937E+00
  0.405504E+00  0.367405E+00  0.346987E+00  0.346987E+00  0.367405E+00  0.405504E+00
  0.456937E+00  0.516486E+00  0.578216E+00  0.636737E+00  0.688982E+00  0.734199E+00
  0.772632E+00  0.804767E+00  0.831390E+00  0.853612E+00  0.872543E+00  0.888829E+00
  0.902353E+00  0.912300E+00  0.917622E+00  0.917622E+00  0.912300E+00  0.902353E+00
  0.888829E+00  0.872543E+00  0.853612E+00  0.831390E+00  0.804767E+00  0.772632E+00
  0.742887E+00  0.703605E+00  0.658266E+00  0.607066E+00  0.551750E+00  0.496028E+00
  0.444766E+00  0.402996E+00  0.375446E+00  0.365787E+00  0.375446E+00  0.402996E+00
  0.444766E+00  0.496028E+00  0.551750E+00  0.607066E+00  0.658266E+00  0.703605E+00
  0.742887E+00  0.776465E+00  0.804767E+00  0.828396E+00  0.848185E+00  0.864917E+00
  0.878923E+00  0.889881E+00  0.896997E+00  0.899477E+00  0.896997E+00  0.889881E+00
  0.878923E+00  0.864917E+00  0.848185E+00  0.828396E+00  0.804767E+00  0.776465E+00
  0.742887E+00  0.708408E+00  0.668868E+00  0.624232E+00  0.575505E+00  0.525078E+00
  0.476436E+00  0.433817E+00  0.401859E+00  0.384674E+00  0.384674E+00  0.401859E+00
  0.433817E+00  0.476436E+00  0.525078E+00  0.575505E+00  0.624232E+00  0.668868E+00
  0.708408E+00  0.742887E+00  0.772632E+00  0.797929E+00  0.819169E+00  0.836916E+00
  0.851650E+00  0.863434E+00  0.871856E+00  0.876291E+00  0.876291E+00  0.871856E+00
  0.863434E+00  0.851650E+00  0.836916E+00  0.819169E+00  0.797929E+00  0.772632E+00
  0.742887E+00  0.708408E+00  0.741358E+00  0.712363E+00  0.677257E+00  0.636494E+00
  0.592350E+00  0.548807E+00  0.511129E+00  0.485189E+00  0.475896E+00  0.485189E+00
  0.511129E+00  0.548807E+00  0.592350E+00  0.636494E+00  0.677257E+00  0.712363E+00
  0.741358E+00  0.764890E+00  0.783640E+00  0.797929E+00  0.808082E+00  0.814823E+00
  0.819209E+00  0.822259E+00  0.824561E+00  0.826147E+00  0.826732E+00  0.826147E+00
  0.824561E+00  0.822259E+00  0.819209E+00  0.814823E+00  0.808082E+00  0.797929E+00
  0.783640E+00  0.764890E+00  0.741358E+00  0.712363E+00  0.682859E+00  0.648185E+00
  0.609557E+00  0.569526E+00  0.532190E+00  0.502869E+00  0.486670E+00  0.486670E+00
  0.502869E+00  0.532190E+00  0.569526E+00  0.609557E+00  0.648185E+00  0.682859E+00
  0.712363E+00  0.736650E+00  0.756335E+00  0.771957E+00  0.783730E+00  0.791909E+00
  0.797124E+00  0.800266E+00  0.802133E+00  0.803211E+00  0.803713E+00  0.803713E+00
  0.803211E+00  0.802133E+00  0.800266E+00  0.797124E+00  0.791909E+00  0.783730E+00
  0.771957E+00  0.756335E+00  0.736650E+00  0.712363E+00  0.677257E+00  0.648185E+00
  0.615338E+00  0.580113E+00  0.545284E+00  0.515266E+00  0.494920E+00  0.487737E+00
  0.494920E+00  0.515266E+00  0.545284E+00  0.580113E+00  0.615338E+00  0.648185E+00
  0.677257E+00  0.701939E+00  0.722272E+00  0.738712E+00  0.751638E+00  0.761216E+00
  0.767722E+00  0.771741E+00  0.773987E+00  0.775073E+00  0.775474E+00  0.775557E+00
  0.775474E+00  0.775073E+00  0.773987E+00  0.771741E+00  0.767722E+00  0.761216E+00
  0.751638E+00  0.738712E+00  0.722272E+00  0.701939E+00  0.677257E+00  0.636494E+00
  0.609557E+00  0.580113E+00  0.549721E+00  0.521601E+00  0.499973E+00  0.488308E+00
  0.488308E+00  0.499973E+00  0.521601E+00  0.549721E+00  0.580113E+00  0.609557E+00
  0.636494E+00  0.660301E+00  0.680650E+00  0.697512E+00  0.711089E+00  0.721570E+00
  0.729141E+00  0.734179E+00  0.737237E+00  0.738850E+00  0.739487E+00  0.739624E+00
  0.739624E+00  0.739487E+00  0.738850E+00  0.737237E+00  0.734179E+00  0.729141E+00
  0.721570E+00  0.711089E+00  0.697512E+00  0.680650E+00  0.660301E+00  0.636494E+00
  0.592350E+00  0.569526E+00  0.545284E+00  0.521601E+00  0.501651E+00  0.488490E+00
  0.483928E+00  0.488490E+00  0.501651E+00  0.521601E+00  0.545284E+00  0.569526E+00
  0.592350E+00  0.613096E+00  0.631625E+00  0.647787E+00  0.661396E+00  0.672303E+00
  0.680479E+00  0.686171E+00  0.689879E+00  0.692111E+00  0.693241E+00  0.693633E+00
  0.693698E+00  0.693633E+00  0.693241E+00  0.692111E+00  0.689879E+00  0.686171E+00
  0.680479E+00  0.672303E+00  0.661396E+00  0.647787E+00  0.631625E+00  0.613096E+00
  0.592350E+00  0.548807E+00  0.532190E+00  0.515266E+00  0.499973E+00  0.488490E+00
  0.482394E+00  0.482394E+00  0.488490E+00  0.499973E+00  0.515266E+00  0.532190E+00
  0.548807E+00  0.564139E+00  0.578122E+00  0.591005E+00  0.602790E+00  0.613075E+00
  0.621313E+00  0.627275E+00  0.631262E+00  0.633817E+00  0.635341E+00  0.636073E+00
  0.636300E+00  0.636300E+00  0.636073E+00  0.635341E+00  0.633817E+00  0.631262E+00
  0.627275E+00  0.621313E+00  0.613075E+00  0.602790E+00  0.591005E+00  0.578122E+00
  0.564139E+00  0.548807E+00  0.511129E+00  0.502869E+00  0.494920E+00  0.488308E+00
  0.483928E+00  0.482394E+00  0.483928E+00  0.488308E+00  0.494920E+00  0.502869E+00
  0.511129E+00  0.518853E+00  0.525774E+00  0.532288E+00  0.538975E+00  0.545913E+00
  0.552474E+00  0.557842E+00  0.561693E+00  0.564277E+00  0.565966E+00  0.566943E+00
  0.567355E+00  0.567446E+00  0.567355E+00  0.566943E+00  0.565966E+00  0.564277E+00
  0.561693E+00  0.557842E+00  0.552474E+00  0.545913E+00  0.538975E+00  0.532288E+00
  0.525774E+00  0.518853E+00  0.511129E+00  0.485189E+00  0.486670E+00  0.487737E+00
  0.488308E+00  0.488490E+00  0.488490E+00  0.488308E+00  0.487737E+00  0.486670E+00
  0.485189E+00  0.483344E+00  0.481145E+00  0.478920E+00  0.477448E+00  0.477448E+00
  0.478920E+00  0.481145E+00  0.483344E+00  0.485189E+00  0.486670E+00  0.487737E+00
  0.488308E+00  0.488490E+00  0.488490E+00  0.488308E+00  0.487737E+00  0.486670E+00
  0.485189E+00  0.483344E+00  0.481145E+00  0.478920E+00  0.477448E+00  0.477448E+00
  0.478920E+00  0.481145E+00  0.483344E+00  0.485189E+00  0.475896E+00  0.486670E+00
  0.494920E+00  0.499973E+00  0.501651E+00  0.499973E+00  0.494920E+00  0.486670E+00
  0.475896E+00  0.463594E+00  0.450686E+00  0.437967E+00  0.426352E+00  0.416815E+00
  0.409915E+00  0.405504E+00  0.402996E+00  0.401859E+00  0.401709E+00  0.402107E+00
  0.402546E+00  0.402753E+00  0.402789E+00  0.402753E+00  0.402546E+00  0.402107E+00
  0.401709E+00  0.401859E+00  0.402996E+00  0.405504E+00  0.409915E+00  0.416815E+00
  0.426352E+00  0.437967E+00  0.450686E+00  0.463594E+00  0.475896E+00  0.485189E+00
  0.502869E+00  0.515266E+00  0.521601E+00  0.521601E+00  0.515266E+00  0.502869E+00
  0.485189E+00  0.463594E+00  0.439792E+00  0.415512E+00  0.392362E+00  0.371730E+00
  0.354538E+00  0.341058E+00  0.331053E+00  0.324121E+00  0.319849E+00  0.317665E+00
  0.316781E+00  0.316458E+00  0.316323E+00  0.316323E+00  0.316458E+00  0.316781E+00
  0.317665E+00  0.319849E+00  0.324121E+00  0.331053E+00  0.341058E+00  0.354538E+00
  0.371730E+00  0.392362E+00  0.415512E+00  0.439792E+00  0.463594E+00  0.485189E+00
  0.511129E+00  0.532190E+00  0.545284E+00  0.549721E+00  0.545284E+00  0.532190E+00
  0.511129E+00  0.483344E+00  0.450686E+00  0.415512E+00  0.380383E+00  0.347614E+00
  0.318864E+00  0.294936E+00  0.275912E+00  0.261481E+00  0.251185E+00  0.244441E+00
  0.240457E+00  0.238331E+00  0.237321E+00  0.237021E+00  0.237321E+00  0.238331E+00
  0.240457E+00  0.244441E+00  0.251185E+00  0.261481E+00  0.275912E+00  0.294936E+00
  0.318864E+00  0.347614E+00  0.380383E+00  0.415512E+00  0.450686E+00  0.483344E+00
  0.511129E+00  0.548807E+00  0.569526E+00  0.580113E+00  0.580113E+00  0.569526E+00
  0.548807E+00  0.518853E+00  0.481145E+00  0.437967E+00  0.392362E+00  0.347614E+00
  0.306530E+00  0.270956E+00  0.241692E+00  0.218708E+00  0.201467E+00  0.189184E+00
  0.180953E+00  0.175818E+00  0.172910E+00  0.171608E+00  0.171608E+00  0.172910E+00
  0.175818E+00  0.180953E+00  0.189184E+00  0.201467E+00  0.218708E+00  0.241692E+00
  0.270956E+00  0.306530E+00  0.347614E+00  0.392362E+00  0.437967E+00  0.481145E+00
  0.518853E+00  0.548807E+00  0.592350E+00  0.609557E+00  0.615338E+00  0.609557E+00
  0.592350E+00  0.564139E+00  0.525774E+00  0.478920E+00  0.426352E+00  0.371730E+00
  0.318864E+00  0.270956E+00  0.230108E+00  0.197159E+00  0.171861E+00  0.153291E+00
  0.140247E+00  0.131505E+00  0.125991E+00  0.122944E+00  0.121966E+00  0.122944E+00
  0.125991E+00  0.131505E+00  0.140247E+00  0.153291E+00  0.171861E+00  0.197159E+00
  0.230108E+00  0.270956E+00  0.318864E+00  0.371730E+00  0.426352E+00  0.478920E+00
  0.525774E+00  0.564139E+00  0.592350E+00  0.636494E+00  0.648185E+00  0.648185E+00
  0.636494E+00  0.613096E+00  0.578122E+00  0.532288E+00  0.477448E+00  0.416815E+00
  0.354538E+00  0.294936E+00  0.241692E+00  0.197159E+00  0.162057E+00  0.135769E+00
  0.116948E+00  0.104008E+00  0.954644E-01  0.902148E-01  0.876797E-01  0.876797E-01
  0.902148E-01  0.954644E-01  0.104008E+00  0.116948E+00  0.135769E+00  0.162057E+00
  0.197159E+00  0.241692E+00  0.294936E+00  0.354538E+00  0.416815E+00  0.477448E+00
  0.532288E+00  0.578122E+00  0.613096E+00  0.636494E+00  0.677257E+00  0.682859E+00
  0.677257E+00  0.660301E+00  0.631625E+00  0.591005E+00  0.538975E+00  0.477448E+00
  0.409915E+00  0.341058E+00  0.275912E+00  0.218708E+00  0.171861E+00  0.135769E+00
  0.109394E+00  0.909892E-01  0.786511E-01  0.707612E-01  0.662978E-01  0.648386E-01
  0.662978E-01  0.707612E-01  0.786511E-01  0.909892E-01  0.109394E+00  0.135769E+00
  0.171861E+00  0.218708E+00  0.275912E+00  0.341058E+00  0.409915E+00  0.477448E+00
  0.538975E+00  0.591005E+00  0.631625E+00  0.660301E+00  0.677257E+00  0.712363E+00
  0.712363E+00  0.701939E+00  0.680650E+00  0.647787E+00  0.602790E+00  0.545913E+00
  0.478920E+00  0.405504E+00  0.331053E+00  0.261481E+00  0.201467E+00  0.153291E+00
  0.116948E+00  0.909892E-01  0.733228E-01  0.618510E-01  0.549524E-01  0.516883E-01
  0.516883E-01  0.549524E-01  0.618510E-01  0.733228E-01  0.909892E-01  0.116948E+00
  0.153291E+00  0.201467E+00  0.261481E+00  0.331053E+00  0.405504E+00  0.478920E+00
  0.545913E+00  0.602790E+00  0.647787E+00  0.680650E+00  0.701939E+00  0.712363E+00
  0.741358E+00  0.736650E+00  0.722272E+00  0.697512E+00  0.661396E+00  0.613075E+00
  0.552474E+00  0.481145E+00  0.402996E+00  0.324121E+00  0.251185E+00  0.189184E+00
  0.140247E+00  0.104008E+00  0.786511E-01  0.618510E-01  0.514414E-01  0.458132E-01
  0.440359E-01  0.458132E-01  0.514414E-01  0.618510E-01  0.786511E-01  0.104008E+00
  0.140247E+00  0.189184E+00  0.251185E+00  0.324121E+00  0.402996E+00  0.481145E+00
  0.552474E+00  0.613075E+00  0.661396E+00  0.697512E+00  0.722272E+00  0.736650E+00
  0.741358E+00  0.764890E+00  0.756335E+00  0.738712E+00  0.711089E+00  0.672303E+00
  0.621313E+00  0.557842E+00  0.483344E+00  0.401859E+00  0.319849E+00  0.244441E+00
  0.180953E+00  0.131505E+00  0.954644E-01  0.707612E-01  0.549524E-01  0.458132E-01
  0.416834E-01  0.416834E-01  0.458132E-01  0.549524E-01  0.707612E-01  0.954644E-01
  0.131505E+00  0.180953E+00  0.244441E+00  0.319849E+00  0.401859E+00  0.483344E+00
  0.557842E+00  0.621313E+00  0.672303E+00  0.711089E+00  0.738712E+00  0.756335E+00
  0.764890E+00  0.764890E+00  0.783640E+00  0.771957E+00  0.751638E+00  0.721570E+00
  0.680479E+00  0.627275E+00  0.561693E+00  0.485189E+00  0.401709E+00  0.317665E+00
  0.240457E+00  0.175818E+00  0.125991E+00  0.902148E-01  0.662978E-01  0.516883E-01
  0.440359E-01  0.416834E-01  0.440359E-01  0.516883E-01  0.662978E-01  0.902148E-01
  0.125991E+00  0.175818E+00  0.240457E+00  0.317665E+00  0.401709E+00  0.485189E+00
  0.561693E+00  0.627275E+00  0.680479E+00  0.721570E+00  0.751638E+00  0.771957E+00
  0.783640E+00  0.787445E+00  0.783640E+00  0.797929E+00  0.783730E+00  0.761216E+00
  0.729141E+00  0.686171E+00  0.631262E+00  0.564277E+00  0.486670E+00  0.402107E+00
  0.316781E+00  0.238331E+00  0.172910E+00  0.122944E+00  0.876797E-01  0.648386E-01
  0.516883E-01  0.458132E-01  0.458132E-01  0.516883E-01  0.648386E-01  0.876797E-01
  0.122944E+00  0.172910E+00  0.238331E+00  0.316781E+00  0.402107E+00  0.486670E+00
  0.564277E+00  0.631262E+00  0.686171E+00  0.729141E+00  0.761216E+00  0.783730E+00
  0.797929E+00  0.804767E+00  0.804767E+00  0.797929E+00  0.808082E+00  0.791909E+00
  0.767722E+00  0.734179E+00  0.689879E+00  0.633817E+00  0.565966E+00  0.487737E+00
  0.402546E+00  0.316458E+00  0.237321E+00  0.171608E+00  0.121966E+00  0.876797E-01
  0.662978E-01  0.549524E-01  0.514414E-01  0.549524E-01  0.662978E-01  0.876797E-01
  0.121966E+00  0.171608E+00  0.237321E+00  0.316458E+00  0.402546E+00  0.487737E+00
  0.565966E+00  0.633817E+00  0.689879E+00  0.734179E+00  0.767722E+00  0.791909E+00
  0.808082E+00  0.817315E+00  0.820310E+00  0.817315E+00  0.808082E+00  0.814823E+00
  0.797124E+00  0.771741E+00  0.737237E+00  0.692111E+00  0.635341E+00  0.566943E+00
  0.488308E+00  0.402753E+00  0.316323E+00  0.237021E+00  0.171608E+00  0.122944E+00
  0.902148E-01  0.707612E-01  0.618510E-01  0.618510E-01  0.707612E-01  0.902148E-01
  0.122944E+00  0.171608E+00  0.237021E+00  0.316323E+00  0.402753E+00  0.488308E+00
  0.566943E+00  0.635341E+00  0.692111E+00  0.737237E+00  0.771741E+00  0.797124E+00
  0.814823E+00  0.825964E+00  0.831330E+00  0.831330E+00  0.825964E+00  0.814823E+00
  0.819209E+00  0.800266E+00  0.773987E+00  0.738850E+00  0.693241E+00  0.636073E+00
  0.567355E+00  0.488490E+00  0.402789E+00  0.316323E+00  0.237321E+00  0.172910E+00
  0.125991E+00  0.954644E-01  0.786511E-01  0.733228E-01  0.786511E-01  0.954644E-01
  0.125991E+00  0.172910E+00  0.237321E+00  0.316323E+00  0.402789E+00  0.488490E+00
  0.567355E+00  0.636073E+00  0.693241E+00  0.738850E+00  0.773987E+00  0.800266E+00
  0.819209E+00  0.831960E+00  0.839294E+00  0.841684E+00  0.839294E+00  0.831960E+00
  0.819209E+00  0.822259E+00  0.802133E+00  0.775073E+00  0.739487E+00  0.693633E+00
  0.636300E+00  0.567446E+00  0.488490E+00  0.402753E+00  0.316458E+00  0.238331E+00
  0.175818E+00  0.131505E+00  0.104008E+00  0.909892E-01  0.909892E-01  0.104008E+00
  0.131505E+00  0.175818E+00  0.238331E+00  0.316458E+00  0.402753E+00  0.488490E+00
  0.567446E+00  0.636300E+00  0.693633E+00  0.739487E+00  0.775073E+00  0.802133E+00
  0.822259E+00  0.836570E+00  0.845759E+00  0.850245E+00  0.850245E+00  0.845759E+00
  0.836570E+00  0.822259E+00  0.824561E+00  0.803211E+00  0.775474E+00  0.739624E+00
  0.693698E+00  0.636300E+00  0.567355E+00  0.488308E+00  0.402546E+00  0.316781E+00
  0.240457E+00  0.180953E+00  0.140247E+00  0.116948E+00  0.109394E+00  0.116948E+00
  0.140247E+00  0.180953E+00  0.240457E+00  0.316781E+00  0.402546E+00  0.488308E+00
  0.567355E+00  0.636300E+00  0.693698E+00  0.739624E+00  0.775474E+00  0.803211E+00
  0.824561E+00  0.840627E+00  0.851935E+00  0.858674E+00  0.860913E+00  0.858674E+00
  0.851935E+00  0.840627E+00  0.824561E+00  0.826147E+00  0.803713E+00  0.775557E+00
  0.739624E+00  0.693633E+00  0.636073E+00  0.566943E+00  0.487737E+00  0.402107E+00
  0.317665E+00  0.244441E+00  0.189184E+00  0.153291E+00  0.135769E+00  0.135769E+00
  0.153291E+00  0.189184E+00  0.244441E+00  0.317665E+00  0.402107E+00  0.487737E+00
  0.566943E+00  0.636073E+00  0.693633E+00  0.739624E+00  0.775557E+00  0.803713E+00
  0.826147E+00  0.844128E+00  0.858063E+00  0.867735E+00  0.872717E+00  0.872717E+00
  0.867735E+00  0.858063E+00  0.844128E+00  0.826147E+00  0.826732E+00  0.803713E+00
  0.775474E+00  0.739487E+00  0.693241E+00  0.635341E+00  0.565966E+00  0.486670E+00
  0.401709E+00  0.319849E+00  0.251185E+00  0.201467E+00  0.171861E+00  0.162057E+00
  0.171861E+00  0.201467E+00  0.251185E+00  0.319849E+00  0.401709E+00  0.486670E+00
  0.565966E+00  0.635341E+00  0.693241E+00  0.739487E+00  0.775474E+00  0.803713E+00
  0.826732E+00  0.846287E+00  0.863012E+00  0.876382E+00  0.885164E+00  0.888233E+00
  0.885164E+00  0.876382E+00  0.863012E+00  0.846287E+00  0.826732E+00  0.826147E+00
  0.803211E+00  0.775073E+00  0.738850E+00  0.692111E+00  0.633817E+00  0.564277E+00
  0.485189E+00  0.401859E+00  0.324121E+00  0.261481E+00  0.218708E+00  0.197159E+00
  0.197159E+00  0.218708E+00  0.261481E+00  0.324121E+00  0.401859E+00  0.485189E+00
  0.564277E+00  0.633817E+00  0.692111E+00  0.738850E+00  0.775073E+00  0.803211E+00
  0.826147E+00  0.846287E+00  0.864962E+00  0.881905E+00  0.895241E+00  0.902628E+00
  0.902628E+00  0.895241E+00  0.881905E+00  0.864962E+00  0.846287E+00  0.826147E+00
  0.824561E+00  0.802133E+00  0.773987E+00  0.737237E+00  0.689879E+00  0.631262E+00
  0.561693E+00  0.483344E+00  0.402996E+00  0.331053E+00  0.275912E+00  0.241692E+00
  0.230108E+00  0.241692E+00  0.275912E+00  0.331053E+00  0.402996E+00  0.483344E+00
  0.561693E+00  0.631262E+00  0.689879E+00  0.737237E+00  0.773987E+00  0.802133E+00
  0.824561E+00  0.844128E+00  0.863012E+00  0.881905E+00  0.899163E+00  0.911439E+00
  0.915868E+00  0.911439E+00  0.899163E+00  0.881905E+00  0.863012E+00  0.844128E+00
  0.824561E+00  0.822259E+00  0.800266E+00  0.771741E+00  0.734179E+00  0.686171E+00
  0.627275E+00  0.557842E+00  0.481145E+00  0.405504E+00  0.341058E+00  0.294936E+00
  0.270956E+00  0.270956E+00  0.294936E+00  0.341058E+00  0.405504E+00  0.481145E+00
  0.557842E+00  0.627275E+00  0.686171E+00  0.734179E+00  0.771741E+00  0.800266E+00
  0.822259E+00  0.840627E+00  0.858063E+00  0.876382E+00  0.895241E+00  0.911439E+00
  0.920791E+00  0.920791E+00  0.911439E+00  0.895241E+00  0.876382E+00  0.858063E+00
  0.840627E+00  0.822259E+00  0.819209E+00  0.797124E+00  0.767722E+00  0.729141E+00
  0.680479E+00  0.621313E+00  0.552474E+00  0.478920E+00  0.409915E+00  0.354538E+00
  0.318864E+00  0.306530E+00  0.318864E+00  0.354538E+00  0.409915E+00  0.478920E+00
  0.552474E+00  0.621313E+00  0.680479E+00  0.729141E+00  0.767722E+00  0.797124E+00
  0.819209E+00  0.836570E+00  0.851935E+00  0.867735E+00  0.885164E+00  0.902628E+00
  0.915868E+00  0.920791E+00  0.915868E+00  0.902628E+00  0.885164E+00  0.867735E+00
  0.851935E+00  0.836570E+00  0.819209E+00  0.814823E+00  0.791909E+00  0.761216E+00
  0.721570E+00  0.672303E+00  0.613075E+00  0.545913E+00  0.477448E+00  0.416815E+00
  0.371730E+00  0.347614E+00  0.347614E+00  0.371730E+00  0.416815E+00  0.477448E+00
  0.545913E+00  0.613075E+00  0.672303E+00  0.721570E+00  0.761216E+00  0.791909E+00
  0.814823E+00  0.831960E+00  0.845759E+00  0.858674E+00  0.872717E+00  0.888233E+00
  0.902628E+00  0.911439E+00  0.911439E+00  0.902628E+00  0.888233E+00  0.872717E+00
  0.858674E+00  0.845759E+00  0.831960E+00  0.814823E+00  0.808082E+00  0.783730E+00
  0.751638E+00  0.711089E+00  0.661396E+00  0.602790E+00  0.538975E+00  0.477448E+00
  0.426352E+00  0.392362E+00  0.380383E+00  0.392362E+00  0.426352E+00  0.477448E+00
  0.538975E+00  0.602790E+00  0.661396E+00  0.711089E+00  0.751638E+00  0.783730E+00
  0.808082E+00  0.825964E+00  0.839294E+00  0.850245E+00  0.860913E+00  0.872717E+00
  0.885164E+00  0.895241E+00  0.899163E+00  0.895241E+00  0.885164E+00  0.872717E+00
  0.860913E+00  0.850245E+00  0.839294E+00  0.825964E+00  0.808082E+00  0.797929E+00
  0.771957E+00  0.738712E+00  0.697512E+00  0.647787E+00  0.591005E+00  0.532288E+00
  0.478920E+00  0.437967E+00  0.415512E+00  0.415512E+00  0.437967E+00  0.478920E+00
  0.532288E+00  0.591005E+00  0.647787E+00  0.697512E+00  0.738712E+00  0.771957E+00
  0.797929E+00  0.817315E+00  0.831330E+00  0.841684E+00  0.850245E+00  0.858674E+00
  0.867735E+00  0.876382E+00  0.881905E+00  0.881905E+00  0.876382E+00  0.867735E+00
  0.858674E+00  0.850245E+00  0.841684E+00  0.831330E+00  0.817315E+00  0.797929E+00
  0.783640E+00  0.756335E+00  0.722272E+00  0.680650E+00  0.631625E+00  0.578122E+00
  0.525774E+00  0.481145E+00  0.450686E+00  0.439792E+00  0.450686E+00  0.481145E+00
  0.525774E+00  0.578122E+00  0.631625E+00  0.680650E+00  0.722272E+00  0.756335E+00
  0.783640E+00  0.804767E+00  0.820310E+00  0.831330E+00  0.839294E+00  0.845759E+00
  0.851935E+00  0.858063E+00  0.863012E+00  0.864962E+00  0.863012E+00  0.858063E+00
  0.851935E+00  0.845759E+00  0.839294E+00  0.831330E+00  0.820310E+00  0.804767E+00
  0.783640E+00  0.764890E+00  0.736650E+00  0.701939E+00  0.660301E+00  0.613096E+00
  0.564139E+00  0.518853E+00  0.483344E+00  0.463594E+00  0.463594E+00  0.483344E+00
  0.518853E+00  0.564139E+00  0.613096E+00  0.660301E+00  0.701939E+00  0.736650E+00
  0.764890E+00  0.787445E+00  0.804767E+00  0.817315E+00  0.825964E+00  0.831960E+00
  0.836570E+00  0.840627E+00  0.844128E+00  0.846287E+00  0.846287E+00  0.844128E+00
  0.840627E+00  0.836570E+00  0.831960E+00  0.825964E+00  0.817315E+00  0.804767E+00
  0.787445E+00  0.764890E+00  0.741358E+00  0.712363E+00  0.677257E+00  0.636494E+00
  0.592350E+00  0.548807E+00  0.511129E+00  0.485189E+00  0.475896E+00  0.485189E+00
  0.511129E+00  0.548807E+00  0.592350E+00  0.636494E+00  0.677257E+00  0.712363E+00
  0.741358E+00  0.764890E+00  0.783640E+00  0.797929E+00  0.808082E+00  0.814823E+00
  0.819209E+00  0.822259E+00  0.824561E+00  0.826147E+00  0.826732E+00  0.826147E+00
  0.824561E+00  0.822259E+00  0.819209E+00  0.814823E+00  0.808082E+00  0.797929E+00
  0.783640E+00  0.764890E+00  0.741358E+00  0.785330E+00  0.762760E+00  0.732884E+00
  0.696261E+00  0.655630E+00  0.615745E+00  0.583001E+00  0.564277E+00  0.564277E+00
  0.583001E+00  0.615745E+00  0.655630E+00  0.696261E+00  0.732884E+00  0.762760E+00
  0.785330E+00  0.801535E+00  0.812443E+00  0.818380E+00  0.819169E+00  0.814823E+00
  0.806003E+00  0.794169E+00  0.781559E+00  0.770919E+00  0.764817E+00  0.764817E+00
  0.770919E+00  0.781559E+00  0.794169E+00  0.806003E+00  0.814823E+00  0.819169E+00
  0.818380E+00  0.812443E+00  0.801535E+00  0.785330E+00  0.762760E+00  0.738177E+00
  0.707074E+00  0.670979E+00  0.633212E+00  0.599008E+00  0.574767E+00  0.565966E+00
  0.574767E+00  0.599008E+00  0.633212E+00  0.670979E+00  0.707074E+00  0.738177E+00
  0.762760E+00  0.780827E+00  0.793306E+00  0.801078E+00  0.804365E+00  0.803000E+00
  0.797124E+00  0.787639E+00  0.776263E+00  0.765321E+00  0.757348E+00  0.754418E+00
  0.757348E+00  0.765321E+00  0.776263E+00  0.787639E+00  0.797124E+00  0.803000E+00
  0.804365E+00  0.801078E+00  0.793306E+00  0.780827E+00  0.762760E+00  0.732884E+00
  0.707074E+00  0.676119E+00  0.642067E+00  0.608849E+00  0.582001E+00  0.566943E+00
  0.566943E+00  0.582001E+00  0.608849E+00  0.642067E+00  0.676119E+00  0.707074E+00
  0.732884E+00  0.752806E+00  0.767015E+00  0.776261E+00  0.781224E+00  0.782080E+00
  0.778789E+00  0.771741E+00  0.762109E+00  0.751767E+00  0.742967E+00  0.737875E+00
  0.737875E+00  0.742967E+00  0.751767E+00  0.762109E+00  0.771741E+00  0.778789E+00
  0.782080E+00  0.781224E+00  0.776261E+00  0.767015E+00  0.752806E+00  0.732884E+00
  0.696261E+00  0.670979E+00  0.642067E+00  0.612155E+00  0.585631E+00  0.567355E+00
  0.560853E+00  0.567355E+00  0.585631E+00  0.612155E+00  0.642067E+00  0.670979E+00
  0.696261E+00  0.716829E+00  0.732368E+00  0.743026E+00  0.749298E+00  0.751624E+00
  0.750167E+00  0.745125E+00  0.737237E+00  0.727923E+00  0.719067E+00  0.712662E+00
  0.710315E+00  0.712662E+00  0.719067E+00  0.727923E+00  0.737237E+00  0.745125E+00
  0.750167E+00  0.751624E+00  0.749298E+00  0.743026E+00  0.732368E+00  0.716829E+00
  0.696261E+00  0.655630E+00  0.633212E+00  0.608849E+00  0.585631E+00  0.567446E+00
  0.557521E+00  0.557521E+00  0.567446E+00  0.585631E+00  0.608849E+00  0.633212E+00
  0.655630E+00  0.674555E+00  0.689542E+00  0.700534E+00  0.707624E+00  0.710989E+00
  0.710759E+00  0.707087E+00  0.700498E+00  0.692111E+00  0.683508E+00  0.676418E+00
  0.672394E+00  0.672394E+00  0.676418E+00  0.683508E+00  0.692111E+00  0.700498E+00
  0.707087E+00  0.710759E+00  0.710989E+00  0.707624E+00  0.700534E+00  0.689542E+00
  0.674555E+00  0.655630E+00  0.615745E+00  0.599008E+00  0.582001E+00  0.567355E+00
  0.557521E+00  0.554070E+00  0.557521E+00  0.567355E+00  0.582001E+00  0.599008E+00
  0.615745E+00  0.630305E+00  0.641901E+00  0.650538E+00  0.656429E+00  0.659629E+00
  0.659954E+00  0.657192E+00  0.651514E+00  0.643764E+00  0.635341E+00  0.627813E+00
  0.622600E+00  0.620732E+00  0.622600E+00  0.627813E+00  0.635341E+00  0.643764E+00
  0.651514E+00  0.657192E+00  0.659954E+00  0.659629E+00  0.656429E+00  0.650538E+00
  0.641901E+00  0.630305E+00  0.615745E+00  0.583001E+00  0.574767E+00  0.566943E+00
  0.560853E+00  0.557521E+00  0.557521E+00  0.560853E+00  0.566943E+00  0.574767E+00
  0.583001E+00  0.590259E+00  0.595540E+00  0.598611E+00  0.599900E+00  0.599900E+00
  0.598611E+00  0.595540E+00  0.590259E+00  0.583001E+00  0.574767E+00  0.566943E+00
  0.560853E+00  0.557521E+00  0.557521E+00  0.560853E+00  0.566943E+00  0.574767E+00
  0.583001E+00  0.590259E+00  0.595540E+00  0.598611E+00  0.599900E+00  0.599900E+00
  0.598611E+00  0.595540E+00  0.590259E+00  0.583001E+00  0.564277E+00  0.565966E+00
  0.566943E+00  0.567355E+00  0.567446E+00  0.567355E+00  0.566943E+00  0.565966E+00
  0.564277E+00  0.561693E+00  0.557842E+00  0.552474E+00  0.545913E+00  0.538975E+00
  0.532288E+00  0.525774E+00  0.518853E+00  0.511129E+00  0.502869E+00  0.494920E+00
  0.488308E+00  0.483928E+00  0.482394E+00  0.483928E+00  0.488308E+00  0.494920E+00
  0.502869E+00  0.511129E+00  0.518853E+00  0.525774E+00  0.532288E+00  0.538975E+00
  0.545913E+00  0.552474E+00  0.557842E+00  0.561693E+00  0.564277E+00  0.564277E+00
  0.574767E+00  0.582001E+00  0.585631E+00  0.585631E+00  0.582001E+00  0.574767E+00
  0.564277E+00  0.551240E+00  0.536362E+00  0.520146E+00  0.503166E+00  0.486359E+00
  0.470762E+00  0.456937E+00  0.444766E+00  0.433817E+00  0.423859E+00  0.415065E+00
  0.407871E+00  0.402753E+00  0.400088E+00  0.400088E+00  0.402753E+00  0.407871E+00
  0.415065E+00  0.423859E+00  0.433817E+00  0.444766E+00  0.456937E+00  0.470762E+00
  0.486359E+00  0.503166E+00  0.520146E+00  0.536362E+00  0.551240E+00  0.564277E+00
  0.583001E+00  0.599008E+00  0.608849E+00  0.612155E+00  0.608849E+00  0.599008E+00
  0.583001E+00  0.561693E+00  0.536362E+00  0.508428E+00  0.479330E+00  0.450587E+00
  0.423688E+00  0.399717E+00  0.379088E+00  0.361682E+00  0.347211E+00  0.335484E+00
  0.326445E+00  0.320079E+00  0.316323E+00  0.315086E+00  0.316323E+00  0.320079E+00
  0.326445E+00  0.335484E+00  0.347211E+00  0.361682E+00  0.379088E+00  0.399717E+00
  0.423688E+00  0.450587E+00  0.479330E+00  0.508428E+00  0.536362E+00  0.561693E+00
  0.583001E+00  0.615745E+00  0.633212E+00  0.642067E+00  0.642067E+00  0.633212E+00
  0.615745E+00  0.590259E+00  0.557842E+00  0.520146E+00  0.479330E+00  0.437862E+00
  0.398166E+00  0.362163E+00  0.330950E+00  0.304822E+00  0.283574E+00  0.266818E+00
  0.254168E+00  0.245252E+00  0.239673E+00  0.237021E+00  0.237021E+00  0.239673E+00
  0.245252E+00  0.254168E+00  0.266818E+00  0.283574E+00  0.304822E+00  0.330950E+00
  0.362163E+00  0.398166E+00  0.437862E+00  0.479330E+00  0.520146E+00  0.557842E+00
  0.590259E+00  0.615745E+00  0.655630E+00  0.670979E+00  0.676119E+00  0.670979E+00
  0.655630E+00  0.630305E+00  0.595540E+00  0.552474E+00  0.503166E+00  0.450587E+00
  0.398166E+00  0.349086E+00  0.305649E+00  0.269005E+00  0.239303E+00  0.216080E+00
  0.198609E+00  0.186104E+00  0.177818E+00  0.173124E+00  0.171608E+00  0.173124E+00
  0.177818E+00  0.186104E+00  0.198609E+00  0.216080E+00  0.239303E+00  0.269005E+00
  0.305649E+00  0.349086E+00  0.398166E+00  0.450587E+00  0.503166E+00  0.552474E+00
  0.595540E+00  0.630305E+00  0.655630E+00  0.696261E+00  0.707074E+00  0.707074E+00
  0.696261E+00  0.674555E+00  0.641901E+00  0.598611E+00  0.545913E+00  0.486359E+00
  0.423688E+00  0.362163E+00  0.305649E+00  0.256807E+00  0.216781E+00  0.185464E+00
  0.161995E+00  0.145151E+00  0.133646E+00  0.126442E+00  0.122944E+00  0.122944E+00
  0.126442E+00  0.133646E+00  0.145151E+00  0.161995E+00  0.185464E+00  0.216781E+00
  0.256807E+00  0.305649E+00  0.362163E+00  0.423688E+00  0.486359E+00  0.545913E+00
  0.598611E+00  0.641901E+00  0.674555E+00  0.696261E+00  0.732884E+00  0.738177E+00
  0.732884E+00  0.716829E+00  0.689542E+00  0.650538E+00  0.599900E+00  0.538975E+00
  0.470762E+00  0.399717E+00  0.330950E+00  0.269005E+00  0.216781E+00  0.175255E+00
  0.143941E+00  0.121460E+00  0.106027E+00  0.959732E-01  0.902148E-01  0.883211E-01
  0.902148E-01  0.959732E-01  0.106027E+00  0.121460E+00  0.143941E+00  0.175255E+00
  0.216781E+00  0.269005E+00  0.330950E+00  0.399717E+00  0.470762E+00  0.538975E+00
  0.599900E+00  0.650538E+00  0.689542E+00  0.716829E+00  0.732884E+00  0.762760E+00
  0.762760E+00  0.752806E+00  0.732368E+00  0.700534E+00  0.656429E+00  0.599900E+00
  0.532288E+00  0.456937E+00  0.379088E+00  0.304822E+00  0.239303E+00  0.185464E+00
  0.143941E+00  0.113729E+00  0.928661E-01  0.791367E-01  0.707612E-01  0.667477E-01
  0.667477E-01  0.707612E-01  0.791367E-01  0.928661E-01  0.113729E+00  0.143941E+00
  0.185464E+00  0.239303E+00  0.304822E+00  0.379088E+00  0.456937E+00  0.532288E+00
  0.599900E+00  0.656429E+00  0.700534E+00  0.732368E+00  0.752806E+00  0.762760E+00
  0.785330E+00  0.780827E+00  0.767015E+00  0.743026E+00  0.707624E+00  0.659629E+00
  0.598611E+00  0.525774E+00  0.444766E+00  0.361682E+00  0.283574E+00  0.216080E+00
  0.161995E+00  0.121460E+00  0.928661E-01  0.737893E-01  0.618510E-01  0.553107E-01
  0.532247E-01  0.553107E-01  0.618510E-01  0.737893E-01  0.928661E-01  0.121460E+00
  0.161995E+00  0.216080E+00  0.283574E+00  0.361682E+00  0.444766E+00  0.525774E+00
  0.598611E+00  0.659629E+00  0.707624E+00  0.743026E+00  0.767015E+00  0.780827E+00
  0.785330E+00  0.801535E+00  0.793306E+00  0.776261E+00  0.749298E+00  0.710989E+00
  0.659954E+00  0.595540E+00  0.518853E+00  0.433817E+00  0.347211E+00  0.266818E+00
  0.198609E+00  0.145151E+00  0.106027E+00  0.791367E-01  0.618510E-01  0.517735E-01
  0.471758E-01  0.471758E-01  0.517735E-01  0.618510E-01  0.791367E-01  0.106027E+00
  0.145151E+00  0.198609E+00  0.266818E+00  0.347211E+00  0.433817E+00  0.518853E+00
  0.595540E+00  0.659954E+00  0.710989E+00  0.749298E+00  0.776261E+00  0.793306E+00
  0.801535E+00  0.801535E+00  0.812443E+00  0.801078E+00  0.781224E+00  0.751624E+00
  0.710759E+00  0.657192E+00  0.590259E+00  0.511129E+00  0.423859E+00  0.335484E+00
  0.254168E+00  0.186104E+00  0.133646E+00  0.959732E-01  0.707612E-01  0.553107E-01
  0.471758E-01  0.446642E-01  0.471758E-01  0.553107E-01  0.707612E-01  0.959732E-01
  0.133646E+00  0.186104E+00  0.254168E+00  0.335484E+00  0.423859E+00  0.511129E+00
  0.590259E+00  0.657192E+00  0.710759E+00  0.751624E+00  0.781224E+00  0.801078E+00
  0.812443E+00  0.816137E+00  0.812443E+00  0.818380E+00  0.804365E+00  0.782080E+00
  0.750167E+00  0.707087E+00  0.651514E+00  0.583001E+00  0.502869E+00  0.415065E+00
  0.326445E+00  0.245252E+00  0.177818E+00  0.126442E+00  0.902148E-01  0.667477E-01
  0.532247E-01  0.471758E-01  0.471758E-01  0.532247E-01  0.667477E-01  0.902148E-01
  0.126442E+00  0.177818E+00  0.245252E+00  0.326445E+00  0.415065E+00  0.502869E+00
  0.583001E+00  0.651514E+00  0.707087E+00  0.750167E+00  0.782080E+00  0.804365E+00
  0.818380E+00  0.825123E+00  0.825123E+00  0.818380E+00  0.819169E+00  0.803000E+00
  0.778789E+00  0.745125E+00  0.700498E+00  0.643764E+00  0.574767E+00  0.494920E+00
  0.407871E+00  0.320079E+00  0.239673E+00  0.173124E+00  0.122944E+00  0.883211E-01
  0.667477E-01  0.553107E-01  0.517735E-01  0.553107E-01  0.667477E-01  0.883211E-01
  0.122944E+00  0.173124E+00  0.239673E+00  0.320079E+00  0.407871E+00  0.494920E+00
  0.574767E+00  0.643764E+00  0.700498E+00  0.745125E+00  0.778789E+00  0.803000E+00
  0.819169E+00  0.828396E+00  0.831390E+00  0.828396E+00  0.819169E+00  0.814823E+00
  0.797124E+00  0.771741E+00  0.737237E+00  0.692111E+00  0.635341E+00  0.566943E+00
  0.488308E+00  0.402753E+00  0.316323E+00  0.237021E+00  0.171608E+00  0.122944E+00
  0.902148E-01  0.707612E-01  0.618510E-01  0.618510E-01  0.707612E-01  0.902148E-01
  0.122944E+00  0.171608E+00  0.237021E+00  0.316323E+00  0.402753E+00  0.488308E+00
  0.566943E+00  0.635341E+00  0.692111E+00  0.737237E+00  0.771741E+00  0.797124E+00
  0.814823E+00  0.825964E+00  0.831330E+00  0.831330E+00  0.825964E+00  0.814823E+00
  0.806003E+00  0.787639E+00  0.762109E+00  0.727923E+00  0.683508E+00  0.627813E+00
  0.560853E+00  0.483928E+00  0.400088E+00  0.315086E+00  0.237021E+00  0.173124E+00
  0.126442E+00  0.959732E-01  0.791367E-01  0.737893E-01  0.791367E-01  0.959732E-01
  0.126442E+00  0.173124E+00  0.237021E+00  0.315086E+00  0.400088E+00  0.483928E+00
  0.560853E+00  0.627813E+00  0.683508E+00  0.727923E+00  0.762109E+00  0.787639E+00
  0.806003E+00  0.818328E+00  0.825394E+00  0.827691E+00  0.825394E+00  0.818328E+00
  0.806003E+00  0.794169E+00  0.776263E+00  0.751767E+00  0.719067E+00  0.676418E+00
  0.622600E+00  0.557521E+00  0.482394E+00  0.400088E+00  0.316323E+00  0.239673E+00
  0.177818E+00  0.133646E+00  0.106027E+00  0.928661E-01  0.928661E-01  0.106027E+00
  0.133646E+00  0.177818E+00  0.239673E+00  0.316323E+00  0.400088E+00  0.482394E+00
  0.557521E+00  0.622600E+00  0.676418E+00  0.719067E+00  0.751767E+00  0.776263E+00
  0.794169E+00  0.806658E+00  0.814523E+00  0.818302E+00  0.818302E+00  0.814523E+00
  0.806658E+00  0.794169E+00  0.781559E+00  0.765321E+00  0.742967E+00  0.712662E+00
  0.672394E+00  0.620732E+00  0.557521E+00  0.483928E+00  0.402753E+00  0.320079E+00
  0.245252E+00  0.186104E+00  0.145151E+00  0.121460E+00  0.113729E+00  0.121460E+00
  0.145151E+00  0.186104E+00  0.245252E+00  0.320079E+00  0.402753E+00  0.483928E+00
  0.557521E+00  0.620732E+00  0.672394E+00  0.712662E+00  0.742967E+00  0.765321E+00
  0.781559E+00  0.793025E+00  0.800604E+00  0.804888E+00  0.806267E+00  0.804888E+00
  0.800604E+00  0.793025E+00  0.781559E+00  0.770919E+00  0.757348E+00  0.737875E+00
  0.710315E+00  0.672394E+00  0.622600E+00  0.560853E+00  0.488308E+00  0.407871E+00
  0.326445E+00  0.254168E+00  0.198609E+00  0.161995E+00  0.143941E+00  0.143941E+00
  0.161995E+00  0.198609E+00  0.254168E+00  0.326445E+00  0.407871E+00  0.488308E+00
  0.560853E+00  0.622600E+00  0.672394E+00  0.710315E+00  0.737875E+00  0.757348E+00
  0.770919E+00  0.780322E+00  0.786775E+00  0.790939E+00  0.793016E+00  0.793016E+00
  0.790939E+00  0.786775E+00  0.780322E+00  0.770919E+00  0.764817E+00  0.754418E+00
  0.737875E+00  0.712662E+00  0.676418E+00  0.627813E+00  0.566943E+00  0.494920E+00
  0.415065E+00  0.335484E+00  0.266818E+00  0.216080E+00  0.185464E+00  0.175255E+00
  0.185464E+00  0.216080E+00  0.266818E+00  0.335484E+00  0.415065E+00  0.494920E+00
  0.566943E+00  0.627813E+00  0.676418E+00  0.712662E+00  0.737875E+00  0.754418E+00
  0.764817E+00  0.771450E+00  0.776412E+00  0.780845E+00  0.784361E+00  0.785741E+00
  0.784361E+00  0.780845E+00  0.776412E+00  0.771450E+00  0.764817E+00  0.764817E+00
  0.757348E+00  0.742967E+00  0.719067E+00  0.683508E+00  0.635341E+00  0.574767E+00
  0.502869E+00  0.423859E+00  0.347211E+00  0.283574E+00  0.239303E+00  0.216781E+00
  0.216781E+00  0.239303E+00  0.283574E+00  0.347211E+00  0.423859E+00  0.502869E+00
  0.574767E+00  0.635341E+00  0.683508E+00  0.719067E+00  0.742967E+00  0.757348E+00
  0.764817E+00  0.768297E+00  0.771243E+00  0.776484E+00  0.783687E+00  0.789090E+00
  0.789090E+00  0.783687E+00  0.776484E+00  0.771243E+00  0.768297E+00  0.764817E+00
  0.770919E+00  0.765321E+00  0.751767E+00  0.727923E+00  0.692111E+00  0.643764E+00
  0.583001E+00  0.511129E+00  0.433817E+00  0.361682E+00  0.304822E+00  0.269005E+00
  0.256807E+00  0.269005E+00  0.304822E+00  0.361682E+00  0.433817E+00  0.511129E+00
  0.583001E+00  0.643764E+00  0.692111E+00  0.727923E+00  0.751767E+00  0.765321E+00
  0.770919E+00  0.771450E+00  0.771243E+00  0.775677E+00  0.786933E+00  0.799822E+00
  0.805505E+00  0.799822E+00  0.786933E+00  0.775677E+00  0.771243E+00  0.771450E+00
  0.770919E+00  0.781559E+00  0.776263E+00  0.762109E+00  0.737237E+00  0.700498E+00
  0.651514E+00  0.590259E+00  0.518853E+00  0.444766E+00  0.379088E+00  0.330950E+00
  0.305649E+00  0.305649E+00  0.330950E+00  0.379088E+00  0.444766E+00  0.518853E+00
  0.590259E+00  0.651514E+00  0.700498E+00  0.737237E+00  0.762109E+00  0.776263E+00
  0.781559E+00  0.780322E+00  0.776412E+00  0.776484E+00  0.786933E+00  0.805754E+00
  0.820760E+00  0.820760E+00  0.805754E+00  0.786933E+00  0.776484E+00  0.776412E+00
  0.780322E+00  0.781559E+00  0.794169E+00  0.787639E+00  0.771741E+00  0.745125E+00
  0.707087E+00  0.657192E+00  0.595540E+00  0.525774E+00  0.456937E+00  0.399717E+00
  0.362163E+00  0.349086E+00  0.362163E+00  0.399717E+00  0.456937E+00  0.525774E+00
  0.595540E+00  0.657192E+00  0.707087E+00  0.745125E+00  0.771741E+00  0.787639E+00
  0.794169E+00  0.793025E+00  0.786775E+00  0.780845E+00  0.783687E+00  0.799822E+00
  0.820760E+00  0.830327E+00  0.820760E+00  0.799822E+00  0.783687E+00  0.780845E+00
  0.786775E+00  0.793025E+00  0.794169E+00  0.806003E+00  0.797124E+00  0.778789E+00
  0.750167E+00  0.710759E+00  0.659954E+00  0.598611E+00  0.532288E+00  0.470762E+00
  0.423688E+00  0.398166E+00  0.398166E+00  0.423688E+00  0.470762E+00  0.532288E+00
  0.598611E+00  0.659954E+00  0.710759E+00  0.750167E+00  0.778789E+00  0.797124E+00
  0.806003E+00  0.806658E+00  0.800604E+00  0.790939E+00  0.784361E+00  0.789090E+00
  0.805505E+00  0.820760E+00  0.820760E+00  0.805505E+00  0.789090E+00  0.784361E+00
  0.790939E+00  0.800604E+00  0.806658E+00  0.806003E+00  0.814823E+00  0.803000E+00
  0.782080E+00  0.751624E+00  0.710989E+00  0.659629E+00  0.599900E+00  0.538975E+00
  0.486359E+00  0.450587E+00  0.437862E+00  0.450587E+00  0.486359E+00  0.538975E+00
  0.599900E+00  0.659629E+00  0.710989E+00  0.751624E+00  0.782080E+00  0.803000E+00
  0.814823E+00  0.818328E+00  0.814523E+00  0.804888E+00  0.793016E+00  0.785741E+00
  0.789090E+00  0.799822E+00  0.805754E+00  0.799822E+00  0.789090E+00  0.785741E+00
  0.793016E+00  0.804888E+00  0.814523E+00  0.818328E+00  0.814823E+00  0.819169E+00
  0.804365E+00  0.781224E+00  0.749298E+00  0.707624E+00  0.656429E+00  0.599900E+00
  0.545913E+00  0.503166E+00  0.479330E+00  0.479330E+00  0.503166E+00  0.545913E+00
  0.599900E+00  0.656429E+00  0.707624E+00  0.749298E+00  0.781224E+00  0.804365E+00
  0.819169E+00  0.825964E+00  0.825394E+00  0.818302E+00  0.806267E+00  0.793016E+00
  0.784361E+00  0.783687E+00  0.786933E+00  0.786933E+00  0.783687E+00  0.784361E+00
  0.793016E+00  0.806267E+00  0.818302E+00  0.825394E+00  0.825964E+00  0.819169E+00
  0.818380E+00  0.801078E+00  0.776261E+00  0.743026E+00  0.700534E+00  0.650538E+00
  0.598611E+00  0.552474E+00  0.520146E+00  0.508428E+00  0.520146E+00  0.552474E+00
  0.598611E+00  0.650538E+00  0.700534E+00  0.743026E+00  0.776261E+00  0.801078E+00
  0.818380E+00  0.828396E+00  0.831330E+00  0.827691E+00  0.818302E+00  0.804888E+00
  0.790939E+00  0.780845E+00  0.776484E+00  0.775677E+00  0.776484E+00  0.780845E+00
  0.790939E+00  0.804888E+00  0.818302E+00  0.827691E+00  0.831330E+00  0.828396E+00
  0.818380E+00  0.812443E+00  0.793306E+00  0.767015E+00  0.732368E+00  0.689542E+00
  0.641901E+00  0.595540E+00  0.557842E+00  0.536362E+00  0.536362E+00  0.557842E+00
  0.595540E+00  0.641901E+00  0.689542E+00  0.732368E+00  0.767015E+00  0.793306E+00
  0.812443E+00  0.825123E+00  0.831390E+00  0.831330E+00  0.825394E+00  0.814523E+00
  0.800604E+00  0.786775E+00  0.776412E+00  0.771243E+00  0.771243E+00  0.776412E+00
  0.786775E+00  0.800604E+00  0.814523E+00  0.825394E+00  0.831330E+00  0.831390E+00
  0.825123E+00  0.812443E+00  0.801535E+00  0.780827E+00  0.752806E+00  0.716829E+00
  0.674555E+00  0.630305E+00  0.590259E+00  0.561693E+00  0.551240E+00  0.561693E+00
  0.590259E+00  0.630305E+00  0.674555E+00  0.716829E+00  0.752806E+00  0.780827E+00
  0.801535E+00  0.816137E+00  0.825123E+00  0.828396E+00  0.825964E+00  0.818328E+00
  0.806658E+00  0.793025E+00  0.780322E+00  0.771450E+00  0.768297E+00  0.771450E+00
  0.780322E+00  0.793025E+00  0.806658E+00  0.818328E+00  0.825964E+00  0.828396E+00
  0.825123E+00  0.816137E+00  0.801535E+00  0.785330E+00  0.762760E+00  0.732884E+00
  0.696261E+00  0.655630E+00  0.615745E+00  0.583001E+00  0.564277E+00  0.564277E+00
  0.583001E+00  0.615745E+00  0.655630E+00  0.696261E+00  0.732884E+00  0.762760E+00
  0.785330E+00  0.801535E+00  0.812443E+00  0.818380E+00  0.819169E+00  0.814823E+00
  0.806003E+00  0.794169E+00  0.781559E+00  0.770919E+00  0.764817E+00  0.764817E+00
  0.770919E+00  0.781559E+00  0.794169E+00  0.806003E+00  0.814823E+00  0.819169E+00
  0.818380E+00  0.812443E+00  0.801535E+00  0.785330E+00  0.828782E+00  0.808606E+00
  0.780540E+00  0.745591E+00  0.707044E+00  0.670570E+00  0.643764E+00  0.633817E+00
  0.643764E+00  0.670570E+00  0.707044E+00  0.745591E+00  0.780540E+00  0.808606E+00
  0.828782E+00  0.841820E+00  0.849008E+00  0.850949E+00  0.847231E+00  0.836916E+00
  0.819209E+00  0.794169E+00  0.763777E+00  0.733036E+00  0.709580E+00  0.700743E+00
  0.709580E+00  0.733036E+00  0.763777E+00  0.794169E+00  0.819209E+00  0.836916E+00
  0.847231E+00  0.850949E+00  0.849008E+00  0.841820E+00  0.828782E+00  0.808606E+00
  0.785300E+00  0.755020E+00  0.719732E+00  0.683598E+00  0.653061E+00  0.635341E+00
  0.635341E+00  0.653061E+00  0.683598E+00  0.719732E+00  0.755020E+00  0.785300E+00
  0.808606E+00  0.824639E+00  0.834202E+00  0.838351E+00  0.837532E+00  0.831331E+00
  0.818992E+00  0.800266E+00  0.776263E+00  0.750168E+00  0.727310E+00  0.713788E+00
  0.713788E+00  0.727310E+00  0.750168E+00  0.776263E+00  0.800266E+00  0.818992E+00
  0.831331E+00  0.837532E+00  0.838351E+00  0.834202E+00  0.824639E+00  0.808606E+00
  0.780540E+00  0.755020E+00  0.723970E+00  0.690167E+00  0.658698E+00  0.636073E+00
  0.627813E+00  0.636073E+00  0.658698E+00  0.690167E+00  0.723970E+00  0.755020E+00
  0.780540E+00  0.799498E+00  0.811875E+00  0.818294E+00  0.819558E+00  0.816017E+00
  0.807366E+00  0.793206E+00  0.773987E+00  0.751767E+00  0.730373E+00  0.714670E+00
  0.708874E+00  0.714670E+00  0.730373E+00  0.751767E+00  0.773987E+00  0.793206E+00
  0.807366E+00  0.816017E+00  0.819558E+00  0.818294E+00  0.811875E+00  0.799498E+00
  0.780540E+00  0.745591E+00  0.719732E+00  0.690167E+00  0.660569E+00  0.636300E+00
  0.622600E+00  0.622600E+00  0.636300E+00  0.660569E+00  0.690167E+00  0.719732E+00
  0.745591E+00  0.766087E+00  0.780730E+00  0.789514E+00  0.792806E+00  0.791153E+00
  0.784830E+00  0.773732E+00  0.757992E+00  0.738850E+00  0.719067E+00  0.702516E+00
  0.693036E+00  0.693036E+00  0.702516E+00  0.719067E+00  0.738850E+00  0.757992E+00
  0.773732E+00  0.784830E+00  0.791153E+00  0.792806E+00  0.789514E+00  0.780730E+00
  0.766087E+00  0.745591E+00  0.707044E+00  0.683598E+00  0.658698E+00  0.636300E+00
  0.620732E+00  0.615168E+00  0.620732E+00  0.636300E+00  0.658698E+00  0.683598E+00
  0.707044E+00  0.726635E+00  0.741465E+00  0.751302E+00  0.756099E+00  0.755998E+00
  0.751277E+00  0.742102E+00  0.728638E+00  0.711682E+00  0.693241E+00  0.676418E+00
  0.664590E+00  0.660328E+00  0.664590E+00  0.676418E+00  0.693241E+00  0.711682E+00
  0.728638E+00  0.742102E+00  0.751277E+00  0.755998E+00  0.756099E+00  0.751302E+00
  0.741465E+00  0.726635E+00  0.707044E+00  0.670570E+00  0.653061E+00  0.636073E+00
  0.622600E+00  0.615168E+00  0.615168E+00  0.622600E+00  0.636073E+00  0.653061E+00
  0.670570E+00  0.686054E+00  0.698049E+00  0.706074E+00  0.710083E+00  0.710083E+00
  0.706074E+00  0.698049E+00  0.686054E+00  0.670570E+00  0.653061E+00  0.636073E+00
  0.622600E+00  0.615168E+00  0.615168E+00  0.622600E+00  0.636073E+00  0.653061E+00
  0.670570E+00  0.686054E+00  0.698049E+00  0.706074E+00  0.710083E+00  0.710083E+00
  0.706074E+00  0.698049E+00  0.686054E+00  0.670570E+00  0.643764E+00  0.635341E+00
  0.627813E+00  0.622600E+00  0.620732E+00  0.622600E+00  0.627813E+00  0.635341E+00
  0.643764E+00  0.651514E+00  0.657192E+00  0.659954E+00  0.659629E+00  0.656429E+00
  0.650538E+00  0.641901E+00  0.630305E+00  0.615745E+00  0.599008E+00  0.582001E+00
  0.567355E+00  0.557521E+00  0.554070E+00  0.557521E+00  0.567355E+00  0.582001E+00
  0.599008E+00  0.615745E+00  0.630305E+00  0.641901E+00  0.650538E+00  0.656429E+00
  0.659629E+00  0.659954E+00  0.657192E+00  0.651514E+00  0.643764E+00  0.633817E+00
  0.635341E+00  0.636073E+00  0.636300E+00  0.636300E+00  0.636073E+00  0.635341E+00
  0.633817E+00  0.631262E+00  0.627275E+00  0.621313E+00  0.613075E+00  0.602790E+00
  0.591005E+00  0.578122E+00  0.564139E+00  0.548807E+00  0.532190E+00  0.515266E+00
  0.499973E+00  0.488490E+00  0.482394E+00  0.482394E+00  0.488490E+00  0.499973E+00
  0.515266E+00  0.532190E+00  0.548807E+00  0.564139E+00  0.578122E+00  0.591005E+00
  0.602790E+00  0.613075E+00  0.621313E+00  0.627275E+00  0.631262E+00  0.633817E+00
  0.643764E+00  0.653061E+00  0.658698E+00  0.660569E+00  0.658698E+00  0.653061E+00
  0.643764E+00  0.631262E+00  0.616176E+00  0.598933E+00  0.579769E+00  0.559099E+00
  0.537707E+00  0.516486E+00  0.496028E+00  0.476436E+00  0.457556E+00  0.439572E+00
  0.423467E+00  0.410778E+00  0.402789E+00  0.400088E+00  0.402789E+00  0.410778E+00
  0.423467E+00  0.439572E+00  0.457556E+00  0.476436E+00  0.496028E+00  0.516486E+00
  0.537707E+00  0.559099E+00  0.579769E+00  0.598933E+00  0.616176E+00  0.631262E+00
  0.643764E+00  0.670570E+00  0.683598E+00  0.690167E+00  0.690167E+00  0.683598E+00
  0.670570E+00  0.651514E+00  0.627275E+00  0.598933E+00  0.567592E+00  0.534423E+00
  0.500785E+00  0.468131E+00  0.437682E+00  0.410136E+00  0.385618E+00  0.364024E+00
  0.345579E+00  0.331037E+00  0.321192E+00  0.316323E+00  0.316323E+00  0.321192E+00
  0.331037E+00  0.345579E+00  0.364024E+00  0.385618E+00  0.410136E+00  0.437682E+00
  0.468131E+00  0.500785E+00  0.534423E+00  0.567592E+00  0.598933E+00  0.627275E+00
  0.651514E+00  0.670570E+00  0.707044E+00  0.719732E+00  0.723970E+00  0.719732E+00
  0.707044E+00  0.686054E+00  0.657192E+00  0.621313E+00  0.579769E+00  0.534423E+00
  0.487565E+00  0.441640E+00  0.398817E+00  0.360589E+00  0.327607E+00  0.299855E+00
  0.277114E+00  0.259404E+00  0.246929E+00  0.239673E+00  0.237321E+00  0.239673E+00
  0.246929E+00  0.259404E+00  0.277114E+00  0.299855E+00  0.327607E+00  0.360589E+00
  0.398817E+00  0.441640E+00  0.487565E+00  0.534423E+00  0.579769E+00  0.621313E+00
  0.657192E+00  0.686054E+00  0.707044E+00  0.745591E+00  0.755020E+00  0.755020E+00
  0.745591E+00  0.726635E+00  0.698049E+00  0.659954E+00  0.613075E+00  0.559099E+00
  0.500785E+00  0.441640E+00  0.385222E+00  0.334345E+00  0.290628E+00  0.254535E+00
  0.225771E+00  0.203763E+00  0.187947E+00  0.177818E+00  0.172910E+00  0.172910E+00
  0.177818E+00  0.187947E+00  0.203763E+00  0.225771E+00  0.254535E+00  0.290628E+00
  0.334345E+00  0.385222E+00  0.441640E+00  0.500785E+00  0.559099E+00  0.613075E+00
  0.659954E+00  0.698049E+00  0.726635E+00  0.745591E+00  0.780540E+00  0.785300E+00
  0.780540E+00  0.766087E+00  0.741465E+00  0.706074E+00  0.659629E+00  0.602790E+00
  0.537707E+00  0.468131E+00  0.398817E+00  0.334345E+00  0.277980E+00  0.231293E+00
  0.194467E+00  0.166758E+00  0.146918E+00  0.133646E+00  0.125991E+00  0.123481E+00
  0.125991E+00  0.133646E+00  0.146918E+00  0.166758E+00  0.194467E+00  0.231293E+00
  0.277980E+00  0.334345E+00  0.398817E+00  0.468131E+00  0.537707E+00  0.602790E+00
  0.659629E+00  0.706074E+00  0.741465E+00  0.766087E+00  0.780540E+00  0.808606E+00
  0.808606E+00  0.799498E+00  0.780730E+00  0.751302E+00  0.710083E+00  0.656429E+00
  0.591005E+00  0.516486E+00  0.437682E+00  0.360589E+00  0.290628E+00  0.231293E+00
  0.183971E+00  0.148389E+00  0.123080E+00  0.106027E+00  0.954644E-01  0.903669E-01
  0.903669E-01  0.954644E-01  0.106027E+00  0.123080E+00  0.148389E+00  0.183971E+00
  0.231293E+00  0.290628E+00  0.360589E+00  0.437682E+00  0.516486E+00  0.591005E+00
  0.656429E+00  0.710083E+00  0.751302E+00  0.780730E+00  0.799498E+00  0.808606E+00
  0.828782E+00  0.824639E+00  0.811875E+00  0.789514E+00  0.756099E+00  0.710083E+00
  0.650538E+00  0.578122E+00  0.496028E+00  0.410136E+00  0.327607E+00  0.254535E+00
  0.194467E+00  0.148389E+00  0.115279E+00  0.928661E-01  0.786511E-01  0.707651E-01
  0.682293E-01  0.707651E-01  0.786511E-01  0.928661E-01  0.115279E+00  0.148389E+00
  0.194467E+00  0.254535E+00  0.327607E+00  0.410136E+00  0.496028E+00  0.578122E+00
  0.650538E+00  0.710083E+00  0.756099E+00  0.789514E+00  0.811875E+00  0.824639E+00
  0.828782E+00  0.841820E+00  0.834202E+00  0.818294E+00  0.792806E+00  0.755998E+00
  0.706074E+00  0.641901E+00  0.564139E+00  0.476436E+00  0.385618E+00  0.299855E+00
  0.225771E+00  0.166758E+00  0.123080E+00  0.928661E-01  0.733228E-01  0.618185E-01
  0.565142E-01  0.565142E-01  0.618185E-01  0.733228E-01  0.928661E-01  0.123080E+00
  0.166758E+00  0.225771E+00  0.299855E+00  0.385618E+00  0.476436E+00  0.564139E+00
  0.641901E+00  0.706074E+00  0.755998E+00  0.792806E+00  0.818294E+00  0.834202E+00
  0.841820E+00  0.841820E+00  0.849008E+00  0.838351E+00  0.819558E+00  0.791153E+00
  0.751277E+00  0.698049E+00  0.630305E+00  0.548807E+00  0.457556E+00  0.364024E+00
  0.277114E+00  0.203763E+00  0.146918E+00  0.106027E+00  0.786511E-01  0.618185E-01
  0.528940E-01  0.501219E-01  0.528940E-01  0.618185E-01  0.786511E-01  0.106027E+00
  0.146918E+00  0.203763E+00  0.277114E+00  0.364024E+00  0.457556E+00  0.548807E+00
  0.630305E+00  0.698049E+00  0.751277E+00  0.791153E+00  0.819558E+00  0.838351E+00
  0.849008E+00  0.852456E+00  0.849008E+00  0.850949E+00  0.837532E+00  0.816017E+00
  0.784830E+00  0.742102E+00  0.686054E+00  0.615745E+00  0.532190E+00  0.439572E+00
  0.345579E+00  0.259404E+00  0.187947E+00  0.133646E+00  0.954644E-01  0.707651E-01
  0.565142E-01  0.501219E-01  0.501219E-01  0.565142E-01  0.707651E-01  0.954644E-01
  0.133646E+00  0.187947E+00  0.259404E+00  0.345579E+00  0.439572E+00  0.532190E+00
  0.615745E+00  0.686054E+00  0.742102E+00  0.784830E+00  0.816017E+00  0.837532E+00
  0.850949E+00  0.857373E+00  0.857373E+00  0.850949E+00  0.847231E+00  0.831331E+00
  0.807366E+00  0.773732E+00  0.728638E+00  0.670570E+00  0.599008E+00  0.515266E+00
  0.423467E+00  0.331037E+00  0.246929E+00  0.177818E+00  0.125991E+00  0.903669E-01
  0.682293E-01  0.565142E-01  0.528940E-01  0.565142E-01  0.682293E-01  0.903669E-01
  0.125991E+00  0.177818E+00  0.246929E+00  0.331037E+00  0.423467E+00  0.515266E+00
  0.599008E+00  0.670570E+00  0.728638E+00  0.773732E+00  0.807366E+00  0.831331E+00
  0.847231E+00  0.856271E+00  0.859200E+00  0.856271E+00  0.847231E+00  0.836916E+00
  0.818992E+00  0.793206E+00  0.757992E+00  0.711682E+00  0.653061E+00  0.582001E+00
  0.499973E+00  0.410778E+00  0.321192E+00  0.239673E+00  0.172910E+00  0.123481E+00
  0.903669E-01  0.707651E-01  0.618185E-01  0.618185E-01  0.707651E-01  0.903669E-01
  0.123481E+00  0.172910E+00  0.239673E+00  0.321192E+00  0.410778E+00  0.499973E+00
  0.582001E+00  0.653061E+00  0.711682E+00  0.757992E+00  0.793206E+00  0.818992E+00
  0.836916E+00  0.848185E+00  0.853612E+00  0.853612E+00  0.848185E+00  0.836916E+00
  0.819209E+00  0.800266E+00  0.773987E+00  0.738850E+00  0.693241E+00  0.636073E+00
  0.567355E+00  0.488490E+00  0.402789E+00  0.316323E+00  0.237321E+00  0.172910E+00
  0.125991E+00  0.954644E-01  0.786511E-01  0.733228E-01  0.786511E-01  0.954644E-01
  0.125991E+00  0.172910E+00  0.237321E+00  0.316323E+00  0.402789E+00  0.488490E+00
  0.567355E+00  0.636073E+00  0.693241E+00  0.738850E+00  0.773987E+00  0.800266E+00
  0.819209E+00  0.831960E+00  0.839294E+00  0.841684E+00  0.839294E+00  0.831960E+00
  0.819209E+00  0.794169E+00  0.776263E+00  0.751767E+00  0.719067E+00  0.676418E+00
  0.622600E+00  0.557521E+00  0.482394E+00  0.400088E+00  0.316323E+00  0.239673E+00
  0.177818E+00  0.133646E+00  0.106027E+00  0.928661E-01  0.928661E-01  0.106027E+00
  0.133646E+00  0.177818E+00  0.239673E+00  0.316323E+00  0.400088E+00  0.482394E+00
  0.557521E+00  0.622600E+00  0.676418E+00  0.719067E+00  0.751767E+00  0.776263E+00
  0.794169E+00  0.806658E+00  0.814523E+00  0.818302E+00  0.818302E+00  0.814523E+00
  0.806658E+00  0.794169E+00  0.763777E+00  0.750168E+00  0.730373E+00  0.702516E+00
  0.664590E+00  0.615168E+00  0.554070E+00  0.482394E+00  0.402789E+00  0.321192E+00
  0.246929E+00  0.187947E+00  0.146918E+00  0.123080E+00  0.115279E+00  0.123080E+00
  0.146918E+00  0.187947E+00  0.246929E+00  0.321192E+00  0.402789E+00  0.482394E+00
  0.554070E+00  0.615168E+00  0.664590E+00  0.702516E+00  0.730373E+00  0.750168E+00
  0.763777E+00  0.772689E+00  0.778058E+00  0.780815E+00  0.781645E+00  0.780815E+00
  0.778058E+00  0.772689E+00  0.763777E+00  0.733036E+00  0.727310E+00  0.714670E+00
  0.693036E+00  0.660328E+00  0.615168E+00  0.557521E+00  0.488490E+00  0.410778E+00
  0.331037E+00  0.259404E+00  0.203763E+00  0.166758E+00  0.148389E+00  0.148389E+00
  0.166758E+00  0.203763E+00  0.259404E+00  0.331037E+00  0.410778E+00  0.488490E+00
  0.557521E+00  0.615168E+00  0.660328E+00  0.693036E+00  0.714670E+00  0.727310E+00
  0.733036E+00  0.733870E+00  0.731923E+00  0.729236E+00  0.727435E+00  0.727435E+00
  0.729236E+00  0.731923E+00  0.733870E+00  0.733036E+00  0.709580E+00  0.713788E+00
  0.708874E+00  0.693036E+00  0.664590E+00  0.622600E+00  0.567355E+00  0.499973E+00
  0.423467E+00  0.345579E+00  0.277114E+00  0.225771E+00  0.194467E+00  0.183971E+00
  0.194467E+00  0.225771E+00  0.277114E+00  0.345579E+00  0.423467E+00  0.499973E+00
  0.567355E+00  0.622600E+00  0.664590E+00  0.693036E+00  0.708874E+00  0.713788E+00
  0.709580E+00  0.698583E+00  0.684389E+00  0.671267E+00  0.662448E+00  0.659397E+00
  0.662448E+00  0.671267E+00  0.684389E+00  0.698583E+00  0.709580E+00  0.700743E+00
  0.713788E+00  0.714670E+00  0.702516E+00  0.676418E+00  0.636073E+00  0.582001E+00
  0.515266E+00  0.439572E+00  0.364024E+00  0.299855E+00  0.254535E+00  0.231293E+00
  0.231293E+00  0.254535E+00  0.299855E+00  0.364024E+00  0.439572E+00  0.515266E+00
  0.582001E+00  0.636073E+00  0.676418E+00  0.702516E+00  0.714670E+00  0.713788E+00
  0.700743E+00  0.677313E+00  0.648433E+00  0.622113E+00  0.604698E+00  0.596986E+00
  0.596986E+00  0.604698E+00  0.622113E+00  0.648433E+00  0.677313E+00  0.700743E+00
  0.709580E+00  0.727310E+00  0.730373E+00  0.719067E+00  0.693241E+00  0.653061E+00
  0.599008E+00  0.532190E+00  0.457556E+00  0.385618E+00  0.327607E+00  0.290628E+00
  0.277980E+00  0.290628E+00  0.327607E+00  0.385618E+00  0.457556E+00  0.532190E+00
  0.599008E+00  0.653061E+00  0.693241E+00  0.719067E+00  0.730373E+00  0.727310E+00
  0.709580E+00  0.677313E+00  0.635102E+00  0.595061E+00  0.570338E+00  0.562588E+00
  0.562078E+00  0.562588E+00  0.570338E+00  0.595061E+00  0.635102E+00  0.677313E+00
  0.709580E+00  0.733036E+00  0.750168E+00  0.751767E+00  0.738850E+00  0.711682E+00
  0.670570E+00  0.615745E+00  0.548807E+00  0.476436E+00  0.410136E+00  0.360589E+00
  0.334345E+00  0.334345E+00  0.360589E+00  0.410136E+00  0.476436E+00  0.548807E+00
  0.615745E+00  0.670570E+00  0.711682E+00  0.738850E+00  0.751767E+00  0.750168E+00
  0.733036E+00  0.698583E+00  0.648433E+00  0.595061E+00  0.560227E+00  0.555109E+00
  0.564518E+00  0.564518E+00  0.555109E+00  0.560227E+00  0.595061E+00  0.648433E+00
  0.698583E+00  0.733036E+00  0.763777E+00  0.776263E+00  0.773987E+00  0.757992E+00
  0.728638E+00  0.686054E+00  0.630305E+00  0.564139E+00  0.496028E+00  0.437682E+00
  0.398817E+00  0.385222E+00  0.398817E+00  0.437682E+00  0.496028E+00  0.564139E+00
  0.630305E+00  0.686054E+00  0.728638E+00  0.757992E+00  0.773987E+00  0.776263E+00
  0.763777E+00  0.733870E+00  0.684389E+00  0.622113E+00  0.570338E+00  0.555109E+00
  0.573444E+00  0.587777E+00  0.573444E+00  0.555109E+00  0.570338E+00  0.622113E+00
  0.684389E+00  0.733870E+00  0.763777E+00  0.794169E+00  0.800266E+00  0.793206E+00
  0.773732E+00  0.742102E+00  0.698049E+00  0.641901E+00  0.578122E+00  0.516486E+00
  0.468131E+00  0.441640E+00  0.441640E+00  0.468131E+00  0.516486E+00  0.578122E+00
  0.641901E+00  0.698049E+00  0.742102E+00  0.773732E+00  0.793206E+00  0.800266E+00
  0.794169E+00  0.772689E+00  0.731923E+00  0.671267E+00  0.604698E+00  0.562588E+00
  0.564518E+00  0.587777E+00  0.587777E+00  0.564518E+00  0.562588E+00  0.604698E+00
  0.671267E+00  0.731923E+00  0.772689E+00  0.794169E+00  0.819209E+00  0.818992E+00
  0.807366E+00  0.784830E+00  0.751277E+00  0.706074E+00  0.650538E+00  0.591005E+00
  0.537707E+00  0.500785E+00  0.487565E+00  0.500785E+00  0.537707E+00  0.591005E+00
  0.650538E+00  0.706074E+00  0.751277E+00  0.784830E+00  0.807366E+00  0.818992E+00
  0.819209E+00  0.806658E+00  0.778058E+00  0.729236E+00  0.662448E+00  0.596986E+00
  0.562078E+00  0.564518E+00  0.573444E+00  0.564518E+00  0.562078E+00  0.596986E+00
  0.662448E+00  0.729236E+00  0.778058E+00  0.806658E+00  0.819209E+00  0.836916E+00
  0.831331E+00  0.816017E+00  0.791153E+00  0.755998E+00  0.710083E+00  0.656429E+00
  0.602790E+00  0.559099E+00  0.534423E+00  0.534423E+00  0.559099E+00  0.602790E+00
  0.656429E+00  0.710083E+00  0.755998E+00  0.791153E+00  0.816017E+00  0.831331E+00
  0.836916E+00  0.831960E+00  0.814523E+00  0.780815E+00  0.727435E+00  0.659397E+00
  0.596986E+00  0.562588E+00  0.555109E+00  0.555109E+00  0.562588E+00  0.596986E+00
  0.659397E+00  0.727435E+00  0.780815E+00  0.814523E+00  0.831960E+00  0.836916E+00
  0.847231E+00  0.837532E+00  0.819558E+00  0.792806E+00  0.756099E+00  0.710083E+00
  0.659629E+00  0.613075E+00  0.579769E+00  0.567592E+00  0.579769E+00  0.613075E+00
  0.659629E+00  0.710083E+00  0.756099E+00  0.792806E+00  0.819558E+00  0.837532E+00
  0.847231E+00  0.848185E+00  0.839294E+00  0.818302E+00  0.781645E+00  0.727435E+00
  0.662448E+00  0.604698E+00  0.570338E+00  0.560227E+00  0.570338E+00  0.604698E+00
  0.662448E+00  0.727435E+00  0.781645E+00  0.818302E+00  0.839294E+00  0.848185E+00
  0.847231E+00  0.850949E+00  0.838351E+00  0.818294E+00  0.789514E+00  0.751302E+00
  0.706074E+00  0.659954E+00  0.621313E+00  0.598933E+00  0.598933E+00  0.621313E+00
  0.659954E+00  0.706074E+00  0.751302E+00  0.789514E+00  0.818294E+00  0.838351E+00
  0.850949E+00  0.856271E+00  0.853612E+00  0.841684E+00  0.818302E+00  0.780815E+00
  0.729236E+00  0.671267E+00  0.622113E+00  0.595061E+00  0.595061E+00  0.622113E+00
  0.671267E+00  0.729236E+00  0.780815E+00  0.818302E+00  0.841684E+00  0.853612E+00
  0.856271E+00  0.850949E+00  0.849008E+00  0.834202E+00  0.811875E+00  0.780730E+00
  0.741465E+00  0.698049E+00  0.657192E+00  0.627275E+00  0.616176E+00  0.627275E+00
  0.657192E+00  0.698049E+00  0.741465E+00  0.780730E+00  0.811875E+00  0.834202E+00
  0.849008E+00  0.857373E+00  0.859200E+00  0.853612E+00  0.839294E+00  0.814523E+00
  0.778058E+00  0.731923E+00  0.684389E+00  0.648433E+00  0.635102E+00  0.648433E+00
  0.684389E+00  0.731923E+00  0.778058E+00  0.814523E+00  0.839294E+00  0.853612E+00
  0.859200E+00  0.857373E+00  0.849008E+00  0.841820E+00  0.824639E+00  0.799498E+00
  0.766087E+00  0.726635E+00  0.686054E+00  0.651514E+00  0.631262E+00  0.631262E+00
  0.651514E+00  0.686054E+00  0.726635E+00  0.766087E+00  0.799498E+00  0.824639E+00
  0.841820E+00  0.852456E+00  0.857373E+00  0.856271E+00  0.848185E+00  0.831960E+00
  0.806658E+00  0.772689E+00  0.733870E+00  0.698583E+00  0.677313E+00  0.677313E+00
  0.698583E+00  0.733870E+00  0.772689E+00  0.806658E+00  0.831960E+00  0.848185E+00
  0.856271E+00  0.857373E+00  0.852456E+00  0.841820E+00  0.828782E+00  0.808606E+00
  0.780540E+00  0.745591E+00  0.707044E+00  0.670570E+00  0.643764E+00  0.633817E+00
  0.643764E+00  0.670570E+00  0.707044E+00  0.745591E+00  0.780540E+00  0.808606E+00
  0.828782E+00  0.841820E+00  0.849008E+00  0.850949E+00  0.847231E+00  0.836916E+00
  0.819209E+00  0.794169E+00  0.763777E+00  0.733036E+00  0.709580E+00  0.700743E+00
  0.709580E+00  0.733036E+00  0.763777E+00  0.794169E+00  0.819209E+00  0.836916E+00
  0.847231E+00  0.850949E+00  0.849008E+00  0.841820E+00  0.828782E+00  0.863941E+00
  0.843871E+00  0.815975E+00  0.781519E+00  0.744410E+00  0.711682E+00  0.692111E+00
  0.692111E+00  0.711682E+00  0.744410E+00  0.781519E+00  0.815975E+00  0.843871E+00
  0.863941E+00  0.876685E+00  0.883345E+00  0.884808E+00  0.880931E+00  0.870516E+00
  0.851650E+00  0.822259E+00  0.781559E+00  0.733036E+00  0.687087E+00  0.658587E+00
  0.658587E+00  0.687087E+00  0.733036E+00  0.781559E+00  0.822259E+00  0.851650E+00
  0.870516E+00  0.880931E+00  0.884808E+00  0.883345E+00  0.876685E+00  0.863941E+00
  0.843871E+00  0.820125E+00  0.789369E+00  0.753962E+00  0.719263E+00  0.693241E+00
  0.683508E+00  0.693241E+00  0.719263E+00  0.753962E+00  0.789369E+00  0.820125E+00
  0.843871E+00  0.860241E+00  0.869890E+00  0.873792E+00  0.872569E+00  0.865986E+00
  0.852917E+00  0.831886E+00  0.802133E+00  0.765321E+00  0.727310E+00  0.697878E+00
  0.686710E+00  0.697878E+00  0.727310E+00  0.765321E+00  0.802133E+00  0.831886E+00
  0.852917E+00  0.865986E+00  0.872569E+00  0.873792E+00  0.869890E+00  0.860241E+00
  0.843871E+00  0.815975E+00  0.789369E+00  0.757150E+00  0.723045E+00  0.693633E+00
  0.676418E+00  0.676418E+00  0.693633E+00  0.723045E+00  0.757150E+00  0.789369E+00
  0.815975E+00  0.835769E+00  0.848811E+00  0.855590E+00  0.856730E+00  0.852646E+00
  0.843118E+00  0.827277E+00  0.804360E+00  0.775073E+00  0.742967E+00  0.714670E+00
  0.697901E+00  0.697901E+00  0.714670E+00  0.742967E+00  0.775073E+00  0.804360E+00
  0.827277E+00  0.843118E+00  0.852646E+00  0.856730E+00  0.855590E+00  0.848811E+00
  0.835769E+00  0.815975E+00  0.781519E+00  0.753962E+00  0.723045E+00  0.693698E+00
  0.672394E+00  0.664590E+00  0.672394E+00  0.693698E+00  0.723045E+00  0.753962E+00
  0.781519E+00  0.803384E+00  0.819070E+00  0.828684E+00  0.832397E+00  0.830485E+00
  0.823206E+00  0.810442E+00  0.791772E+00  0.767405E+00  0.739487E+00  0.712662E+00
  0.693036E+00  0.685815E+00  0.693036E+00  0.712662E+00  0.739487E+00  0.767405E+00
  0.791772E+00  0.810442E+00  0.823206E+00  0.830485E+00  0.832397E+00  0.828684E+00
  0.819070E+00  0.803384E+00  0.781519E+00  0.744410E+00  0.719263E+00  0.693633E+00
  0.672394E+00  0.660328E+00  0.660328E+00  0.672394E+00  0.693633E+00  0.719263E+00
  0.744410E+00  0.765762E+00  0.781976E+00  0.792854E+00  0.798359E+00  0.798359E+00
  0.792854E+00  0.781976E+00  0.765762E+00  0.744410E+00  0.719263E+00  0.693633E+00
  0.672394E+00  0.660328E+00  0.660328E+00  0.672394E+00  0.693633E+00  0.719263E+00
  0.744410E+00  0.765762E+00  0.781976E+00  0.792854E+00  0.798359E+00  0.798359E+00
  0.792854E+00  0.781976E+00  0.765762E+00  0.744410E+00  0.711682E+00  0.693241E+00
  0.676418E+00  0.664590E+00  0.660328E+00  0.664590E+00  0.676418E+00  0.693241E+00
  0.711682E+00  0.728638E+00  0.742102E+00  0.751277E+00  0.755998E+00  0.756099E+00
  0.751302E+00  0.741465E+00  0.726635E+00  0.707044E+00  0.683598E+00  0.658698E+00
  0.636300E+00  0.620732E+00  0.615168E+00  0.620732E+00  0.636300E+00  0.658698E+00
  0.683598E+00  0.707044E+00  0.726635E+00  0.741465E+00  0.751302E+00  0.756099E+00
  0.755998E+00  0.751277E+00  0.742102E+00  0.728638E+00  0.711682E+00  0.692111E+00
  0.683508E+00  0.676418E+00  0.672394E+00  0.672394E+00  0.676418E+00  0.683508E+00
  0.692111E+00  0.700498E+00  0.707087E+00  0.710759E+00  0.710989E+00  0.707624E+00
  0.700534E+00  0.689542E+00  0.674555E+00  0.655630E+00  0.633212E+00  0.608849E+00
  0.585631E+00  0.567446E+00  0.557521E+00  0.557521E+00  0.567446E+00  0.585631E+00
  0.608849E+00  0.633212E+00  0.655630E+00  0.674555E+00  0.689542E+00  0.700534E+00
  0.707624E+00  0.710989E+00  0.710759E+00  0.707087E+00  0.700498E+00  0.692111E+00
  0.692111E+00  0.693241E+00  0.693633E+00  0.693698E+00  0.693633E+00  0.693241E+00
  0.692111E+00  0.689879E+00  0.686171E+00  0.680479E+00  0.672303E+00  0.661396E+00
  0.647787E+00  0.631625E+00  0.613096E+00  0.592350E+00  0.569526E+00  0.545284E+00
  0.521601E+00  0.501651E+00  0.488490E+00  0.483928E+00  0.488490E+00  0.501651E+00
  0.521601E+00  0.545284E+00  0.569526E+00  0.592350E+00  0.613096E+00  0.631625E+00
  0.647787E+00  0.661396E+00  0.672303E+00  0.680479E+00  0.686171E+00  0.689879E+00
  0.692111E+00  0.711682E+00  0.719263E+00  0.723045E+00  0.723045E+00  0.719263E+00
  0.711682E+00  0.700498E+00  0.686171E+00  0.669144E+00  0.649635E+00  0.627760E+00
  0.603784E+00  0.578216E+00  0.551750E+00  0.525078E+00  0.498600E+00  0.472532E+00
  0.447741E+00  0.426317E+00  0.410778E+00  0.402753E+00  0.402753E+00  0.410778E+00
  0.426317E+00  0.447741E+00  0.472532E+00  0.498600E+00  0.525078E+00  0.551750E+00
  0.578216E+00  0.603784E+00  0.627760E+00  0.649635E+00  0.669144E+00  0.686171E+00
  0.700498E+00  0.711682E+00  0.744410E+00  0.753962E+00  0.757150E+00  0.753962E+00
  0.744410E+00  0.728638E+00  0.707087E+00  0.680479E+00  0.649635E+00  0.615394E+00
  0.578695E+00  0.540677E+00  0.502683E+00  0.466115E+00  0.432040E+00  0.400887E+00
  0.372906E+00  0.349066E+00  0.331037E+00  0.320079E+00  0.316458E+00  0.320079E+00
  0.331037E+00  0.349066E+00  0.372906E+00  0.400887E+00  0.432040E+00  0.466115E+00
  0.502683E+00  0.540677E+00  0.578695E+00  0.615394E+00  0.649635E+00  0.680479E+00
  0.707087E+00  0.728638E+00  0.744410E+00  0.781519E+00  0.789369E+00  0.789369E+00
  0.781519E+00  0.765762E+00  0.742102E+00  0.710759E+00  0.672303E+00  0.627760E+00
  0.578695E+00  0.527183E+00  0.475622E+00  0.426430E+00  0.381590E+00  0.342200E+00
  0.308521E+00  0.280716E+00  0.259404E+00  0.245252E+00  0.238331E+00  0.238331E+00
  0.245252E+00  0.259404E+00  0.280716E+00  0.308521E+00  0.342200E+00  0.381590E+00
  0.426430E+00  0.475622E+00  0.527183E+00  0.578695E+00  0.627760E+00  0.672303E+00
  0.710759E+00  0.742102E+00  0.765762E+00  0.781519E+00  0.815975E+00  0.820125E+00
  0.815975E+00  0.803384E+00  0.781976E+00  0.751277E+00  0.710989E+00  0.661396E+00
  0.603784E+00  0.540677E+00  0.475622E+00  0.412515E+00  0.354731E+00  0.304477E+00
  0.262635E+00  0.229171E+00  0.203763E+00  0.186104E+00  0.175818E+00  0.172460E+00
  0.175818E+00  0.186104E+00  0.203763E+00  0.229171E+00  0.262635E+00  0.304477E+00
  0.354731E+00  0.412515E+00  0.475622E+00  0.540677E+00  0.603784E+00  0.661396E+00
  0.710989E+00  0.751277E+00  0.781976E+00  0.803384E+00  0.815975E+00  0.843871E+00
  0.843871E+00  0.835769E+00  0.819070E+00  0.792854E+00  0.755998E+00  0.707624E+00
  0.647787E+00  0.578216E+00  0.502683E+00  0.426430E+00  0.354731E+00  0.291536E+00
  0.238988E+00  0.197613E+00  0.166758E+00  0.145151E+00  0.131505E+00  0.124903E+00
  0.124903E+00  0.131505E+00  0.145151E+00  0.166758E+00  0.197613E+00  0.238988E+00
  0.291536E+00  0.354731E+00  0.426430E+00  0.502683E+00  0.578216E+00  0.647787E+00
  0.707624E+00  0.755998E+00  0.792854E+00  0.819070E+00  0.835769E+00  0.843871E+00
  0.863941E+00  0.860241E+00  0.848811E+00  0.828684E+00  0.798359E+00  0.756099E+00
  0.700534E+00  0.631625E+00  0.551750E+00  0.466115E+00  0.381590E+00  0.304477E+00
  0.238988E+00  0.187010E+00  0.148389E+00  0.121460E+00  0.104008E+00  0.942128E-01
  0.910503E-01  0.942128E-01  0.104008E+00  0.121460E+00  0.148389E+00  0.187010E+00
  0.238988E+00  0.304477E+00  0.381590E+00  0.466115E+00  0.551750E+00  0.631625E+00
  0.700534E+00  0.756099E+00  0.798359E+00  0.828684E+00  0.848811E+00  0.860241E+00
  0.863941E+00  0.876685E+00  0.869890E+00  0.855590E+00  0.832397E+00  0.798359E+00
  0.751302E+00  0.689542E+00  0.613096E+00  0.525078E+00  0.432040E+00  0.342200E+00
  0.262635E+00  0.197613E+00  0.148389E+00  0.113729E+00  0.909892E-01  0.774401E-01
  0.711363E-01  0.711363E-01  0.774401E-01  0.909892E-01  0.113729E+00  0.148389E+00
  0.197613E+00  0.262635E+00  0.342200E+00  0.432040E+00  0.525078E+00  0.613096E+00
  0.689542E+00  0.751302E+00  0.798359E+00  0.832397E+00  0.855590E+00  0.869890E+00
  0.876685E+00  0.876685E+00  0.883345E+00  0.873792E+00  0.856730E+00  0.830485E+00
  0.792854E+00  0.741465E+00  0.674555E+00  0.592350E+00  0.498600E+00  0.400887E+00
  0.308521E+00  0.229171E+00  0.166758E+00  0.121460E+00  0.909892E-01  0.721514E-01
  0.620888E-01  0.589448E-01  0.620888E-01  0.721514E-01  0.909892E-01  0.121460E+00
  0.166758E+00  0.229171E+00  0.308521E+00  0.400887E+00  0.498600E+00  0.592350E+00
  0.674555E+00  0.741465E+00  0.792854E+00  0.830485E+00  0.856730E+00  0.873792E+00
  0.883345E+00  0.886415E+00  0.883345E+00  0.884808E+00  0.872569E+00  0.852646E+00
  0.823206E+00  0.781976E+00  0.726635E+00  0.655630E+00  0.569526E+00  0.472532E+00
  0.372906E+00  0.280716E+00  0.203763E+00  0.145151E+00  0.104008E+00  0.774401E-01
  0.620888E-01  0.551780E-01  0.551780E-01  0.620888E-01  0.774401E-01  0.104008E+00
  0.145151E+00  0.203763E+00  0.280716E+00  0.372906E+00  0.472532E+00  0.569526E+00
  0.655630E+00  0.726635E+00  0.781976E+00  0.823206E+00  0.852646E+00  0.872569E+00
  0.884808E+00  0.890613E+00  0.890613E+00  0.884808E+00  0.880931E+00  0.865986E+00
  0.843118E+00  0.810442E+00  0.765762E+00  0.707044E+00  0.633212E+00  0.545284E+00
  0.447741E+00  0.349066E+00  0.259404E+00  0.186104E+00  0.131505E+00  0.942128E-01
  0.711363E-01  0.589448E-01  0.551780E-01  0.589448E-01  0.711363E-01  0.942128E-01
  0.131505E+00  0.186104E+00  0.259404E+00  0.349066E+00  0.447741E+00  0.545284E+00
  0.633212E+00  0.707044E+00  0.765762E+00  0.810442E+00  0.843118E+00  0.865986E+00
  0.880931E+00  0.889340E+00  0.892051E+00  0.889340E+00  0.880931E+00  0.870516E+00
  0.852917E+00  0.827277E+00  0.791772E+00  0.744410E+00  0.683598E+00  0.608849E+00
  0.521601E+00  0.426317E+00  0.331037E+00  0.245252E+00  0.175818E+00  0.124903E+00
  0.910503E-01  0.711363E-01  0.620888E-01  0.620888E-01  0.711363E-01  0.910503E-01
  0.124903E+00  0.175818E+00  0.245252E+00  0.331037E+00  0.426317E+00  0.521601E+00
  0.608849E+00  0.683598E+00  0.744410E+00  0.791772E+00  0.827277E+00  0.852917E+00
  0.870516E+00  0.881476E+00  0.886724E+00  0.886724E+00  0.881476E+00  0.870516E+00
  0.851650E+00  0.831886E+00  0.804360E+00  0.767405E+00  0.719263E+00  0.658698E+00
  0.585631E+00  0.501651E+00  0.410778E+00  0.320079E+00  0.238331E+00  0.172460E+00
  0.124903E+00  0.942128E-01  0.774401E-01  0.721514E-01  0.774401E-01  0.942128E-01
  0.124903E+00  0.172460E+00  0.238331E+00  0.320079E+00  0.410778E+00  0.501651E+00
  0.585631E+00  0.658698E+00  0.719263E+00  0.767405E+00  0.804360E+00  0.831886E+00
  0.851650E+00  0.864917E+00  0.872543E+00  0.875029E+00  0.872543E+00  0.864917E+00
  0.851650E+00  0.822259E+00  0.802133E+00  0.775073E+00  0.739487E+00  0.693633E+00
  0.636300E+00  0.567446E+00  0.488490E+00  0.402753E+00  0.316458E+00  0.238331E+00
  0.175818E+00  0.131505E+00  0.104008E+00  0.909892E-01  0.909892E-01  0.104008E+00
  0.131505E+00  0.175818E+00  0.238331E+00  0.316458E+00  0.402753E+00  0.488490E+00
  0.567446E+00  0.636300E+00  0.693633E+00  0.739487E+00  0.775073E+00  0.802133E+00
  0.822259E+00  0.836570E+00  0.845759E+00  0.850245E+00  0.850245E+00  0.845759E+00
  0.836570E+00  0.822259E+00  0.781559E+00  0.765321E+00  0.742967E+00  0.712662E+00
  0.672394E+00  0.620732E+00  0.557521E+00  0.483928E+00  0.402753E+00  0.320079E+00
  0.245252E+00  0.186104E+00  0.145151E+00  0.121460E+00  0.113729E+00  0.121460E+00
  0.145151E+00  0.186104E+00  0.245252E+00  0.320079E+00  0.402753E+00  0.483928E+00
  0.557521E+00  0.620732E+00  0.672394E+00  0.712662E+00  0.742967E+00  0.765321E+00
  0.781559E+00  0.793025E+00  0.800604E+00  0.804888E+00  0.806267E+00  0.804888E+00
  0.800604E+00  0.793025E+00  0.781559E+00  0.733036E+00  0.727310E+00  0.714670E+00
  0.693036E+00  0.660328E+00  0.615168E+00  0.557521E+00  0.488490E+00  0.410778E+00
  0.331037E+00  0.259404E+00  0.203763E+00  0.166758E+00  0.148389E+00  0.148389E+00
  0.166758E+00  0.203763E+00  0.259404E+00  0.331037E+00  0.410778E+00  0.488490E+00
  0.557521E+00  0.615168E+00  0.660328E+00  0.693036E+00  0.714670E+00  0.727310E+00
  0.733036E+00  0.733870E+00  0.731923E+00  0.729236E+00  0.727435E+00  0.727435E+00
  0.729236E+00  0.731923E+00  0.733870E+00  0.733036E+00  0.687087E+00  0.697878E+00
  0.697901E+00  0.685815E+00  0.660328E+00  0.620732E+00  0.567446E+00  0.501651E+00
  0.426317E+00  0.349066E+00  0.280716E+00  0.229171E+00  0.197613E+00  0.187010E+00
  0.197613E+00  0.229171E+00  0.280716E+00  0.349066E+00  0.426317E+00  0.501651E+00
  0.567446E+00  0.620732E+00  0.660328E+00  0.685815E+00  0.697901E+00  0.697878E+00
  0.687087E+00  0.667685E+00  0.643880E+00  0.621549E+00  0.606031E+00  0.600524E+00
  0.606031E+00  0.621549E+00  0.643880E+00  0.667685E+00  0.687087E+00  0.658587E+00
  0.686710E+00  0.697901E+00  0.693036E+00  0.672394E+00  0.636300E+00  0.585631E+00
  0.521601E+00  0.447741E+00  0.372906E+00  0.308521E+00  0.262635E+00  0.238988E+00
  0.238988E+00  0.262635E+00  0.308521E+00  0.372906E+00  0.447741E+00  0.521601E+00
  0.585631E+00  0.636300E+00  0.672394E+00  0.693036E+00  0.697901E+00  0.686710E+00
  0.658587E+00  0.613876E+00  0.558353E+00  0.504360E+00  0.464263E+00  0.443838E+00
  0.443838E+00  0.464263E+00  0.504360E+00  0.558353E+00  0.613876E+00  0.658587E+00
  0.658587E+00  0.697878E+00  0.714670E+00  0.712662E+00  0.693633E+00  0.658698E+00
  0.608849E+00  0.545284E+00  0.472532E+00  0.400887E+00  0.342200E+00  0.304477E+00
  0.291536E+00  0.304477E+00  0.342200E+00  0.400887E+00  0.472532E+00  0.545284E+00
  0.608849E+00  0.658698E+00  0.693633E+00  0.712662E+00  0.714670E+00  0.697878E+00
  0.658587E+00  0.593073E+00  0.505925E+00  0.417237E+00  0.350933E+00  0.315231E+00
  0.304696E+00  0.315231E+00  0.350933E+00  0.417237E+00  0.505925E+00  0.593073E+00
  0.658587E+00  0.687087E+00  0.727310E+00  0.742967E+00  0.739487E+00  0.719263E+00
  0.683598E+00  0.633212E+00  0.569526E+00  0.498600E+00  0.432040E+00  0.381590E+00
  0.354731E+00  0.354731E+00  0.381590E+00  0.432040E+00  0.498600E+00  0.569526E+00
  0.633212E+00  0.683598E+00  0.719263E+00  0.739487E+00  0.742967E+00  0.727310E+00
  0.687087E+00  0.613876E+00  0.505925E+00  0.386134E+00  0.294237E+00  0.247506E+00
  0.233054E+00  0.233054E+00  0.247506E+00  0.294237E+00  0.386134E+00  0.505925E+00
  0.613876E+00  0.687087E+00  0.733036E+00  0.765321E+00  0.775073E+00  0.767405E+00
  0.744410E+00  0.707044E+00  0.655630E+00  0.592350E+00  0.525078E+00  0.466115E+00
  0.426430E+00  0.412515E+00  0.426430E+00  0.466115E+00  0.525078E+00  0.592350E+00
  0.655630E+00  0.707044E+00  0.744410E+00  0.767405E+00  0.775073E+00  0.765321E+00
  0.733036E+00  0.667685E+00  0.558353E+00  0.417237E+00  0.294237E+00  0.229049E+00
  0.214687E+00  0.217212E+00  0.214687E+00  0.229049E+00  0.294237E+00  0.417237E+00
  0.558353E+00  0.667685E+00  0.733036E+00  0.781559E+00  0.802133E+00  0.804360E+00
  0.791772E+00  0.765762E+00  0.726635E+00  0.674555E+00  0.613096E+00  0.551750E+00
  0.502683E+00  0.475622E+00  0.475622E+00  0.502683E+00  0.551750E+00  0.613096E+00
  0.674555E+00  0.726635E+00  0.765762E+00  0.791772E+00  0.804360E+00  0.802133E+00
  0.781559E+00  0.733870E+00  0.643880E+00  0.504360E+00  0.350933E+00  0.247506E+00
  0.214687E+00  0.223792E+00  0.223792E+00  0.214687E+00  0.247506E+00  0.350933E+00
  0.504360E+00  0.643880E+00  0.733870E+00  0.781559E+00  0.822259E+00  0.831886E+00
  0.827277E+00  0.810442E+00  0.781976E+00  0.741465E+00  0.689542E+00  0.631625E+00
  0.578216E+00  0.540677E+00  0.527183E+00  0.540677E+00  0.578216E+00  0.631625E+00
  0.689542E+00  0.741465E+00  0.781976E+00  0.810442E+00  0.827277E+00  0.831886E+00
  0.822259E+00  0.793025E+00  0.731923E+00  0.621549E+00  0.464263E+00  0.315231E+00
  0.233054E+00  0.217212E+00  0.223792E+00  0.217212E+00  0.233054E+00  0.315231E+00
  0.464263E+00  0.621549E+00  0.731923E+00  0.793025E+00  0.822259E+00  0.851650E+00
  0.852917E+00  0.843118E+00  0.823206E+00  0.792854E+00  0.751302E+00  0.700534E+00
  0.647787E+00  0.603784E+00  0.578695E+00  0.578695E+00  0.603784E+00  0.647787E+00
  0.700534E+00  0.751302E+00  0.792854E+00  0.823206E+00  0.843118E+00  0.852917E+00
  0.851650E+00  0.836570E+00  0.800604E+00  0.729236E+00  0.606031E+00  0.443838E+00
  0.304696E+00  0.233054E+00  0.214687E+00  0.214687E+00  0.233054E+00  0.304696E+00
  0.443838E+00  0.606031E+00  0.729236E+00  0.800604E+00  0.836570E+00  0.851650E+00
  0.870516E+00  0.865986E+00  0.852646E+00  0.830485E+00  0.798359E+00  0.756099E+00
  0.707624E+00  0.661396E+00  0.627760E+00  0.615394E+00  0.627760E+00  0.661396E+00
  0.707624E+00  0.756099E+00  0.798359E+00  0.830485E+00  0.852646E+00  0.865986E+00
  0.870516E+00  0.864917E+00  0.845759E+00  0.804888E+00  0.727435E+00  0.600524E+00
  0.443838E+00  0.315231E+00  0.247506E+00  0.229049E+00  0.247506E+00  0.315231E+00
  0.443838E+00  0.600524E+00  0.727435E+00  0.804888E+00  0.845759E+00  0.864917E+00
  0.870516E+00  0.880931E+00  0.872569E+00  0.856730E+00  0.832397E+00  0.798359E+00
  0.755998E+00  0.710989E+00  0.672303E+00  0.649635E+00  0.649635E+00  0.672303E+00
  0.710989E+00  0.755998E+00  0.798359E+00  0.832397E+00  0.856730E+00  0.872569E+00
  0.880931E+00  0.881476E+00  0.872543E+00  0.850245E+00  0.806267E+00  0.727435E+00
  0.606031E+00  0.464263E+00  0.350933E+00  0.294237E+00  0.294237E+00  0.350933E+00
  0.464263E+00  0.606031E+00  0.727435E+00  0.806267E+00  0.850245E+00  0.872543E+00
  0.881476E+00  0.880931E+00  0.884808E+00  0.873792E+00  0.855590E+00  0.828684E+00
  0.792854E+00  0.751277E+00  0.710759E+00  0.680479E+00  0.669144E+00  0.680479E+00
  0.710759E+00  0.751277E+00  0.792854E+00  0.828684E+00  0.855590E+00  0.873792E+00
  0.884808E+00  0.889340E+00  0.886724E+00  0.875029E+00  0.850245E+00  0.804888E+00
  0.729236E+00  0.621549E+00  0.504360E+00  0.417237E+00  0.386134E+00  0.417237E+00
  0.504360E+00  0.621549E+00  0.729236E+00  0.804888E+00  0.850245E+00  0.875029E+00
  0.886724E+00  0.889340E+00  0.884808E+00  0.883345E+00  0.869890E+00  0.848811E+00
  0.819070E+00  0.781976E+00  0.742102E+00  0.707087E+00  0.686171E+00  0.686171E+00
  0.707087E+00  0.742102E+00  0.781976E+00  0.819070E+00  0.848811E+00  0.869890E+00
  0.883345E+00  0.890613E+00  0.892051E+00  0.886724E+00  0.872543E+00  0.845759E+00
  0.800604E+00  0.731923E+00  0.643880E+00  0.558353E+00  0.505925E+00  0.505925E+00
  0.558353E+00  0.643880E+00  0.731923E+00  0.800604E+00  0.845759E+00  0.872543E+00
  0.886724E+00  0.892051E+00  0.890613E+00  0.883345E+00  0.876685E+00  0.860241E+00
  0.835769E+00  0.803384E+00  0.765762E+00  0.728638E+00  0.700498E+00  0.689879E+00
  0.700498E+00  0.728638E+00  0.765762E+00  0.803384E+00  0.835769E+00  0.860241E+00
  0.876685E+00  0.886415E+00  0.890613E+00  0.889340E+00  0.881476E+00  0.864917E+00
  0.836570E+00  0.793025E+00  0.733870E+00  0.667685E+00  0.613876E+00  0.593073E+00
  0.613876E+00  0.667685E+00  0.733870E+00  0.793025E+00  0.836570E+00  0.864917E+00
  0.881476E+00  0.889340E+00  0.890613E+00  0.886415E+00  0.876685E+00  0.863941E+00
  0.843871E+00  0.815975E+00  0.781519E+00  0.744410E+00  0.711682E+00  0.692111E+00
  0.692111E+00  0.711682E+00  0.744410E+00  0.781519E+00  0.815975E+00  0.843871E+00
  0.863941E+00  0.876685E+00  0.883345E+00  0.884808E+00  0.880931E+00  0.870516E+00
  0.851650E+00  0.822259E+00  0.781559E+00  0.733036E+00  0.687087E+00  0.658587E+00
  0.658587E+00  0.687087E+00  0.733036E+00  0.781559E+00  0.822259E+00  0.851650E+00
  0.870516E+00  0.880931E+00  0.884808E+00  0.883345E+00  0.876685E+00  0.863941E+00
  0.888901E+00  0.868026E+00  0.839203E+00  0.803921E+00  0.767405E+00  0.738850E+00
  0.727923E+00  0.738850E+00  0.767405E+00  0.803921E+00  0.839203E+00  0.868026E+00
  0.888901E+00  0.902446E+00  0.909997E+00  0.912663E+00  0.910708E+00  0.903309E+00
  0.888546E+00  0.863434E+00  0.824561E+00  0.770919E+00  0.709580E+00  0.658587E+00
  0.638588E+00  0.658587E+00  0.709580E+00  0.770919E+00  0.824561E+00  0.863434E+00
  0.888546E+00  0.903309E+00  0.910708E+00  0.912663E+00  0.909997E+00  0.902446E+00
  0.888901E+00  0.868026E+00  0.842743E+00  0.810011E+00  0.773099E+00  0.739487E+00
  0.719067E+00  0.719067E+00  0.739487E+00  0.773099E+00  0.810011E+00  0.842743E+00
  0.868026E+00  0.885603E+00  0.896443E+00  0.901650E+00  0.901961E+00  0.897403E+00
  0.887074E+00  0.869174E+00  0.841543E+00  0.803211E+00  0.757348E+00  0.713788E+00
  0.686710E+00  0.686710E+00  0.713788E+00  0.757348E+00  0.803211E+00  0.841543E+00
  0.869174E+00  0.887074E+00  0.897403E+00  0.901961E+00  0.901650E+00  0.896443E+00
  0.885603E+00  0.868026E+00  0.839203E+00  0.810011E+00  0.774995E+00  0.739624E+00
  0.712662E+00  0.702516E+00  0.712662E+00  0.739624E+00  0.774995E+00  0.810011E+00
  0.839203E+00  0.860867E+00  0.875418E+00  0.883758E+00  0.886582E+00  0.884243E+00
  0.876614E+00  0.862867E+00  0.841629E+00  0.811996E+00  0.775474E+00  0.737875E+00
  0.708874E+00  0.697901E+00  0.708874E+00  0.737875E+00  0.775474E+00  0.811996E+00
  0.841629E+00  0.862867E+00  0.876614E+00  0.884243E+00  0.886582E+00  0.883758E+00
  0.875418E+00  0.860867E+00  0.839203E+00  0.803921E+00  0.773099E+00  0.739624E+00
  0.710315E+00  0.693036E+00  0.693036E+00  0.710315E+00  0.739624E+00  0.773099E+00
  0.803921E+00  0.828502E+00  0.846161E+00  0.857489E+00  0.863052E+00  0.863052E+00
  0.857489E+00  0.846161E+00  0.828502E+00  0.803921E+00  0.773099E+00  0.739624E+00
  0.710315E+00  0.693036E+00  0.693036E+00  0.710315E+00  0.739624E+00  0.773099E+00
  0.803921E+00  0.828502E+00  0.846161E+00  0.857489E+00  0.863052E+00  0.863052E+00
  0.857489E+00  0.846161E+00  0.828502E+00  0.803921E+00  0.767405E+00  0.739487E+00
  0.712662E+00  0.693036E+00  0.685815E+00  0.693036E+00  0.712662E+00  0.739487E+00
  0.767405E+00  0.791772E+00  0.810442E+00  0.823206E+00  0.830485E+00  0.832397E+00
  0.828684E+00  0.819070E+00  0.803384E+00  0.781519E+00  0.753962E+00  0.723045E+00
  0.693698E+00  0.672394E+00  0.664590E+00  0.672394E+00  0.693698E+00  0.723045E+00
  0.753962E+00  0.781519E+00  0.803384E+00  0.819070E+00  0.828684E+00  0.832397E+00
  0.830485E+00  0.823206E+00  0.810442E+00  0.791772E+00  0.767405E+00  0.738850E+00
  0.719067E+00  0.702516E+00  0.693036E+00  0.693036E+00  0.702516E+00  0.719067E+00
  0.738850E+00  0.757992E+00  0.773732E+00  0.784830E+00  0.791153E+00  0.792806E+00
  0.789514E+00  0.780730E+00  0.766087E+00  0.745591E+00  0.719732E+00  0.690167E+00
  0.660569E+00  0.636300E+00  0.622600E+00  0.622600E+00  0.636300E+00  0.660569E+00
  0.690167E+00  0.719732E+00  0.745591E+00  0.766087E+00  0.780730E+00  0.789514E+00
  0.792806E+00  0.791153E+00  0.784830E+00  0.773732E+00  0.757992E+00  0.738850E+00
  0.727923E+00  0.719067E+00  0.712662E+00  0.710315E+00  0.712662E+00  0.719067E+00
  0.727923E+00  0.737237E+00  0.745125E+00  0.750167E+00  0.751624E+00  0.749298E+00
  0.743026E+00  0.732368E+00  0.716829E+00  0.696261E+00  0.670979E+00  0.642067E+00
  0.612155E+00  0.585631E+00  0.567355E+00  0.560853E+00  0.567355E+00  0.585631E+00
  0.612155E+00  0.642067E+00  0.670979E+00  0.696261E+00  0.716829E+00  0.732368E+00
  0.743026E+00  0.749298E+00  0.751624E+00  0.750167E+00  0.745125E+00  0.737237E+00
  0.727923E+00  0.738850E+00  0.739487E+00  0.739624E+00  0.739624E+00  0.739487E+00
  0.738850E+00  0.737237E+00  0.734179E+00  0.729141E+00  0.721570E+00  0.711089E+00
  0.697512E+00  0.680650E+00  0.660301E+00  0.636494E+00  0.609557E+00  0.580113E+00
  0.549721E+00  0.521601E+00  0.499973E+00  0.488308E+00  0.488308E+00  0.499973E+00
  0.521601E+00  0.549721E+00  0.580113E+00  0.609557E+00  0.636494E+00  0.660301E+00
  0.680650E+00  0.697512E+00  0.711089E+00  0.721570E+00  0.729141E+00  0.734179E+00
  0.737237E+00  0.738850E+00  0.767405E+00  0.773099E+00  0.774995E+00  0.773099E+00
  0.767405E+00  0.757992E+00  0.745125E+00  0.729141E+00  0.710244E+00  0.688497E+00
  0.663959E+00  0.636737E+00  0.607066E+00  0.575505E+00  0.542904E+00  0.510013E+00
  0.477656E+00  0.447741E+00  0.423467E+00  0.407871E+00  0.402546E+00  0.407871E+00
  0.423467E+00  0.447741E+00  0.477656E+00  0.510013E+00  0.542904E+00  0.575505E+00
  0.607066E+00  0.636737E+00  0.663959E+00  0.688497E+00  0.710244E+00  0.729141E+00
  0.745125E+00  0.757992E+00  0.767405E+00  0.803921E+00  0.810011E+00  0.810011E+00
  0.803921E+00  0.791772E+00  0.773732E+00  0.750167E+00  0.721570E+00  0.688497E+00
  0.651578E+00  0.611545E+00  0.569300E+00  0.526112E+00  0.483640E+00  0.443365E+00
  0.406142E+00  0.372906E+00  0.345579E+00  0.326445E+00  0.316781E+00  0.316781E+00
  0.326445E+00  0.345579E+00  0.372906E+00  0.406142E+00  0.443365E+00  0.483640E+00
  0.526112E+00  0.569300E+00  0.611545E+00  0.651578E+00  0.688497E+00  0.721570E+00
  0.750167E+00  0.773732E+00  0.791772E+00  0.803921E+00  0.839203E+00  0.842743E+00
  0.839203E+00  0.828502E+00  0.810442E+00  0.784830E+00  0.751624E+00  0.711089E+00
  0.663959E+00  0.611545E+00  0.555703E+00  0.498783E+00  0.443516E+00  0.392463E+00
  0.347227E+00  0.308521E+00  0.277114E+00  0.254168E+00  0.240457E+00  0.235949E+00
  0.240457E+00  0.254168E+00  0.277114E+00  0.308521E+00  0.347227E+00  0.392463E+00
  0.443516E+00  0.498783E+00  0.555703E+00  0.611545E+00  0.663959E+00  0.711089E+00
  0.751624E+00  0.784830E+00  0.810442E+00  0.828502E+00  0.839203E+00  0.868026E+00
  0.868026E+00  0.860867E+00  0.846161E+00  0.823206E+00  0.791153E+00  0.749298E+00
  0.697512E+00  0.636737E+00  0.569300E+00  0.498783E+00  0.429436E+00  0.365293E+00
  0.309241E+00  0.262635E+00  0.225771E+00  0.198609E+00  0.180953E+00  0.172350E+00
  0.172350E+00  0.180953E+00  0.198609E+00  0.225771E+00  0.262635E+00  0.309241E+00
  0.365293E+00  0.429436E+00  0.498783E+00  0.569300E+00  0.636737E+00  0.697512E+00
  0.749298E+00  0.791153E+00  0.823206E+00  0.846161E+00  0.860867E+00  0.868026E+00
  0.888901E+00  0.885603E+00  0.875418E+00  0.857489E+00  0.830485E+00  0.792806E+00
  0.743026E+00  0.680650E+00  0.607066E+00  0.526112E+00  0.443516E+00  0.365293E+00
  0.296196E+00  0.238988E+00  0.194467E+00  0.161995E+00  0.140247E+00  0.127860E+00
  0.123849E+00  0.127860E+00  0.140247E+00  0.161995E+00  0.194467E+00  0.238988E+00
  0.296196E+00  0.365293E+00  0.443516E+00  0.526112E+00  0.607066E+00  0.680650E+00
  0.743026E+00  0.792806E+00  0.830485E+00  0.857489E+00  0.875418E+00  0.885603E+00
  0.888901E+00  0.902446E+00  0.896443E+00  0.883758E+00  0.863052E+00  0.832397E+00
  0.789514E+00  0.732368E+00  0.660301E+00  0.575505E+00  0.483640E+00  0.392463E+00
  0.309241E+00  0.238988E+00  0.183971E+00  0.143941E+00  0.116948E+00  0.100574E+00
  0.928909E-01  0.928909E-01  0.100574E+00  0.116948E+00  0.143941E+00  0.183971E+00
  0.238988E+00  0.309241E+00  0.392463E+00  0.483640E+00  0.575505E+00  0.660301E+00
  0.732368E+00  0.789514E+00  0.832397E+00  0.863052E+00  0.883758E+00  0.896443E+00
  0.902446E+00  0.902446E+00  0.909997E+00  0.901650E+00  0.886582E+00  0.863052E+00
  0.828684E+00  0.780730E+00  0.716829E+00  0.636494E+00  0.542904E+00  0.443365E+00
  0.347227E+00  0.262635E+00  0.194467E+00  0.143941E+00  0.109394E+00  0.877738E-01
  0.761236E-01  0.724664E-01  0.761236E-01  0.877738E-01  0.109394E+00  0.143941E+00
  0.194467E+00  0.262635E+00  0.347227E+00  0.443365E+00  0.542904E+00  0.636494E+00
  0.716829E+00  0.780730E+00  0.828684E+00  0.863052E+00  0.886582E+00  0.901650E+00
  0.909997E+00  0.912665E+00  0.909997E+00  0.912663E+00  0.901961E+00  0.884243E+00
  0.857489E+00  0.819070E+00  0.766087E+00  0.696261E+00  0.609557E+00  0.510013E+00
  0.406142E+00  0.308521E+00  0.225771E+00  0.161995E+00  0.116948E+00  0.877738E-01
  0.708653E-01  0.632284E-01  0.632284E-01  0.708653E-01  0.877738E-01  0.116948E+00
  0.161995E+00  0.225771E+00  0.308521E+00  0.406142E+00  0.510013E+00  0.609557E+00
  0.696261E+00  0.766087E+00  0.819070E+00  0.857489E+00  0.884243E+00  0.901961E+00
  0.912663E+00  0.917684E+00  0.917684E+00  0.912663E+00  0.910708E+00  0.897403E+00
  0.876614E+00  0.846161E+00  0.803384E+00  0.745591E+00  0.670979E+00  0.580113E+00
  0.477656E+00  0.372906E+00  0.277114E+00  0.198609E+00  0.140247E+00  0.100574E+00
  0.761236E-01  0.632284E-01  0.592448E-01  0.632284E-01  0.761236E-01  0.100574E+00
  0.140247E+00  0.198609E+00  0.277114E+00  0.372906E+00  0.477656E+00  0.580113E+00
  0.670979E+00  0.745591E+00  0.803384E+00  0.846161E+00  0.876614E+00  0.897403E+00
  0.910708E+00  0.918080E+00  0.920437E+00  0.918080E+00  0.910708E+00  0.903309E+00
  0.887074E+00  0.862867E+00  0.828502E+00  0.781519E+00  0.719732E+00  0.642067E+00
  0.549721E+00  0.447741E+00  0.345579E+00  0.254168E+00  0.180953E+00  0.127860E+00
  0.928909E-01  0.724664E-01  0.632284E-01  0.632284E-01  0.724664E-01  0.928909E-01
  0.127860E+00  0.180953E+00  0.254168E+00  0.345579E+00  0.447741E+00  0.549721E+00
  0.642067E+00  0.719732E+00  0.781519E+00  0.828502E+00  0.862867E+00  0.887074E+00
  0.903309E+00  0.913231E+00  0.917925E+00  0.917925E+00  0.913231E+00  0.903309E+00
  0.888546E+00  0.869174E+00  0.841629E+00  0.803921E+00  0.753962E+00  0.690167E+00
  0.612155E+00  0.521601E+00  0.423467E+00  0.326445E+00  0.240457E+00  0.172350E+00
  0.123849E+00  0.928909E-01  0.761236E-01  0.708653E-01  0.761236E-01  0.928909E-01
  0.123849E+00  0.172350E+00  0.240457E+00  0.326445E+00  0.423467E+00  0.521601E+00
  0.612155E+00  0.690167E+00  0.753962E+00  0.803921E+00  0.841629E+00  0.869174E+00
  0.888546E+00  0.901307E+00  0.908541E+00  0.910882E+00  0.908541E+00  0.901307E+00
  0.888546E+00  0.863434E+00  0.841543E+00  0.811996E+00  0.773099E+00  0.723045E+00
  0.660569E+00  0.585631E+00  0.499973E+00  0.407871E+00  0.316781E+00  0.235949E+00
  0.172350E+00  0.127860E+00  0.100574E+00  0.877738E-01  0.877738E-01  0.100574E+00
  0.127860E+00  0.172350E+00  0.235949E+00  0.316781E+00  0.407871E+00  0.499973E+00
  0.585631E+00  0.660569E+00  0.723045E+00  0.773099E+00  0.811996E+00  0.841543E+00
  0.863434E+00  0.878923E+00  0.888829E+00  0.893656E+00  0.893656E+00  0.888829E+00
  0.878923E+00  0.863434E+00  0.824561E+00  0.803211E+00  0.775474E+00  0.739624E+00
  0.693698E+00  0.636300E+00  0.567355E+00  0.488308E+00  0.402546E+00  0.316781E+00
  0.240457E+00  0.180953E+00  0.140247E+00  0.116948E+00  0.109394E+00  0.116948E+00
  0.140247E+00  0.180953E+00  0.240457E+00  0.316781E+00  0.402546E+00  0.488308E+00
  0.567355E+00  0.636300E+00  0.693698E+00  0.739624E+00  0.775474E+00  0.803211E+00
  0.824561E+00  0.840627E+00  0.851935E+00  0.858674E+00  0.860913E+00  0.858674E+00
  0.851935E+00  0.840627E+00  0.824561E+00  0.770919E+00  0.757348E+00  0.737875E+00
  0.710315E+00  0.672394E+00  0.622600E+00  0.560853E+00  0.488308E+00  0.407871E+00
  0.326445E+00  0.254168E+00  0.198609E+00  0.161995E+00  0.143941E+00  0.143941E+00
  0.161995E+00  0.198609E+00  0.254168E+00  0.326445E+00  0.407871E+00  0.488308E+00
  0.560853E+00  0.622600E+00  0.672394E+00  0.710315E+00  0.737875E+00  0.757348E+00
  0.770919E+00  0.780322E+00  0.786775E+00  0.790939E+00  0.793016E+00  0.793016E+00
  0.790939E+00  0.786775E+00  0.780322E+00  0.770919E+00  0.709580E+00  0.713788E+00
  0.708874E+00  0.693036E+00  0.664590E+00  0.622600E+00  0.567355E+00  0.499973E+00
  0.423467E+00  0.345579E+00  0.277114E+00  0.225771E+00  0.194467E+00  0.183971E+00
  0.194467E+00  0.225771E+00  0.277114E+00  0.345579E+00  0.423467E+00  0.499973E+00
  0.567355E+00  0.622600E+00  0.664590E+00  0.693036E+00  0.708874E+00  0.713788E+00
  0.709580E+00  0.698583E+00  0.684389E+00  0.671267E+00  0.662448E+00  0.659397E+00
  0.662448E+00  0.671267E+00  0.684389E+00  0.698583E+00  0.709580E+00  0.658587E+00
  0.686710E+00  0.697901E+00  0.693036E+00  0.672394E+00  0.636300E+00  0.585631E+00
  0.521601E+00  0.447741E+00  0.372906E+00  0.308521E+00  0.262635E+00  0.238988E+00
  0.238988E+00  0.262635E+00  0.308521E+00  0.372906E+00  0.447741E+00  0.521601E+00
  0.585631E+00  0.636300E+00  0.672394E+00  0.693036E+00  0.697901E+00  0.686710E+00
  0.658587E+00  0.613876E+00  0.558353E+00  0.504360E+00  0.464263E+00  0.443838E+00
  0.443838E+00  0.464263E+00  0.504360E+00  0.558353E+00  0.613876E+00  0.658587E+00
  0.638588E+00  0.686710E+00  0.708874E+00  0.710315E+00  0.693698E+00  0.660569E+00
  0.612155E+00  0.549721E+00  0.477656E+00  0.406142E+00  0.347227E+00  0.309241E+00
  0.296196E+00  0.309241E+00  0.347227E+00  0.406142E+00  0.477656E+00  0.549721E+00
  0.612155E+00  0.660569E+00  0.693698E+00  0.710315E+00  0.708874E+00  0.686710E+00
  0.638588E+00  0.559242E+00  0.454286E+00  0.348998E+00  0.271466E+00  0.229521E+00
  0.216884E+00  0.229521E+00  0.271466E+00  0.348998E+00  0.454286E+00  0.559242E+00
  0.638588E+00  0.658587E+00  0.713788E+00  0.737875E+00  0.739624E+00  0.723045E+00
  0.690167E+00  0.642067E+00  0.580113E+00  0.510013E+00  0.443365E+00  0.392463E+00
  0.365293E+00  0.365293E+00  0.392463E+00  0.443365E+00  0.510013E+00  0.580113E+00
  0.642067E+00  0.690167E+00  0.723045E+00  0.739624E+00  0.737875E+00  0.713788E+00
  0.658587E+00  0.559242E+00  0.415066E+00  0.264971E+00  0.160773E+00  0.109806E+00
  0.915576E-01  0.915576E-01  0.109806E+00  0.160773E+00  0.264971E+00  0.415066E+00
  0.559242E+00  0.658587E+00  0.709580E+00  0.757348E+00  0.775474E+00  0.773099E+00
  0.753962E+00  0.719732E+00  0.670979E+00  0.609557E+00  0.542904E+00  0.483640E+00
  0.443516E+00  0.429436E+00  0.443516E+00  0.483640E+00  0.542904E+00  0.609557E+00
  0.670979E+00  0.719732E+00  0.753962E+00  0.773099E+00  0.775474E+00  0.757348E+00
  0.709580E+00  0.613876E+00  0.454286E+00  0.264971E+00  0.128976E+00  0.679346E-01
  0.482593E-01  0.444108E-01  0.482593E-01  0.679346E-01  0.128976E+00  0.264971E+00
  0.454286E+00  0.613876E+00  0.709580E+00  0.770919E+00  0.803211E+00  0.811996E+00
  0.803921E+00  0.781519E+00  0.745591E+00  0.696261E+00  0.636494E+00  0.575505E+00
  0.526112E+00  0.498783E+00  0.498783E+00  0.526112E+00  0.575505E+00  0.636494E+00
  0.696261E+00  0.745591E+00  0.781519E+00  0.803921E+00  0.811996E+00  0.803211E+00
  0.770919E+00  0.698583E+00  0.558353E+00  0.348998E+00  0.160773E+00  0.679346E-01
  0.390039E-01  0.340784E-01  0.340784E-01  0.390039E-01  0.679346E-01  0.160773E+00
  0.348998E+00  0.558353E+00  0.698583E+00  0.770919E+00  0.824561E+00  0.841543E+00
  0.841629E+00  0.828502E+00  0.803384E+00  0.766087E+00  0.716829E+00  0.660301E+00
  0.607066E+00  0.569300E+00  0.555703E+00  0.569300E+00  0.607066E+00  0.660301E+00
  0.716829E+00  0.766087E+00  0.803384E+00  0.828502E+00  0.841629E+00  0.841543E+00
  0.824561E+00  0.780322E+00  0.684389E+00  0.504360E+00  0.271466E+00  0.109806E+00
  0.482593E-01  0.340784E-01  0.338326E-01  0.340784E-01  0.482593E-01  0.109806E+00
  0.271466E+00  0.504360E+00  0.684389E+00  0.780322E+00  0.824561E+00  0.863434E+00
  0.869174E+00  0.862867E+00  0.846161E+00  0.819070E+00  0.780730E+00  0.732368E+00
  0.680650E+00  0.636737E+00  0.611545E+00  0.611545E+00  0.636737E+00  0.680650E+00
  0.732368E+00  0.780730E+00  0.819070E+00  0.846161E+00  0.862867E+00  0.869174E+00
  0.863434E+00  0.840627E+00  0.786775E+00  0.671267E+00  0.464263E+00  0.229521E+00
  0.915576E-01  0.444108E-01  0.340784E-01  0.340784E-01  0.444108E-01  0.915576E-01
  0.229521E+00  0.464263E+00  0.671267E+00  0.786775E+00  0.840627E+00  0.863434E+00
  0.888546E+00  0.887074E+00  0.876614E+00  0.857489E+00  0.828684E+00  0.789514E+00
  0.743026E+00  0.697512E+00  0.663959E+00  0.651578E+00  0.663959E+00  0.697512E+00
  0.743026E+00  0.789514E+00  0.828684E+00  0.857489E+00  0.876614E+00  0.887074E+00
  0.888546E+00  0.878923E+00  0.851935E+00  0.790939E+00  0.662448E+00  0.443838E+00
  0.216884E+00  0.915576E-01  0.482593E-01  0.390039E-01  0.482593E-01  0.915576E-01
  0.216884E+00  0.443838E+00  0.662448E+00  0.790939E+00  0.851935E+00  0.878923E+00
  0.888546E+00  0.903309E+00  0.897403E+00  0.884243E+00  0.863052E+00  0.832397E+00
  0.792806E+00  0.749298E+00  0.711089E+00  0.688497E+00  0.688497E+00  0.711089E+00
  0.749298E+00  0.792806E+00  0.832397E+00  0.863052E+00  0.884243E+00  0.897403E+00
  0.903309E+00  0.901307E+00  0.888829E+00  0.858674E+00  0.793016E+00  0.659397E+00
  0.443838E+00  0.229521E+00  0.109806E+00  0.679346E-01  0.679346E-01  0.109806E+00
  0.229521E+00  0.443838E+00  0.659397E+00  0.793016E+00  0.858674E+00  0.888829E+00
  0.901307E+00  0.903309E+00  0.910708E+00  0.901961E+00  0.886582E+00  0.863052E+00
  0.830485E+00  0.791153E+00  0.751624E+00  0.721570E+00  0.710244E+00  0.721570E+00
  0.751624E+00  0.791153E+00  0.830485E+00  0.863052E+00  0.886582E+00  0.901961E+00
  0.910708E+00  0.913231E+00  0.908541E+00  0.893656E+00  0.860913E+00  0.793016E+00
  0.662448E+00  0.464263E+00  0.271466E+00  0.160773E+00  0.128976E+00  0.160773E+00
  0.271466E+00  0.464263E+00  0.662448E+00  0.793016E+00  0.860913E+00  0.893656E+00
  0.908541E+00  0.913231E+00  0.910708E+00  0.912663E+00  0.901650E+00  0.883758E+00
  0.857489E+00  0.823206E+00  0.784830E+00  0.750167E+00  0.729141E+00  0.729141E+00
  0.750167E+00  0.784830E+00  0.823206E+00  0.857489E+00  0.883758E+00  0.901650E+00
  0.912663E+00  0.918080E+00  0.917925E+00  0.910882E+00  0.893656E+00  0.858674E+00
  0.790939E+00  0.671267E+00  0.504360E+00  0.348998E+00  0.264971E+00  0.264971E+00
  0.348998E+00  0.504360E+00  0.671267E+00  0.790939E+00  0.858674E+00  0.893656E+00
  0.910882E+00  0.917925E+00  0.918080E+00  0.912663E+00  0.909997E+00  0.896443E+00
  0.875418E+00  0.846161E+00  0.810442E+00  0.773732E+00  0.745125E+00  0.734179E+00
  0.745125E+00  0.773732E+00  0.810442E+00  0.846161E+00  0.875418E+00  0.896443E+00
  0.909997E+00  0.917684E+00  0.920437E+00  0.917925E+00  0.908541E+00  0.888829E+00
  0.851935E+00  0.786775E+00  0.684389E+00  0.558353E+00  0.454286E+00  0.415066E+00
  0.454286E+00  0.558353E+00  0.684389E+00  0.786775E+00  0.851935E+00  0.888829E+00
  0.908541E+00  0.917925E+00  0.920437E+00  0.917684E+00  0.909997E+00  0.902446E+00
  0.885603E+00  0.860867E+00  0.828502E+00  0.791772E+00  0.757992E+00  0.737237E+00
  0.737237E+00  0.757992E+00  0.791772E+00  0.828502E+00  0.860867E+00  0.885603E+00
  0.902446E+00  0.912665E+00  0.917684E+00  0.918080E+00  0.913231E+00  0.901307E+00
  0.878923E+00  0.840627E+00  0.780322E+00  0.698583E+00  0.613876E+00  0.559242E+00
  0.559242E+00  0.613876E+00  0.698583E+00  0.780322E+00  0.840627E+00  0.878923E+00
  0.901307E+00  0.913231E+00  0.918080E+00  0.917684E+00  0.912665E+00  0.902446E+00
  0.888901E+00  0.868026E+00  0.839203E+00  0.803921E+00  0.767405E+00  0.738850E+00
  0.727923E+00  0.738850E+00  0.767405E+00  0.803921E+00  0.839203E+00  0.868026E+00
  0.888901E+00  0.902446E+00  0.909997E+00  0.912663E+00  0.910708E+00  0.903309E+00
  0.888546E+00  0.863434E+00  0.824561E+00  0.770919E+00  0.709580E+00  0.658587E+00
  0.638588E+00  0.658587E+00  0.709580E+00  0.770919E+00  0.824561E+00  0.863434E+00
  0.888546E+00  0.903309E+00  0.910708E+00  0.912663E+00  0.909997E+00  0.902446E+00
  0.888901E+00  0.904834E+00  0.882001E+00  0.850280E+00  0.811996E+00  0.775073E+00
  0.751767E+00  0.751767E+00  0.775073E+00  0.811996E+00  0.850280E+00  0.882001E+00
  0.904834E+00  0.919685E+00  0.928375E+00  0.932440E+00  0.932611E+00  0.928605E+00
  0.919071E+00  0.901455E+00  0.871856E+00  0.826147E+00  0.764817E+00  0.700743E+00
  0.658587E+00  0.658587E+00  0.700743E+00  0.764817E+00  0.826147E+00  0.871856E+00
  0.901455E+00  0.919071E+00  0.928605E+00  0.932611E+00  0.932440E+00  0.928375E+00
  0.919685E+00  0.904834E+00  0.882001E+00  0.853169E+00  0.815873E+00  0.775474E+00
  0.742967E+00  0.730373E+00  0.742967E+00  0.775474E+00  0.815873E+00  0.853169E+00
  0.882001E+00  0.901853E+00  0.914279E+00  0.921000E+00  0.923166E+00  0.921142E+00
  0.914412E+00  0.901506E+00  0.880071E+00  0.847584E+00  0.803713E+00  0.754418E+00
  0.713788E+00  0.697878E+00  0.713788E+00  0.754418E+00  0.803713E+00  0.847584E+00
  0.880071E+00  0.901506E+00  0.914412E+00  0.921142E+00  0.923166E+00  0.921000E+00
  0.914279E+00  0.901853E+00  0.882001E+00  0.850280E+00  0.815873E+00  0.775557E+00
  0.737875E+00  0.714670E+00  0.714670E+00  0.737875E+00  0.775557E+00  0.815873E+00
  0.850280E+00  0.875698E+00  0.892673E+00  0.902860E+00  0.907619E+00  0.907619E+00
  0.902860E+00  0.892673E+00  0.875698E+00  0.850280E+00  0.815873E+00  0.775557E+00
  0.737875E+00  0.714670E+00  0.714670E+00  0.737875E+00  0.775557E+00  0.815873E+00
  0.850280E+00  0.875698E+00  0.892673E+00  0.902860E+00  0.907619E+00  0.907619E+00
  0.902860E+00  0.892673E+00  0.875698E+00  0.850280E+00  0.811996E+00  0.775474E+00
  0.737875E+00  0.708874E+00  0.697901E+00  0.708874E+00  0.737875E+00  0.775474E+00
  0.811996E+00  0.841629E+00  0.862867E+00  0.876614E+00  0.884243E+00  0.886582E+00
  0.883758E+00  0.875418E+00  0.860867E+00  0.839203E+00  0.810011E+00  0.774995E+00
  0.739624E+00  0.712662E+00  0.702516E+00  0.712662E+00  0.739624E+00  0.774995E+00
  0.810011E+00  0.839203E+00  0.860867E+00  0.875418E+00  0.883758E+00  0.886582E+00
  0.884243E+00  0.876614E+00  0.862867E+00  0.841629E+00  0.811996E+00  0.775073E+00
  0.742967E+00  0.714670E+00  0.697901E+00  0.697901E+00  0.714670E+00  0.742967E+00
  0.775073E+00  0.804360E+00  0.827277E+00  0.843118E+00  0.852646E+00  0.856730E+00
  0.855590E+00  0.848811E+00  0.835769E+00  0.815975E+00  0.789369E+00  0.757150E+00
  0.723045E+00  0.693633E+00  0.676418E+00  0.676418E+00  0.693633E+00  0.723045E+00
  0.757150E+00  0.789369E+00  0.815975E+00  0.835769E+00  0.848811E+00  0.855590E+00
  0.856730E+00  0.852646E+00  0.843118E+00  0.827277E+00  0.804360E+00  0.775073E+00
  0.751767E+00  0.730373E+00  0.714670E+00  0.708874E+00  0.714670E+00  0.730373E+00
  0.751767E+00  0.773987E+00  0.793206E+00  0.807366E+00  0.816017E+00  0.819558E+00
  0.818294E+00  0.811875E+00  0.799498E+00  0.780540E+00  0.755020E+00  0.723970E+00
  0.690167E+00  0.658698E+00  0.636073E+00  0.627813E+00  0.636073E+00  0.658698E+00
  0.690167E+00  0.723970E+00  0.755020E+00  0.780540E+00  0.799498E+00  0.811875E+00
  0.818294E+00  0.819558E+00  0.816017E+00  0.807366E+00  0.793206E+00  0.773987E+00
  0.751767E+00  0.751767E+00  0.742967E+00  0.737875E+00  0.737875E+00  0.742967E+00
  0.751767E+00  0.762109E+00  0.771741E+00  0.778789E+00  0.782080E+00  0.781224E+00
  0.776261E+00  0.767015E+00  0.752806E+00  0.732884E+00  0.707074E+00  0.676119E+00
  0.642067E+00  0.608849E+00  0.582001E+00  0.566943E+00  0.566943E+00  0.582001E+00
  0.608849E+00  0.642067E+00  0.676119E+00  0.707074E+00  0.732884E+00  0.752806E+00
  0.767015E+00  0.776261E+00  0.781224E+00  0.782080E+00  0.778789E+00  0.771741E+00
  0.762109E+00  0.751767E+00  0.775073E+00  0.775474E+00  0.775557E+00  0.775474E+00
  0.775073E+00  0.773987E+00  0.771741E+00  0.767722E+00  0.761216E+00  0.751638E+00
  0.738712E+00  0.722272E+00  0.701939E+00  0.677257E+00  0.648185E+00  0.615338E+00
  0.580113E+00  0.545284E+00  0.515266E+00  0.494920E+00  0.487737E+00  0.494920E+00
  0.515266E+00  0.545284E+00  0.580113E+00  0.615338E+00  0.648185E+00  0.677257E+00
  0.701939E+00  0.722272E+00  0.738712E+00  0.751638E+00  0.761216E+00  0.767722E+00
  0.771741E+00  0.773987E+00  0.775073E+00  0.811996E+00  0.815873E+00  0.815873E+00
  0.811996E+00  0.804360E+00  0.793206E+00  0.778789E+00  0.761216E+00  0.740424E+00
  0.716350E+00  0.688982E+00  0.658266E+00  0.624232E+00  0.587415E+00  0.548909E+00
  0.510013E+00  0.472532E+00  0.439572E+00  0.415065E+00  0.402107E+00  0.402107E+00
  0.415065E+00  0.439572E+00  0.472532E+00  0.510013E+00  0.548909E+00  0.587415E+00
  0.624232E+00  0.658266E+00  0.688982E+00  0.716350E+00  0.740424E+00  0.761216E+00
  0.778789E+00  0.793206E+00  0.804360E+00  0.811996E+00  0.850280E+00  0.853169E+00
  0.850280E+00  0.841629E+00  0.827277E+00  0.807366E+00  0.782080E+00  0.751638E+00
  0.716350E+00  0.676670E+00  0.633130E+00  0.586439E+00  0.537909E+00  0.489555E+00
  0.443365E+00  0.400887E+00  0.364024E+00  0.335484E+00  0.317665E+00  0.311663E+00
  0.317665E+00  0.335484E+00  0.364024E+00  0.400887E+00  0.443365E+00  0.489555E+00
  0.537909E+00  0.586439E+00  0.633130E+00  0.676670E+00  0.716350E+00  0.751638E+00
  0.782080E+00  0.807366E+00  0.827277E+00  0.841629E+00  0.850280E+00  0.882001E+00
  0.882001E+00  0.875698E+00  0.862867E+00  0.843118E+00  0.816017E+00  0.781224E+00
  0.738712E+00  0.688982E+00  0.633130E+00  0.572830E+00  0.510487E+00  0.449293E+00
  0.392463E+00  0.342200E+00  0.299855E+00  0.266818E+00  0.244441E+00  0.233294E+00
  0.233294E+00  0.244441E+00  0.266818E+00  0.299855E+00  0.342200E+00  0.392463E+00
  0.449293E+00  0.510487E+00  0.572830E+00  0.633130E+00  0.688982E+00  0.738712E+00
  0.781224E+00  0.816017E+00  0.843118E+00  0.862867E+00  0.875698E+00  0.882001E+00
  0.904834E+00  0.901853E+00  0.892673E+00  0.876614E+00  0.852646E+00  0.819558E+00
  0.776261E+00  0.722272E+00  0.658266E+00  0.586439E+00  0.510487E+00  0.435163E+00
  0.365293E+00  0.304477E+00  0.254535E+00  0.216080E+00  0.189184E+00  0.173487E+00
  0.168361E+00  0.173487E+00  0.189184E+00  0.216080E+00  0.254535E+00  0.304477E+00
  0.365293E+00  0.435163E+00  0.510487E+00  0.586439E+00  0.658266E+00  0.722272E+00
  0.776261E+00  0.819558E+00  0.852646E+00  0.876614E+00  0.892673E+00  0.901853E+00
  0.904834E+00  0.919685E+00  0.914279E+00  0.902860E+00  0.884243E+00  0.856730E+00
  0.818294E+00  0.767015E+00  0.701939E+00  0.624232E+00  0.537909E+00  0.449293E+00
  0.365293E+00  0.291536E+00  0.231293E+00  0.185464E+00  0.153291E+00  0.133230E+00
  0.123697E+00  0.123697E+00  0.133230E+00  0.153291E+00  0.185464E+00  0.231293E+00
  0.291536E+00  0.365293E+00  0.449293E+00  0.537909E+00  0.624232E+00  0.701939E+00
  0.767015E+00  0.818294E+00  0.856730E+00  0.884243E+00  0.902860E+00  0.914279E+00
  0.919685E+00  0.919685E+00  0.928375E+00  0.921000E+00  0.907619E+00  0.886582E+00
  0.855590E+00  0.811875E+00  0.752806E+00  0.677257E+00  0.587415E+00  0.489555E+00
  0.392463E+00  0.304477E+00  0.231293E+00  0.175255E+00  0.135769E+00  0.110481E+00
  0.966659E-01  0.923048E-01  0.966659E-01  0.110481E+00  0.135769E+00  0.175255E+00
  0.231293E+00  0.304477E+00  0.392463E+00  0.489555E+00  0.587415E+00  0.677257E+00
  0.752806E+00  0.811875E+00  0.855590E+00  0.886582E+00  0.907619E+00  0.921000E+00
  0.928375E+00  0.930725E+00  0.928375E+00  0.932440E+00  0.923166E+00  0.907619E+00
  0.883758E+00  0.848811E+00  0.799498E+00  0.732884E+00  0.648185E+00  0.548909E+00
  0.443365E+00  0.342200E+00  0.254535E+00  0.185464E+00  0.135769E+00  0.103162E+00
  0.841102E-01  0.754687E-01  0.754687E-01  0.841102E-01  0.103162E+00  0.135769E+00
  0.185464E+00  0.254535E+00  0.342200E+00  0.443365E+00  0.548909E+00  0.648185E+00
  0.732884E+00  0.799498E+00  0.848811E+00  0.883758E+00  0.907619E+00  0.923166E+00
  0.932440E+00  0.936757E+00  0.936757E+00  0.932440E+00  0.932611E+00  0.921142E+00
  0.902860E+00  0.875418E+00  0.835769E+00  0.780540E+00  0.707074E+00  0.615338E+00
  0.510013E+00  0.400887E+00  0.299855E+00  0.216080E+00  0.153291E+00  0.110481E+00
  0.841102E-01  0.702192E-01  0.659312E-01  0.702192E-01  0.841102E-01  0.110481E+00
  0.153291E+00  0.216080E+00  0.299855E+00  0.400887E+00  0.510013E+00  0.615338E+00
  0.707074E+00  0.780540E+00  0.835769E+00  0.875418E+00  0.902860E+00  0.921142E+00
  0.932611E+00  0.938876E+00  0.940864E+00  0.938876E+00  0.932611E+00  0.928605E+00
  0.914412E+00  0.892673E+00  0.860867E+00  0.815975E+00  0.755020E+00  0.676119E+00
  0.580113E+00  0.472532E+00  0.364024E+00  0.266818E+00  0.189184E+00  0.133230E+00
  0.966659E-01  0.754687E-01  0.659312E-01  0.659312E-01  0.754687E-01  0.966659E-01
  0.133230E+00  0.189184E+00  0.266818E+00  0.364024E+00  0.472532E+00  0.580113E+00
  0.676119E+00  0.755020E+00  0.815975E+00  0.860867E+00  0.892673E+00  0.914412E+00
  0.928605E+00  0.937093E+00  0.941053E+00  0.941053E+00  0.937093E+00  0.928605E+00
  0.919071E+00  0.901506E+00  0.875698E+00  0.839203E+00  0.789369E+00  0.723970E+00
  0.642067E+00  0.545284E+00  0.439572E+00  0.335484E+00  0.244441E+00  0.173487E+00
  0.123697E+00  0.923048E-01  0.754687E-01  0.702192E-01  0.754687E-01  0.923048E-01
  0.123697E+00  0.173487E+00  0.244441E+00  0.335484E+00  0.439572E+00  0.545284E+00
  0.642067E+00  0.723970E+00  0.789369E+00  0.839203E+00  0.875698E+00  0.901506E+00
  0.919071E+00  0.930310E+00  0.936544E+00  0.938539E+00  0.936544E+00  0.930310E+00
  0.919071E+00  0.901455E+00  0.880071E+00  0.850280E+00  0.810011E+00  0.757150E+00
  0.690167E+00  0.608849E+00  0.515266E+00  0.415065E+00  0.317665E+00  0.233294E+00
  0.168361E+00  0.123697E+00  0.966659E-01  0.841102E-01  0.841102E-01  0.966659E-01
  0.123697E+00  0.168361E+00  0.233294E+00  0.317665E+00  0.415065E+00  0.515266E+00
  0.608849E+00  0.690167E+00  0.757150E+00  0.810011E+00  0.850280E+00  0.880071E+00
  0.901455E+00  0.916105E+00  0.925222E+00  0.929586E+00  0.929586E+00  0.925222E+00
  0.916105E+00  0.901455E+00  0.871856E+00  0.847584E+00  0.815873E+00  0.774995E+00
  0.723045E+00  0.658698E+00  0.582001E+00  0.494920E+00  0.402107E+00  0.311663E+00
  0.233294E+00  0.173487E+00  0.133230E+00  0.110481E+00  0.103162E+00  0.110481E+00
  0.133230E+00  0.173487E+00  0.233294E+00  0.311663E+00  0.402107E+00  0.494920E+00
  0.582001E+00  0.658698E+00  0.723045E+00  0.774995E+00  0.815873E+00  0.847584E+00
  0.871856E+00  0.889881E+00  0.902353E+00  0.909675E+00  0.912087E+00  0.909675E+00
  0.902353E+00  0.889881E+00  0.871856E+00  0.826147E+00  0.803713E+00  0.775557E+00
  0.739624E+00  0.693633E+00  0.636073E+00  0.566943E+00  0.487737E+00  0.402107E+00
  0.317665E+00  0.244441E+00  0.189184E+00  0.153291E+00  0.135769E+00  0.135769E+00
  0.153291E+00  0.189184E+00  0.244441E+00  0.317665E+00  0.402107E+00  0.487737E+00
  0.566943E+00  0.636073E+00  0.693633E+00  0.739624E+00  0.775557E+00  0.803713E+00
  0.826147E+00  0.844128E+00  0.858063E+00  0.867735E+00  0.872717E+00  0.872717E+00
  0.867735E+00  0.858063E+00  0.844128E+00  0.826147E+00  0.764817E+00  0.754418E+00
  0.737875E+00  0.712662E+00  0.676418E+00  0.627813E+00  0.566943E+00  0.494920E+00
  0.415065E+00  0.335484E+00  0.266818E+00  0.216080E+00  0.185464E+00  0.175255E+00
  0.185464E+00  0.216080E+00  0.266818E+00  0.335484E+00  0.415065E+00  0.494920E+00
  0.566943E+00  0.627813E+00  0.676418E+00  0.712662E+00  0.737875E+00  0.754418E+00
  0.764817E+00  0.771450E+00  0.776412E+00  0.780845E+00  0.784361E+00  0.785741E+00
  0.784361E+00  0.780845E+00  0.776412E+00  0.771450E+00  0.764817E+00  0.700743E+00
  0.713788E+00  0.714670E+00  0.702516E+00  0.676418E+00  0.636073E+00  0.582001E+00
  0.515266E+00  0.439572E+00  0.364024E+00  0.299855E+00  0.254535E+00  0.231293E+00
  0.231293E+00  0.254535E+00  0.299855E+00  0.364024E+00  0.439572E+00  0.515266E+00
  0.582001E+00  0.636073E+00  0.676418E+00  0.702516E+00  0.714670E+00  0.713788E+00
  0.700743E+00  0.677313E+00  0.648433E+00  0.622113E+00  0.604698E+00  0.596986E+00
  0.596986E+00  0.604698E+00  0.622113E+00  0.648433E+00  0.677313E+00  0.700743E+00
  0.658587E+00  0.697878E+00  0.714670E+00  0.712662E+00  0.693633E+00  0.658698E+00
  0.608849E+00  0.545284E+00  0.472532E+00  0.400887E+00  0.342200E+00  0.304477E+00
  0.291536E+00  0.304477E+00  0.342200E+00  0.400887E+00  0.472532E+00  0.545284E+00
  0.608849E+00  0.658698E+00  0.693633E+00  0.712662E+00  0.714670E+00  0.697878E+00
  0.658587E+00  0.593073E+00  0.505925E+00  0.417237E+00  0.350933E+00  0.315231E+00
  0.304696E+00  0.315231E+00  0.350933E+00  0.417237E+00  0.505925E+00  0.593073E+00
  0.658587E+00  0.658587E+00  0.713788E+00  0.737875E+00  0.739624E+00  0.723045E+00
  0.690167E+00  0.642067E+00  0.580113E+00  0.510013E+00  0.443365E+00  0.392463E+00
  0.365293E+00  0.365293E+00  0.392463E+00  0.443365E+00  0.510013E+00  0.580113E+00
  0.642067E+00  0.690167E+00  0.723045E+00  0.739624E+00  0.737875E+00  0.713788E+00
  0.658587E+00  0.559242E+00  0.415066E+00  0.264971E+00  0.160773E+00  0.109806E+00
  0.915576E-01  0.915576E-01  0.109806E+00  0.160773E+00  0.264971E+00  0.415066E+00
  0.559242E+00  0.658587E+00  0.700743E+00  0.754418E+00  0.775557E+00  0.774995E+00
  0.757150E+00  0.723970E+00  0.676119E+00  0.615338E+00  0.548909E+00  0.489555E+00
  0.449293E+00  0.435163E+00  0.449293E+00  0.489555E+00  0.548909E+00  0.615338E+00
  0.676119E+00  0.723970E+00  0.757150E+00  0.774995E+00  0.775557E+00  0.754418E+00
  0.700743E+00  0.593073E+00  0.415066E+00  0.215181E+00  0.871439E-01  0.369830E-01
  0.219171E-01  0.187832E-01  0.219171E-01  0.369830E-01  0.871439E-01  0.215181E+00
  0.415066E+00  0.593073E+00  0.700743E+00  0.764817E+00  0.803713E+00  0.815873E+00
  0.810011E+00  0.789369E+00  0.755020E+00  0.707074E+00  0.648185E+00  0.587415E+00
  0.537909E+00  0.510487E+00  0.510487E+00  0.537909E+00  0.587415E+00  0.648185E+00
  0.707074E+00  0.755020E+00  0.789369E+00  0.810011E+00  0.815873E+00  0.803713E+00
  0.764817E+00  0.677313E+00  0.505925E+00  0.264971E+00  0.871439E-01  0.228351E-01
  0.778269E-02  0.479589E-02  0.479589E-02  0.778269E-02  0.228351E-01  0.871439E-01
  0.264971E+00  0.505925E+00  0.677313E+00  0.764817E+00  0.826147E+00  0.847584E+00
  0.850280E+00  0.839203E+00  0.815975E+00  0.780540E+00  0.732884E+00  0.677257E+00
  0.624232E+00  0.586439E+00  0.572830E+00  0.586439E+00  0.624232E+00  0.677257E+00
  0.732884E+00  0.780540E+00  0.815975E+00  0.839203E+00  0.850280E+00  0.847584E+00
  0.826147E+00  0.771450E+00  0.648433E+00  0.417237E+00  0.160773E+00  0.369830E-01
  0.778269E-02  0.280581E-02  0.216387E-02  0.280581E-02  0.778269E-02  0.369830E-01
  0.160773E+00  0.417237E+00  0.648433E+00  0.771450E+00  0.826147E+00  0.871856E+00
  0.880071E+00  0.875698E+00  0.860867E+00  0.835769E+00  0.799498E+00  0.752806E+00
  0.701939E+00  0.658266E+00  0.633130E+00  0.633130E+00  0.658266E+00  0.701939E+00
  0.752806E+00  0.799498E+00  0.835769E+00  0.860867E+00  0.875698E+00  0.880071E+00
  0.871856E+00  0.844128E+00  0.776412E+00  0.622113E+00  0.350933E+00  0.109806E+00
  0.219171E-01  0.479589E-02  0.216387E-02  0.216387E-02  0.479589E-02  0.219171E-01
  0.109806E+00  0.350933E+00  0.622113E+00  0.776412E+00  0.844128E+00  0.871856E+00
  0.901455E+00  0.901506E+00  0.892673E+00  0.875418E+00  0.848811E+00  0.811875E+00
  0.767015E+00  0.722272E+00  0.688982E+00  0.676670E+00  0.688982E+00  0.722272E+00
  0.767015E+00  0.811875E+00  0.848811E+00  0.875418E+00  0.892673E+00  0.901506E+00
  0.901455E+00  0.889881E+00  0.858063E+00  0.780845E+00  0.604698E+00  0.315231E+00
  0.915576E-01  0.187832E-01  0.479589E-02  0.280581E-02  0.479589E-02  0.187832E-01
  0.915576E-01  0.315231E+00  0.604698E+00  0.780845E+00  0.858063E+00  0.889881E+00
  0.901455E+00  0.919071E+00  0.914412E+00  0.902860E+00  0.883758E+00  0.855590E+00
  0.818294E+00  0.776261E+00  0.738712E+00  0.716350E+00  0.716350E+00  0.738712E+00
  0.776261E+00  0.818294E+00  0.855590E+00  0.883758E+00  0.902860E+00  0.914412E+00
  0.919071E+00  0.916105E+00  0.902353E+00  0.867735E+00  0.784361E+00  0.596986E+00
  0.304696E+00  0.915576E-01  0.219171E-01  0.778269E-02  0.778269E-02  0.219171E-01
  0.915576E-01  0.304696E+00  0.596986E+00  0.784361E+00  0.867735E+00  0.902353E+00
  0.916105E+00  0.919071E+00  0.928605E+00  0.921142E+00  0.907619E+00  0.886582E+00
  0.856730E+00  0.819558E+00  0.781224E+00  0.751638E+00  0.740424E+00  0.751638E+00
  0.781224E+00  0.819558E+00  0.856730E+00  0.886582E+00  0.907619E+00  0.921142E+00
  0.928605E+00  0.930310E+00  0.925222E+00  0.909675E+00  0.872717E+00  0.785741E+00
  0.596986E+00  0.315231E+00  0.109806E+00  0.369830E-01  0.228351E-01  0.369830E-01
  0.109806E+00  0.315231E+00  0.596986E+00  0.785741E+00  0.872717E+00  0.909675E+00
  0.925222E+00  0.930310E+00  0.928605E+00  0.932611E+00  0.923166E+00  0.907619E+00
  0.884243E+00  0.852646E+00  0.816017E+00  0.782080E+00  0.761216E+00  0.761216E+00
  0.782080E+00  0.816017E+00  0.852646E+00  0.884243E+00  0.907619E+00  0.923166E+00
  0.932611E+00  0.937093E+00  0.936544E+00  0.929586E+00  0.912087E+00  0.872717E+00
  0.784361E+00  0.604698E+00  0.350933E+00  0.160773E+00  0.871439E-01  0.871439E-01
  0.160773E+00  0.350933E+00  0.604698E+00  0.784361E+00  0.872717E+00  0.912087E+00
  0.929586E+00  0.936544E+00  0.937093E+00  0.932611E+00  0.932440E+00  0.921000E+00
  0.902860E+00  0.876614E+00  0.843118E+00  0.807366E+00  0.778789E+00  0.767722E+00
  0.778789E+00  0.807366E+00  0.843118E+00  0.876614E+00  0.902860E+00  0.921000E+00
  0.932440E+00  0.938876E+00  0.941053E+00  0.938539E+00  0.929586E+00  0.909675E+00
  0.867735E+00  0.780845E+00  0.622113E+00  0.417237E+00  0.264971E+00  0.215181E+00
  0.264971E+00  0.417237E+00  0.622113E+00  0.780845E+00  0.867735E+00  0.909675E+00
  0.929586E+00  0.938539E+00  0.941053E+00  0.938876E+00  0.932440E+00  0.928375E+00
  0.914279E+00  0.892673E+00  0.862867E+00  0.827277E+00  0.793206E+00  0.771741E+00
  0.771741E+00  0.793206E+00  0.827277E+00  0.862867E+00  0.892673E+00  0.914279E+00
  0.928375E+00  0.936757E+00  0.940864E+00  0.941053E+00  0.936544E+00  0.925222E+00
  0.902353E+00  0.858063E+00  0.776412E+00  0.648433E+00  0.505925E+00  0.415066E+00
  0.415066E+00  0.505925E+00  0.648433E+00  0.776412E+00  0.858063E+00  0.902353E+00
  0.925222E+00  0.936544E+00  0.941053E+00  0.940864E+00  0.936757E+00  0.928375E+00
  0.919685E+00  0.901853E+00  0.875698E+00  0.841629E+00  0.804360E+00  0.773987E+00
  0.762109E+00  0.773987E+00  0.804360E+00  0.841629E+00  0.875698E+00  0.901853E+00
  0.919685E+00  0.930725E+00  0.936757E+00  0.938876E+00  0.937093E+00  0.930310E+00
  0.916105E+00  0.889881E+00  0.844128E+00  0.771450E+00  0.677313E+00  0.593073E+00
  0.559242E+00  0.593073E+00  0.677313E+00  0.771450E+00  0.844128E+00  0.889881E+00
  0.916105E+00  0.930310E+00  0.937093E+00  0.938876E+00  0.936757E+00  0.930725E+00
  0.919685E+00  0.904834E+00  0.882001E+00  0.850280E+00  0.811996E+00  0.775073E+00
  0.751767E+00  0.751767E+00  0.775073E+00  0.811996E+00  0.850280E+00  0.882001E+00
  0.904834E+00  0.919685E+00  0.928375E+00  0.932440E+00  0.932611E+00  0.928605E+00
  0.919071E+00  0.901455E+00  0.871856E+00  0.826147E+00  0.764817E+00  0.700743E+00
  0.658587E+00  0.658587E+00  0.700743E+00  0.764817E+00  0.826147E+00  0.871856E+00
  0.901455E+00  0.919071E+00  0.928605E+00  0.932611E+00  0.932440E+00  0.928375E+00
  0.919685E+00  0.904834E+00  0.912635E+00  0.885539E+00  0.847584E+00  0.803211E+00
  0.765321E+00  0.750168E+00  0.765321E+00  0.803211E+00  0.847584E+00  0.885539E+00
  0.912635E+00  0.929953E+00  0.940107E+00  0.945353E+00  0.947056E+00  0.945554E+00
  0.940147E+00  0.929061E+00  0.909232E+00  0.876291E+00  0.826732E+00  0.764817E+00
  0.709580E+00  0.687087E+00  0.709580E+00  0.764817E+00  0.826732E+00  0.876291E+00
  0.909232E+00  0.929061E+00  0.940147E+00  0.945554E+00  0.947056E+00  0.945353E+00
  0.940107E+00  0.929953E+00  0.912635E+00  0.885539E+00  0.849646E+00  0.803713E+00
  0.757348E+00  0.727310E+00  0.727310E+00  0.757348E+00  0.803713E+00  0.849646E+00
  0.885539E+00  0.909889E+00  0.924940E+00  0.933366E+00  0.937092E+00  0.937092E+00
  0.933366E+00  0.924940E+00  0.909889E+00  0.885539E+00  0.849646E+00  0.803713E+00
  0.757348E+00  0.727310E+00  0.727310E+00  0.757348E+00  0.803713E+00  0.849646E+00
  0.885539E+00  0.909889E+00  0.924940E+00  0.933366E+00  0.937092E+00  0.937092E+00
  0.933366E+00  0.924940E+00  0.909889E+00  0.885539E+00  0.847584E+00  0.803713E+00
  0.754418E+00  0.713788E+00  0.697878E+00  0.713788E+00  0.754418E+00  0.803713E+00
  0.847584E+00  0.880071E+00  0.901506E+00  0.914412E+00  0.921142E+00  0.923166E+00
  0.921000E+00  0.914279E+00  0.901853E+00  0.882001E+00  0.853169E+00  0.815873E+00
  0.775474E+00  0.742967E+00  0.730373E+00  0.742967E+00  0.775474E+00  0.815873E+00
  0.853169E+00  0.882001E+00  0.901853E+00  0.914279E+00  0.921000E+00  0.923166E+00
  0.921142E+00  0.914412E+00  0.901506E+00  0.880071E+00  0.847584E+00  0.803211E+00
  0.757348E+00  0.713788E+00  0.686710E+00  0.686710E+00  0.713788E+00  0.757348E+00
  0.803211E+00  0.841543E+00  0.869174E+00  0.887074E+00  0.897403E+00  0.901961E+00
  0.901650E+00  0.896443E+00  0.885603E+00  0.868026E+00  0.842743E+00  0.810011E+00
  0.773099E+00  0.739487E+00  0.719067E+00  0.719067E+00  0.739487E+00  0.773099E+00
  0.810011E+00  0.842743E+00  0.868026E+00  0.885603E+00  0.896443E+00  0.901650E+00
  0.901961E+00  0.897403E+00  0.887074E+00  0.869174E+00  0.841543E+00  0.803211E+00
  0.765321E+00  0.727310E+00  0.697878E+00  0.686710E+00  0.697878E+00  0.727310E+00
  0.765321E+00  0.802133E+00  0.831886E+00  0.852917E+00  0.865986E+00  0.872569E+00
  0.873792E+00  0.869890E+00  0.860241E+00  0.843871E+00  0.820125E+00  0.789369E+00
  0.753962E+00  0.719263E+00  0.693241E+00  0.683508E+00  0.693241E+00  0.719263E+00
  0.753962E+00  0.789369E+00  0.820125E+00  0.843871E+00  0.860241E+00  0.869890E+00
  0.873792E+00  0.872569E+00  0.865986E+00  0.852917E+00  0.831886E+00  0.802133E+00
  0.765321E+00  0.750168E+00  0.727310E+00  0.713788E+00  0.713788E+00  0.727310E+00
  0.750168E+00  0.776263E+00  0.800266E+00  0.818992E+00  0.831331E+00  0.837532E+00
  0.838351E+00  0.834202E+00  0.824639E+00  0.808606E+00  0.785300E+00  0.755020E+00
  0.719732E+00  0.683598E+00  0.653061E+00  0.635341E+00  0.635341E+00  0.653061E+00
  0.683598E+00  0.719732E+00  0.755020E+00  0.785300E+00  0.808606E+00  0.824639E+00
  0.834202E+00  0.838351E+00  0.837532E+00  0.831331E+00  0.818992E+00  0.800266E+00
  0.776263E+00  0.750168E+00  0.765321E+00  0.757348E+00  0.754418E+00  0.757348E+00
  0.765321E+00  0.776263E+00  0.787639E+00  0.797124E+00  0.803000E+00  0.804365E+00
  0.801078E+00  0.793306E+00  0.780827E+00  0.762760E+00  0.738177E+00  0.707074E+00
  0.670979E+00  0.633212E+00  0.599008E+00  0.574767E+00  0.565966E+00  0.574767E+00
  0.599008E+00  0.633212E+00  0.670979E+00  0.707074E+00  0.738177E+00  0.762760E+00
  0.780827E+00  0.793306E+00  0.801078E+00  0.804365E+00  0.803000E+00  0.797124E+00
  0.787639E+00  0.776263E+00  0.765321E+00  0.803211E+00  0.803713E+00  0.803713E+00
  0.803211E+00  0.802133E+00  0.800266E+00  0.797124E+00  0.791909E+00  0.783730E+00
  0.771957E+00  0.756335E+00  0.736650E+00  0.712363E+00  0.682859E+00  0.648185E+00
  0.609557E+00  0.569526E+00  0.532190E+00  0.502869E+00  0.486670E+00  0.486670E+00
  0.502869E+00  0.532190E+00  0.569526E+00  0.609557E+00  0.648185E+00  0.682859E+00
  0.712363E+00  0.736650E+00  0.756335E+00  0.771957E+00  0.783730E+00  0.791909E+00
  0.797124E+00  0.800266E+00  0.802133E+00  0.803211E+00  0.847584E+00  0.849646E+00
  0.847584E+00  0.841543E+00  0.831886E+00  0.818992E+00  0.803000E+00  0.783730E+00
  0.760865E+00  0.734199E+00  0.703605E+00  0.668868E+00  0.629920E+00  0.587415E+00
  0.542904E+00  0.498600E+00  0.457556E+00  0.423859E+00  0.401709E+00  0.394002E+00
  0.401709E+00  0.423859E+00  0.457556E+00  0.498600E+00  0.542904E+00  0.587415E+00
  0.629920E+00  0.668868E+00  0.703605E+00  0.734199E+00  0.760865E+00  0.783730E+00
  0.803000E+00  0.818992E+00  0.831886E+00  0.841543E+00  0.847584E+00  0.885539E+00
  0.885539E+00  0.880071E+00  0.869174E+00  0.852917E+00  0.831331E+00  0.804365E+00
  0.771957E+00  0.734199E+00  0.691368E+00  0.643805E+00  0.592139E+00  0.537909E+00
  0.483640E+00  0.432040E+00  0.385618E+00  0.347211E+00  0.319849E+00  0.305714E+00
  0.305714E+00  0.319849E+00  0.347211E+00  0.385618E+00  0.432040E+00  0.483640E+00
  0.537909E+00  0.592139E+00  0.643805E+00  0.691368E+00  0.734199E+00  0.771957E+00
  0.804365E+00  0.831331E+00  0.852917E+00  0.869174E+00  0.880071E+00  0.885539E+00
  0.912635E+00  0.909889E+00  0.901506E+00  0.887074E+00  0.865986E+00  0.837532E+00
  0.801078E+00  0.756335E+00  0.703605E+00  0.643805E+00  0.578536E+00  0.510487E+00
  0.443516E+00  0.381590E+00  0.327607E+00  0.283574E+00  0.251185E+00  0.231575E+00
  0.225048E+00  0.231575E+00  0.251185E+00  0.283574E+00  0.327607E+00  0.381590E+00
  0.443516E+00  0.510487E+00  0.578536E+00  0.643805E+00  0.703605E+00  0.756335E+00
  0.801078E+00  0.837532E+00  0.865986E+00  0.887074E+00  0.901506E+00  0.909889E+00
  0.912635E+00  0.929953E+00  0.924940E+00  0.914412E+00  0.897403E+00  0.872569E+00
  0.838351E+00  0.793306E+00  0.736650E+00  0.668868E+00  0.592139E+00  0.510487E+00
  0.429436E+00  0.354731E+00  0.290628E+00  0.239303E+00  0.201467E+00  0.176953E+00
  0.165035E+00  0.165035E+00  0.176953E+00  0.201467E+00  0.239303E+00  0.290628E+00
  0.354731E+00  0.429436E+00  0.510487E+00  0.592139E+00  0.668868E+00  0.736650E+00
  0.793306E+00  0.838351E+00  0.872569E+00  0.897403E+00  0.914412E+00  0.924940E+00
  0.929953E+00  0.929953E+00  0.940107E+00  0.933366E+00  0.921142E+00  0.901961E+00
  0.873792E+00  0.834202E+00  0.780827E+00  0.712363E+00  0.629920E+00  0.537909E+00
  0.443516E+00  0.354731E+00  0.277980E+00  0.216781E+00  0.171861E+00  0.142065E+00
  0.125397E+00  0.120077E+00  0.125397E+00  0.142065E+00  0.171861E+00  0.216781E+00
  0.277980E+00  0.354731E+00  0.443516E+00  0.537909E+00  0.629920E+00  0.712363E+00
  0.780827E+00  0.834202E+00  0.873792E+00  0.901961E+00  0.921142E+00  0.933366E+00
  0.940107E+00  0.942256E+00  0.940107E+00  0.945353E+00  0.937092E+00  0.923166E+00
  0.901650E+00  0.869890E+00  0.824639E+00  0.762760E+00  0.682859E+00  0.587415E+00
  0.483640E+00  0.381590E+00  0.290628E+00  0.216781E+00  0.162057E+00  0.125226E+00
  0.103316E+00  0.932804E-01  0.932804E-01  0.103316E+00  0.125226E+00  0.162057E+00
  0.216781E+00  0.290628E+00  0.381590E+00  0.483640E+00  0.587415E+00  0.682859E+00
  0.762760E+00  0.824639E+00  0.869890E+00  0.901650E+00  0.923166E+00  0.937092E+00
  0.945353E+00  0.949183E+00  0.949183E+00  0.945353E+00  0.947056E+00  0.937092E+00
  0.921000E+00  0.896443E+00  0.860241E+00  0.808606E+00  0.738177E+00  0.648185E+00
  0.542904E+00  0.432040E+00  0.327607E+00  0.239303E+00  0.171861E+00  0.125226E+00
  0.962713E-01  0.809746E-01  0.762502E-01  0.809746E-01  0.962713E-01  0.125226E+00
  0.171861E+00  0.239303E+00  0.327607E+00  0.432040E+00  0.542904E+00  0.648185E+00
  0.738177E+00  0.808606E+00  0.860241E+00  0.896443E+00  0.921000E+00  0.937092E+00
  0.947056E+00  0.952446E+00  0.954147E+00  0.952446E+00  0.947056E+00  0.945554E+00
  0.933366E+00  0.914279E+00  0.885603E+00  0.843871E+00  0.785300E+00  0.707074E+00
  0.609557E+00  0.498600E+00  0.385618E+00  0.283574E+00  0.201467E+00  0.142065E+00
  0.103316E+00  0.809746E-01  0.709773E-01  0.709773E-01  0.809746E-01  0.103316E+00
  0.142065E+00  0.201467E+00  0.283574E+00  0.385618E+00  0.498600E+00  0.609557E+00
  0.707074E+00  0.785300E+00  0.843871E+00  0.885603E+00  0.914279E+00  0.933366E+00
  0.945554E+00  0.952720E+00  0.956025E+00  0.956025E+00  0.952720E+00  0.945554E+00
  0.940147E+00  0.924940E+00  0.901853E+00  0.868026E+00  0.820125E+00  0.755020E+00
  0.670979E+00  0.569526E+00  0.457556E+00  0.347211E+00  0.251185E+00  0.176953E+00
  0.125397E+00  0.932804E-01  0.762502E-01  0.709773E-01  0.762502E-01  0.932804E-01
  0.125397E+00  0.176953E+00  0.251185E+00  0.347211E+00  0.457556E+00  0.569526E+00
  0.670979E+00  0.755020E+00  0.820125E+00  0.868026E+00  0.901853E+00  0.924940E+00
  0.940147E+00  0.949607E+00  0.954747E+00  0.956374E+00  0.954747E+00  0.949607E+00
  0.940147E+00  0.929061E+00  0.909889E+00  0.882001E+00  0.842743E+00  0.789369E+00
  0.719732E+00  0.633212E+00  0.532190E+00  0.423859E+00  0.319849E+00  0.231575E+00
  0.165035E+00  0.120077E+00  0.932804E-01  0.809746E-01  0.809746E-01  0.932804E-01
  0.120077E+00  0.165035E+00  0.231575E+00  0.319849E+00  0.423859E+00  0.532190E+00
  0.633212E+00  0.719732E+00  0.789369E+00  0.842743E+00  0.882001E+00  0.909889E+00
  0.929061E+00  0.941667E+00  0.949255E+00  0.952809E+00  0.952809E+00  0.949255E+00
  0.941667E+00  0.929061E+00  0.909232E+00  0.885539E+00  0.853169E+00  0.810011E+00
  0.753962E+00  0.683598E+00  0.599008E+00  0.502869E+00  0.401709E+00  0.305714E+00
  0.225048E+00  0.165035E+00  0.125397E+00  0.103316E+00  0.962713E-01  0.103316E+00
  0.125397E+00  0.165035E+00  0.225048E+00  0.305714E+00  0.401709E+00  0.502869E+00
  0.599008E+00  0.683598E+00  0.753962E+00  0.810011E+00  0.853169E+00  0.885539E+00
  0.909232E+00  0.925971E+00  0.937027E+00  0.943292E+00  0.945318E+00  0.943292E+00
  0.937027E+00  0.925971E+00  0.909232E+00  0.876291E+00  0.849646E+00  0.815873E+00
  0.773099E+00  0.719263E+00  0.653061E+00  0.574767E+00  0.486670E+00  0.394002E+00
  0.305714E+00  0.231575E+00  0.176953E+00  0.142065E+00  0.125226E+00  0.125226E+00
  0.142065E+00  0.176953E+00  0.231575E+00  0.305714E+00  0.394002E+00  0.486670E+00
  0.574767E+00  0.653061E+00  0.719263E+00  0.773099E+00  0.815873E+00  0.849646E+00
  0.876291E+00  0.896997E+00  0.912300E+00  0.922395E+00  0.927398E+00  0.927398E+00
  0.922395E+00  0.912300E+00  0.896997E+00  0.876291E+00  0.826732E+00  0.803713E+00
  0.775474E+00  0.739487E+00  0.693241E+00  0.635341E+00  0.565966E+00  0.486670E+00
  0.401709E+00  0.319849E+00  0.251185E+00  0.201467E+00  0.171861E+00  0.162057E+00
  0.171861E+00  0.201467E+00  0.251185E+00  0.319849E+00  0.401709E+00  0.486670E+00
  0.565966E+00  0.635341E+00  0.693241E+00  0.739487E+00  0.775474E+00  0.803713E+00
  0.826732E+00  0.846287E+00  0.863012E+00  0.876382E+00  0.885164E+00  0.888233E+00
  0.885164E+00  0.876382E+00  0.863012E+00  0.846287E+00  0.826732E+00  0.764817E+00
  0.757348E+00  0.742967E+00  0.719067E+00  0.683508E+00  0.635341E+00  0.574767E+00
  0.502869E+00  0.423859E+00  0.347211E+00  0.283574E+00  0.239303E+00  0.216781E+00
  0.216781E+00  0.239303E+00  0.283574E+00  0.347211E+00  0.423859E+00  0.502869E+00
  0.574767E+00  0.635341E+00  0.683508E+00  0.719067E+00  0.742967E+00  0.757348E+00
  0.764817E+00  0.768297E+00  0.771243E+00  0.776484E+00  0.783687E+00  0.789090E+00
  0.789090E+00  0.783687E+00  0.776484E+00  0.771243E+00  0.768297E+00  0.764817E+00
  0.709580E+00  0.727310E+00  0.730373E+00  0.719067E+00  0.693241E+00  0.653061E+00
  0.599008E+00  0.532190E+00  0.457556E+00  0.385618E+00  0.327607E+00  0.290628E+00
  0.277980E+00  0.290628E+00  0.327607E+00  0.385618E+00  0.457556E+00  0.532190E+00
  0.599008E+00  0.653061E+00  0.693241E+00  0.719067E+00  0.730373E+00  0.727310E+00
  0.709580E+00  0.677313E+00  0.635102E+00  0.595061E+00  0.570338E+00  0.562588E+00
  0.562078E+00  0.562588E+00  0.570338E+00  0.595061E+00  0.635102E+00  0.677313E+00
  0.709580E+00  0.687087E+00  0.727310E+00  0.742967E+00  0.739487E+00  0.719263E+00
  0.683598E+00  0.633212E+00  0.569526E+00  0.498600E+00  0.432040E+00  0.381590E+00
  0.354731E+00  0.354731E+00  0.381590E+00  0.432040E+00  0.498600E+00  0.569526E+00
  0.633212E+00  0.683598E+00  0.719263E+00  0.739487E+00  0.742967E+00  0.727310E+00
  0.687087E+00  0.613876E+00  0.505925E+00  0.386134E+00  0.294237E+00  0.247506E+00
  0.233054E+00  0.233054E+00  0.247506E+00  0.294237E+00  0.386134E+00  0.505925E+00
  0.613876E+00  0.687087E+00  0.709580E+00  0.757348E+00  0.775474E+00  0.773099E+00
  0.753962E+00  0.719732E+00  0.670979E+00  0.609557E+00  0.542904E+00  0.483640E+00
  0.443516E+00  0.429436E+00  0.443516E+00  0.483640E+00  0.542904E+00  0.609557E+00
  0.670979E+00  0.719732E+00  0.753962E+00  0.773099E+00  0.775474E+00  0.757348E+00
  0.709580E+00  0.613876E+00  0.454286E+00  0.264971E+00  0.128976E+00  0.679346E-01
  0.482593E-01  0.444108E-01  0.482593E-01  0.679346E-01  0.128976E+00  0.264971E+00
  0.454286E+00  0.613876E+00  0.709580E+00  0.764817E+00  0.803713E+00  0.815873E+00
  0.810011E+00  0.789369E+00  0.755020E+00  0.707074E+00  0.648185E+00  0.587415E+00
  0.537909E+00  0.510487E+00  0.510487E+00  0.537909E+00  0.587415E+00  0.648185E+00
  0.707074E+00  0.755020E+00  0.789369E+00  0.810011E+00  0.815873E+00  0.803713E+00
  0.764817E+00  0.677313E+00  0.505925E+00  0.264971E+00  0.871439E-01  0.228351E-01
  0.778269E-02  0.479589E-02  0.479589E-02  0.778269E-02  0.228351E-01  0.871439E-01
  0.264971E+00  0.505925E+00  0.677313E+00  0.764817E+00  0.826732E+00  0.849646E+00
  0.853169E+00  0.842743E+00  0.820125E+00  0.785300E+00  0.738177E+00  0.682859E+00
  0.629920E+00  0.592139E+00  0.578536E+00  0.592139E+00  0.629920E+00  0.682859E+00
  0.738177E+00  0.785300E+00  0.820125E+00  0.842743E+00  0.853169E+00  0.849646E+00
  0.826732E+00  0.768297E+00  0.635102E+00  0.386134E+00  0.128976E+00  0.228351E-01
  0.309728E-02  0.627272E-03  0.356834E-03  0.627272E-03  0.309728E-02  0.228351E-01
  0.128976E+00  0.386134E+00  0.635102E+00  0.768297E+00  0.826732E+00  0.876291E+00
  0.885539E+00  0.882001E+00  0.868026E+00  0.843871E+00  0.808606E+00  0.762760E+00
  0.712363E+00  0.668868E+00  0.643805E+00  0.643805E+00  0.668868E+00  0.712363E+00
  0.762760E+00  0.808606E+00  0.843871E+00  0.868026E+00  0.882001E+00  0.885539E+00
  0.876291E+00  0.846287E+00  0.771243E+00  0.595061E+00  0.294237E+00  0.679346E-01
  0.778269E-02  0.627272E-03  0.836674E-04  0.836674E-04  0.627272E-03  0.778269E-02
  0.679346E-01  0.294237E+00  0.595061E+00  0.771243E+00  0.846287E+00  0.876291E+00
  0.909232E+00  0.909889E+00  0.901853E+00  0.885603E+00  0.860241E+00  0.824639E+00
  0.780827E+00  0.736650E+00  0.703605E+00  0.691368E+00  0.703605E+00  0.736650E+00
  0.780827E+00  0.824639E+00  0.860241E+00  0.885603E+00  0.901853E+00  0.909889E+00
  0.909232E+00  0.896997E+00  0.863012E+00  0.776484E+00  0.570338E+00  0.247506E+00
  0.482593E-01  0.479589E-02  0.356834E-03  0.836674E-04  0.356834E-03  0.479589E-02
  0.482593E-01  0.247506E+00  0.570338E+00  0.776484E+00  0.863012E+00  0.896997E+00
  0.909232E+00  0.929061E+00  0.924940E+00  0.914279E+00  0.896443E+00  0.869890E+00
  0.834202E+00  0.793306E+00  0.756335E+00  0.734199E+00  0.734199E+00  0.756335E+00
  0.793306E+00  0.834202E+00  0.869890E+00  0.896443E+00  0.914279E+00  0.924940E+00
  0.929061E+00  0.925971E+00  0.912300E+00  0.876382E+00  0.783687E+00  0.562588E+00
  0.233054E+00  0.444108E-01  0.479589E-02  0.627272E-03  0.627272E-03  0.479589E-02
  0.444108E-01  0.233054E+00  0.562588E+00  0.783687E+00  0.876382E+00  0.912300E+00
  0.925971E+00  0.929061E+00  0.940147E+00  0.933366E+00  0.921000E+00  0.901650E+00
  0.873792E+00  0.838351E+00  0.801078E+00  0.771957E+00  0.760865E+00  0.771957E+00
  0.801078E+00  0.838351E+00  0.873792E+00  0.901650E+00  0.921000E+00  0.933366E+00
  0.940147E+00  0.941667E+00  0.937027E+00  0.922395E+00  0.885164E+00  0.789090E+00
  0.562078E+00  0.233054E+00  0.482593E-01  0.778269E-02  0.309728E-02  0.778269E-02
  0.482593E-01  0.233054E+00  0.562078E+00  0.789090E+00  0.885164E+00  0.922395E+00
  0.937027E+00  0.941667E+00  0.940147E+00  0.945554E+00  0.937092E+00  0.923166E+00
  0.901961E+00  0.872569E+00  0.837532E+00  0.804365E+00  0.783730E+00  0.783730E+00
  0.804365E+00  0.837532E+00  0.872569E+00  0.901961E+00  0.923166E+00  0.937092E+00
  0.945554E+00  0.949607E+00  0.949255E+00  0.943292E+00  0.927398E+00  0.888233E+00
  0.789090E+00  0.562588E+00  0.247506E+00  0.679346E-01  0.228351E-01  0.228351E-01
  0.679346E-01  0.247506E+00  0.562588E+00  0.789090E+00  0.888233E+00  0.927398E+00
  0.943292E+00  0.949255E+00  0.949607E+00  0.945554E+00  0.947056E+00  0.937092E+00
  0.921142E+00  0.897403E+00  0.865986E+00  0.831331E+00  0.803000E+00  0.791909E+00
  0.803000E+00  0.831331E+00  0.865986E+00  0.897403E+00  0.921142E+00  0.937092E+00
  0.947056E+00  0.952720E+00  0.954747E+00  0.952809E+00  0.945318E+00  0.927398E+00
  0.885164E+00  0.783687E+00  0.570338E+00  0.294237E+00  0.128976E+00  0.871439E-01
  0.128976E+00  0.294237E+00  0.570338E+00  0.783687E+00  0.885164E+00  0.927398E+00
  0.945318E+00  0.952809E+00  0.954747E+00  0.952720E+00  0.947056E+00  0.945353E+00
  0.933366E+00  0.914412E+00  0.887074E+00  0.852917E+00  0.818992E+00  0.797124E+00
  0.797124E+00  0.818992E+00  0.852917E+00  0.887074E+00  0.914412E+00  0.933366E+00
  0.945353E+00  0.952446E+00  0.956025E+00  0.956374E+00  0.952809E+00  0.943292E+00
  0.922395E+00  0.876382E+00  0.776484E+00  0.595061E+00  0.386134E+00  0.264971E+00
  0.264971E+00  0.386134E+00  0.595061E+00  0.776484E+00  0.876382E+00  0.922395E+00
  0.943292E+00  0.952809E+00  0.956374E+00  0.956025E+00  0.952446E+00  0.945353E+00
  0.940107E+00  0.924940E+00  0.901506E+00  0.869174E+00  0.831886E+00  0.800266E+00
  0.787639E+00  0.800266E+00  0.831886E+00  0.869174E+00  0.901506E+00  0.924940E+00
  0.940107E+00  0.949183E+00  0.954147E+00  0.956025E+00  0.954747E+00  0.949255E+00
  0.937027E+00  0.912300E+00  0.863012E+00  0.771243E+00  0.635102E+00  0.505925E+00
  0.454286E+00  0.505925E+00  0.635102E+00  0.771243E+00  0.863012E+00  0.912300E+00
  0.937027E+00  0.949255E+00  0.954747E+00  0.956025E+00  0.954147E+00  0.949183E+00
  0.940107E+00  0.929953E+00  0.909889E+00  0.880071E+00  0.841543E+00  0.802133E+00
  0.776263E+00  0.776263E+00  0.802133E+00  0.841543E+00  0.880071E+00  0.909889E+00
  0.929953E+00  0.942256E+00  0.949183E+00  0.952446E+00  0.952720E+00  0.949607E+00
  0.941667E+00  0.925971E+00  0.896997E+00  0.846287E+00  0.768297E+00  0.677313E+00
  0.613876E+00  0.613876E+00  0.677313E+00  0.768297E+00  0.846287E+00  0.896997E+00
  0.925971E+00  0.941667E+00  0.949607E+00  0.952720E+00  0.952446E+00  0.949183E+00
  0.942256E+00  0.929953E+00  0.912635E+00  0.885539E+00  0.847584E+00  0.803211E+00
  0.765321E+00  0.750168E+00  0.765321E+00  0.803211E+00  0.847584E+00  0.885539E+00
  0.912635E+00  0.929953E+00  0.940107E+00  0.945353E+00  0.947056E+00  0.945554E+00
  0.940147E+00  0.929061E+00  0.909232E+00  0.876291E+00  0.826732E+00  0.764817E+00
  0.709580E+00  0.687087E+00  0.709580E+00  0.764817E+00  0.826732E+00  0.876291E+00
  0.909232E+00  0.929061E+00  0.940147E+00  0.945554E+00  0.947056E+00  0.945353E+00
  0.940107E+00  0.929953E+00  0.912635E+00  0.911831E+00  0.876291E+00  0.826147E+00
  0.770919E+00  0.733036E+00  0.733036E+00  0.770919E+00  0.826147E+00  0.876291E+00
  0.911831E+00  0.933893E+00  0.946565E+00  0.953239E+00  0.956052E+00  0.956052E+00
  0.953239E+00  0.946565E+00  0.933893E+00  0.911831E+00  0.876291E+00  0.826147E+00
  0.770919E+00  0.733036E+00  0.733036E+00  0.770919E+00  0.826147E+00  0.876291E+00
  0.911831E+00  0.933893E+00  0.946565E+00  0.953239E+00  0.956052E+00  0.956052E+00
  0.953239E+00  0.946565E+00  0.933893E+00  0.911831E+00  0.876291E+00  0.826732E+00
  0.764817E+00  0.709580E+00  0.687087E+00  0.709580E+00  0.764817E+00  0.826732E+00
  0.876291E+00  0.909232E+00  0.929061E+00  0.940147E+00  0.945554E+00  0.947056E+00
  0.945353E+00  0.940107E+00  0.929953E+00  0.912635E+00  0.885539E+00  0.847584E+00
  0.803211E+00  0.765321E+00  0.750168E+00  0.765321E+00  0.803211E+00  0.847584E+00
  0.885539E+00  0.912635E+00  0.929953E+00  0.940107E+00  0.945353E+00  0.947056E+00
  0.945554E+00  0.940147E+00  0.929061E+00  0.909232E+00  0.876291E+00  0.826147E+00
  0.764817E+00  0.700743E+00  0.658587E+00  0.658587E+00  0.700743E+00  0.764817E+00
  0.826147E+00  0.871856E+00  0.901455E+00  0.919071E+00  0.928605E+00  0.932611E+00
  0.932440E+00  0.928375E+00  0.919685E+00  0.904834E+00  0.882001E+00  0.850280E+00
  0.811996E+00  0.775073E+00  0.751767E+00  0.751767E+00  0.775073E+00  0.811996E+00
  0.850280E+00  0.882001E+00  0.904834E+00  0.919685E+00  0.928375E+00  0.932440E+00
  0.932611E+00  0.928605E+00  0.919071E+00  0.901455E+00  0.871856E+00  0.826147E+00
  0.770919E+00  0.709580E+00  0.658587E+00  0.638588E+00  0.658587E+00  0.709580E+00
  0.770919E+00  0.824561E+00  0.863434E+00  0.888546E+00  0.903309E+00  0.910708E+00
  0.912663E+00  0.909997E+00  0.902446E+00  0.888901E+00  0.868026E+00  0.839203E+00
  0.803921E+00  0.767405E+00  0.738850E+00  0.727923E+00  0.738850E+00  0.767405E+00
  0.803921E+00  0.839203E+00  0.868026E+00  0.888901E+00  0.902446E+00  0.909997E+00
  0.912663E+00  0.910708E+00  0.903309E+00  0.888546E+00  0.863434E+00  0.824561E+00
  0.770919E+00  0.733036E+00  0.687087E+00  0.658587E+00  0.658587E+00  0.687087E+00
  0.733036E+00  0.781559E+00  0.822259E+00  0.851650E+00  0.870516E+00  0.880931E+00
  0.884808E+00  0.883345E+00  0.876685E+00  0.863941E+00  0.843871E+00  0.815975E+00
  0.781519E+00  0.744410E+00  0.711682E+00  0.692111E+00  0.692111E+00  0.711682E+00
  0.744410E+00  0.781519E+00  0.815975E+00  0.843871E+00  0.863941E+00  0.876685E+00
  0.883345E+00  0.884808E+00  0.880931E+00  0.870516E+00  0.851650E+00  0.822259E+00
  0.781559E+00  0.733036E+00  0.733036E+00  0.709580E+00  0.700743E+00  0.709580E+00
  0.733036E+00  0.763777E+00  0.794169E+00  0.819209E+00  0.836916E+00  0.847231E+00
  0.850949E+00  0.849008E+00  0.841820E+00  0.828782E+00  0.808606E+00  0.780540E+00
  0.745591E+00  0.707044E+00  0.670570E+00  0.643764E+00  0.633817E+00  0.643764E+00
  0.670570E+00  0.707044E+00  0.745591E+00  0.780540E+00  0.808606E+00  0.828782E+00
  0.841820E+00  0.849008E+00  0.850949E+00  0.847231E+00  0.836916E+00  0.819209E+00
  0.794169E+00  0.763777E+00  0.733036E+00  0.770919E+00  0.764817E+00  0.764817E+00
  0.770919E+00  0.781559E+00  0.794169E+00  0.806003E+00  0.814823E+00  0.819169E+00
  0.818380E+00  0.812443E+00  0.801535E+00  0.785330E+00  0.762760E+00  0.732884E+00
  0.696261E+00  0.655630E+00  0.615745E+00  0.583001E+00  0.564277E+00  0.564277E+00
  0.583001E+00  0.615745E+00  0.655630E+00  0.696261E+00  0.732884E+00  0.762760E+00
  0.785330E+00  0.801535E+00  0.812443E+00  0.818380E+00  0.819169E+00  0.814823E+00
  0.806003E+00  0.794169E+00  0.781559E+00  0.770919E+00  0.826147E+00  0.826732E+00
  0.826147E+00  0.824561E+00  0.822259E+00  0.819209E+00  0.814823E+00  0.808082E+00
  0.797929E+00  0.783640E+00  0.764890E+00  0.741358E+00  0.712363E+00  0.677257E+00
  0.636494E+00  0.592350E+00  0.548807E+00  0.511129E+00  0.485189E+00  0.475896E+00
  0.485189E+00  0.511129E+00  0.548807E+00  0.592350E+00  0.636494E+00  0.677257E+00
  0.712363E+00  0.741358E+00  0.764890E+00  0.783640E+00  0.797929E+00  0.808082E+00
  0.814823E+00  0.819209E+00  0.822259E+00  0.824561E+00  0.826147E+00  0.876291E+00
  0.876291E+00  0.871856E+00  0.863434E+00  0.851650E+00  0.836916E+00  0.819169E+00
  0.797929E+00  0.772632E+00  0.742887E+00  0.708408E+00  0.668868E+00  0.624232E+00
  0.575505E+00  0.525078E+00  0.476436E+00  0.433817E+00  0.401859E+00  0.384674E+00
  0.384674E+00  0.401859E+00  0.433817E+00  0.476436E+00  0.525078E+00  0.575505E+00
  0.624232E+00  0.668868E+00  0.708408E+00  0.742887E+00  0.772632E+00  0.797929E+00
  0.819169E+00  0.836916E+00  0.851650E+00  0.863434E+00  0.871856E+00  0.876291E+00
  0.911831E+00  0.909232E+00  0.901455E+00  0.888546E+00  0.870516E+00  0.847231E+00
  0.818380E+00  0.783640E+00  0.742887E+00  0.696202E+00  0.643805E+00  0.586439E+00
  0.526112E+00  0.466115E+00  0.410136E+00  0.361682E+00  0.324121E+00  0.300361E+00
  0.292243E+00  0.300361E+00  0.324121E+00  0.361682E+00  0.410136E+00  0.466115E+00
  0.526112E+00  0.586439E+00  0.643805E+00  0.696202E+00  0.742887E+00  0.783640E+00
  0.818380E+00  0.847231E+00  0.870516E+00  0.888546E+00  0.901455E+00  0.909232E+00
  0.911831E+00  0.933893E+00  0.929061E+00  0.919071E+00  0.903309E+00  0.880931E+00
  0.850949E+00  0.812443E+00  0.764890E+00  0.708408E+00  0.643805E+00  0.572830E+00
  0.498783E+00  0.426430E+00  0.360589E+00  0.304822E+00  0.261481E+00  0.232079E+00
  0.217317E+00  0.217317E+00  0.232079E+00  0.261481E+00  0.304822E+00  0.360589E+00
  0.426430E+00  0.498783E+00  0.572830E+00  0.643805E+00  0.708408E+00  0.764890E+00
  0.812443E+00  0.850949E+00  0.880931E+00  0.903309E+00  0.919071E+00  0.929061E+00
  0.933893E+00  0.933893E+00  0.946565E+00  0.940147E+00  0.928605E+00  0.910708E+00
  0.884808E+00  0.849008E+00  0.801535E+00  0.741358E+00  0.668868E+00  0.586439E+00
  0.498783E+00  0.412515E+00  0.334345E+00  0.269005E+00  0.218708E+00  0.183820E+00
  0.163607E+00  0.157029E+00  0.163607E+00  0.183820E+00  0.218708E+00  0.269005E+00
  0.334345E+00  0.412515E+00  0.498783E+00  0.586439E+00  0.668868E+00  0.741358E+00
  0.801535E+00  0.849008E+00  0.884808E+00  0.910708E+00  0.928605E+00  0.940147E+00
  0.946565E+00  0.948619E+00  0.946565E+00  0.953239E+00  0.945554E+00  0.932611E+00
  0.912663E+00  0.883345E+00  0.841820E+00  0.785330E+00  0.712363E+00  0.624232E+00
  0.526112E+00  0.426430E+00  0.334345E+00  0.256807E+00  0.197159E+00  0.155522E+00
  0.129979E+00  0.118040E+00  0.118040E+00  0.129979E+00  0.155522E+00  0.197159E+00
  0.256807E+00  0.334345E+00  0.426430E+00  0.526112E+00  0.624232E+00  0.712363E+00
  0.785330E+00  0.841820E+00  0.883345E+00  0.912663E+00  0.932611E+00  0.945554E+00
  0.953239E+00  0.956802E+00  0.956802E+00  0.953239E+00  0.956052E+00  0.947056E+00
  0.932440E+00  0.909997E+00  0.876685E+00  0.828782E+00  0.762760E+00  0.677257E+00
  0.575505E+00  0.466115E+00  0.360589E+00  0.269005E+00  0.197159E+00  0.146226E+00
  0.113966E+00  0.966975E-01  0.913308E-01  0.966975E-01  0.113966E+00  0.146226E+00
  0.197159E+00  0.269005E+00  0.360589E+00  0.466115E+00  0.575505E+00  0.677257E+00
  0.762760E+00  0.828782E+00  0.876685E+00  0.909997E+00  0.932440E+00  0.947056E+00
  0.956052E+00  0.960896E+00  0.962421E+00  0.960896E+00  0.956052E+00  0.956052E+00
  0.945353E+00  0.928375E+00  0.902446E+00  0.863941E+00  0.808606E+00  0.732884E+00
  0.636494E+00  0.525078E+00  0.410136E+00  0.304822E+00  0.218708E+00  0.155522E+00
  0.113966E+00  0.899606E-01  0.792327E-01  0.792327E-01  0.899606E-01  0.113966E+00
  0.155522E+00  0.218708E+00  0.304822E+00  0.410136E+00  0.525078E+00  0.636494E+00
  0.732884E+00  0.808606E+00  0.863941E+00  0.902446E+00  0.928375E+00  0.945353E+00
  0.956052E+00  0.962277E+00  0.965128E+00  0.965128E+00  0.962277E+00  0.956052E+00
  0.953239E+00  0.940107E+00  0.919685E+00  0.888901E+00  0.843871E+00  0.780540E+00
  0.696261E+00  0.592350E+00  0.476436E+00  0.361682E+00  0.261481E+00  0.183820E+00
  0.129979E+00  0.966975E-01  0.792327E-01  0.738643E-01  0.792327E-01  0.966975E-01
  0.129979E+00  0.183820E+00  0.261481E+00  0.361682E+00  0.476436E+00  0.592350E+00
  0.696261E+00  0.780540E+00  0.843871E+00  0.888901E+00  0.919685E+00  0.940107E+00
  0.953239E+00  0.961250E+00  0.965541E+00  0.966889E+00  0.965541E+00  0.961250E+00
  0.953239E+00  0.946565E+00  0.929953E+00  0.904834E+00  0.868026E+00  0.815975E+00
  0.745591E+00  0.655630E+00  0.548807E+00  0.433817E+00  0.324121E+00  0.232079E+00
  0.163607E+00  0.118040E+00  0.913308E-01  0.792327E-01  0.792327E-01  0.913308E-01
  0.118040E+00  0.163607E+00  0.232079E+00  0.324121E+00  0.433817E+00  0.548807E+00
  0.655630E+00  0.745591E+00  0.815975E+00  0.868026E+00  0.904834E+00  0.929953E+00
  0.946565E+00  0.957117E+00  0.963297E+00  0.966141E+00  0.966141E+00  0.963297E+00
  0.957117E+00  0.946565E+00  0.933893E+00  0.912635E+00  0.882001E+00  0.839203E+00
  0.781519E+00  0.707044E+00  0.615745E+00  0.511129E+00  0.401859E+00  0.300361E+00
  0.217317E+00  0.157029E+00  0.118040E+00  0.966975E-01  0.899606E-01  0.966975E-01
  0.118040E+00  0.157029E+00  0.217317E+00  0.300361E+00  0.401859E+00  0.511129E+00
  0.615745E+00  0.707044E+00  0.781519E+00  0.839203E+00  0.882001E+00  0.912635E+00
  0.933893E+00  0.948129E+00  0.957107E+00  0.962027E+00  0.963591E+00  0.962027E+00
  0.957107E+00  0.948129E+00  0.933893E+00  0.911831E+00  0.885539E+00  0.850280E+00
  0.803921E+00  0.744410E+00  0.670570E+00  0.583001E+00  0.485189E+00  0.384674E+00
  0.292243E+00  0.217317E+00  0.163607E+00  0.129979E+00  0.113966E+00  0.113966E+00
  0.129979E+00  0.163607E+00  0.217317E+00  0.292243E+00  0.384674E+00  0.485189E+00
  0.583001E+00  0.670570E+00  0.744410E+00  0.803921E+00  0.850280E+00  0.885539E+00
  0.911831E+00  0.930907E+00  0.944061E+00  0.952247E+00  0.956151E+00  0.956151E+00
  0.952247E+00  0.944061E+00  0.930907E+00  0.911831E+00  0.876291E+00  0.847584E+00
  0.811996E+00  0.767405E+00  0.711682E+00  0.643764E+00  0.564277E+00  0.475896E+00
  0.384674E+00  0.300361E+00  0.232079E+00  0.183820E+00  0.155522E+00  0.146226E+00
  0.155522E+00  0.183820E+00  0.232079E+00  0.300361E+00  0.384674E+00  0.475896E+00
  0.564277E+00  0.643764E+00  0.711682E+00  0.767405E+00  0.811996E+00  0.847584E+00
  0.876291E+00  0.899477E+00  0.917622E+00  0.930672E+00  0.938496E+00  0.941094E+00
  0.938496E+00  0.930672E+00  0.917622E+00  0.899477E+00  0.876291E+00  0.826147E+00
  0.803211E+00  0.775073E+00  0.738850E+00  0.692111E+00  0.633817E+00  0.564277E+00
  0.485189E+00  0.401859E+00  0.324121E+00  0.261481E+00  0.218708E+00  0.197159E+00
  0.197159E+00  0.218708E+00  0.261481E+00  0.324121E+00  0.401859E+00  0.485189E+00
  0.564277E+00  0.633817E+00  0.692111E+00  0.738850E+00  0.775073E+00  0.803211E+00
  0.826147E+00  0.846287E+00  0.864962E+00  0.881905E+00  0.895241E+00  0.902628E+00
  0.902628E+00  0.895241E+00  0.881905E+00  0.864962E+00  0.846287E+00  0.826147E+00
  0.770919E+00  0.765321E+00  0.751767E+00  0.727923E+00  0.692111E+00  0.643764E+00
  0.583001E+00  0.511129E+00  0.433817E+00  0.361682E+00  0.304822E+00  0.269005E+00
  0.256807E+00  0.269005E+00  0.304822E+00  0.361682E+00  0.433817E+00  0.511129E+00
  0.583001E+00  0.643764E+00  0.692111E+00  0.727923E+00  0.751767E+00  0.765321E+00
  0.770919E+00  0.771450E+00  0.771243E+00  0.775677E+00  0.786933E+00  0.799822E+00
  0.805505E+00  0.799822E+00  0.786933E+00  0.775677E+00  0.771243E+00  0.771450E+00
  0.770919E+00  0.733036E+00  0.750168E+00  0.751767E+00  0.738850E+00  0.711682E+00
  0.670570E+00  0.615745E+00  0.548807E+00  0.476436E+00  0.410136E+00  0.360589E+00
  0.334345E+00  0.334345E+00  0.360589E+00  0.410136E+00  0.476436E+00  0.548807E+00
  0.615745E+00  0.670570E+00  0.711682E+00  0.738850E+00  0.751767E+00  0.750168E+00
  0.733036E+00  0.698583E+00  0.648433E+00  0.595061E+00  0.560227E+00  0.555109E+00
  0.564518E+00  0.564518E+00  0.555109E+00  0.560227E+00  0.595061E+00  0.648433E+00
  0.698583E+00  0.733036E+00  0.733036E+00  0.765321E+00  0.775073E+00  0.767405E+00
  0.744410E+00  0.707044E+00  0.655630E+00  0.592350E+00  0.525078E+00  0.466115E+00
  0.426430E+00  0.412515E+00  0.426430E+00  0.466115E+00  0.525078E+00  0.592350E+00
  0.655630E+00  0.707044E+00  0.744410E+00  0.767405E+00  0.775073E+00  0.765321E+00
  0.733036E+00  0.667685E+00  0.558353E+00  0.417237E+00  0.294237E+00  0.229049E+00
  0.214687E+00  0.217212E+00  0.214687E+00  0.229049E+00  0.294237E+00  0.417237E+00
  0.558353E+00  0.667685E+00  0.733036E+00  0.770919E+00  0.803211E+00  0.811996E+00
  0.803921E+00  0.781519E+00  0.745591E+00  0.696261E+00  0.636494E+00  0.575505E+00
  0.526112E+00  0.498783E+00  0.498783E+00  0.526112E+00  0.575505E+00  0.636494E+00
  0.696261E+00  0.745591E+00  0.781519E+00  0.803921E+00  0.811996E+00  0.803211E+00
  0.770919E+00  0.698583E+00  0.558353E+00  0.348998E+00  0.160773E+00  0.679346E-01
  0.390039E-01  0.340784E-01  0.340784E-01  0.390039E-01  0.679346E-01  0.160773E+00
  0.348998E+00  0.558353E+00  0.698583E+00  0.770919E+00  0.826147E+00  0.847584E+00
  0.850280E+00  0.839203E+00  0.815975E+00  0.780540E+00  0.732884E+00  0.677257E+00
  0.624232E+00  0.586439E+00  0.572830E+00  0.586439E+00  0.624232E+00  0.677257E+00
  0.732884E+00  0.780540E+00  0.815975E+00  0.839203E+00  0.850280E+00  0.847584E+00
  0.826147E+00  0.771450E+00  0.648433E+00  0.417237E+00  0.160773E+00  0.369830E-01
  0.778269E-02  0.280581E-02  0.216387E-02  0.280581E-02  0.778269E-02  0.369830E-01
  0.160773E+00  0.417237E+00  0.648433E+00  0.771450E+00  0.826147E+00  0.876291E+00
  0.885539E+00  0.882001E+00  0.868026E+00  0.843871E+00  0.808606E+00  0.762760E+00
  0.712363E+00  0.668868E+00  0.643805E+00  0.643805E+00  0.668868E+00  0.712363E+00
  0.762760E+00  0.808606E+00  0.843871E+00  0.868026E+00  0.882001E+00  0.885539E+00
  0.876291E+00  0.846287E+00  0.771243E+00  0.595061E+00  0.294237E+00  0.679346E-01
  0.778269E-02  0.627272E-03  0.836674E-04  0.836674E-04  0.627272E-03  0.778269E-02
  0.679346E-01  0.294237E+00  0.595061E+00  0.771243E+00  0.846287E+00  0.876291E+00
  0.911831E+00  0.912635E+00  0.904834E+00  0.888901E+00  0.863941E+00  0.828782E+00
  0.785330E+00  0.741358E+00  0.708408E+00  0.696202E+00  0.708408E+00  0.741358E+00
  0.785330E+00  0.828782E+00  0.863941E+00  0.888901E+00  0.904834E+00  0.912635E+00
  0.911831E+00  0.899477E+00  0.864962E+00  0.775677E+00  0.560227E+00  0.229049E+00
  0.390039E-01  0.280581E-02  0.836674E-04  0.599485E-05  0.836674E-04  0.280581E-02
  0.390039E-01  0.229049E+00  0.560227E+00  0.775677E+00  0.864962E+00  0.899477E+00
  0.911831E+00  0.933893E+00  0.929953E+00  0.919685E+00  0.902446E+00  0.876685E+00
  0.841820E+00  0.801535E+00  0.764890E+00  0.742887E+00  0.742887E+00  0.764890E+00
  0.801535E+00  0.841820E+00  0.876685E+00  0.902446E+00  0.919685E+00  0.929953E+00
  0.933893E+00  0.930907E+00  0.917622E+00  0.881905E+00  0.786933E+00  0.555109E+00
  0.214687E+00  0.340784E-01  0.216387E-02  0.836674E-04  0.836674E-04  0.216387E-02
  0.340784E-01  0.214687E+00  0.555109E+00  0.786933E+00  0.881905E+00  0.917622E+00
  0.930907E+00  0.933893E+00  0.946565E+00  0.940107E+00  0.928375E+00  0.909997E+00
  0.883345E+00  0.849008E+00  0.812443E+00  0.783640E+00  0.772632E+00  0.783640E+00
  0.812443E+00  0.849008E+00  0.883345E+00  0.909997E+00  0.928375E+00  0.940107E+00
  0.946565E+00  0.948129E+00  0.944061E+00  0.930672E+00  0.895241E+00  0.799822E+00
  0.564518E+00  0.217212E+00  0.340784E-01  0.280581E-02  0.627272E-03  0.280581E-02
  0.340784E-01  0.217212E+00  0.564518E+00  0.799822E+00  0.895241E+00  0.930672E+00
  0.944061E+00  0.948129E+00  0.946565E+00  0.953239E+00  0.945353E+00  0.932440E+00
  0.912663E+00  0.884808E+00  0.850949E+00  0.818380E+00  0.797929E+00  0.797929E+00
  0.818380E+00  0.850949E+00  0.884808E+00  0.912663E+00  0.932440E+00  0.945353E+00
  0.953239E+00  0.957117E+00  0.957107E+00  0.952247E+00  0.938496E+00  0.902628E+00
  0.805505E+00  0.564518E+00  0.214687E+00  0.390039E-01  0.778269E-02  0.778269E-02
  0.390039E-01  0.214687E+00  0.564518E+00  0.805505E+00  0.902628E+00  0.938496E+00
  0.952247E+00  0.957107E+00  0.957117E+00  0.953239E+00  0.956052E+00  0.947056E+00
  0.932611E+00  0.910708E+00  0.880931E+00  0.847231E+00  0.819169E+00  0.808082E+00
  0.819169E+00  0.847231E+00  0.880931E+00  0.910708E+00  0.932611E+00  0.947056E+00
  0.956052E+00  0.961250E+00  0.963297E+00  0.962027E+00  0.956151E+00  0.941094E+00
  0.902628E+00  0.799822E+00  0.555109E+00  0.229049E+00  0.679346E-01  0.369830E-01
  0.679346E-01  0.229049E+00  0.555109E+00  0.799822E+00  0.902628E+00  0.941094E+00
  0.956151E+00  0.962027E+00  0.963297E+00  0.961250E+00  0.956052E+00  0.956052E+00
  0.945554E+00  0.928605E+00  0.903309E+00  0.870516E+00  0.836916E+00  0.814823E+00
  0.814823E+00  0.836916E+00  0.870516E+00  0.903309E+00  0.928605E+00  0.945554E+00
  0.956052E+00  0.962277E+00  0.965541E+00  0.966141E+00  0.963591E+00  0.956151E+00
  0.938496E+00  0.895241E+00  0.786933E+00  0.560227E+00  0.294237E+00  0.160773E+00
  0.160773E+00  0.294237E+00  0.560227E+00  0.786933E+00  0.895241E+00  0.938496E+00
  0.956151E+00  0.963591E+00  0.966141E+00  0.965541E+00  0.962277E+00  0.956052E+00
  0.953239E+00  0.940147E+00  0.919071E+00  0.888546E+00  0.851650E+00  0.819209E+00
  0.806003E+00  0.819209E+00  0.851650E+00  0.888546E+00  0.919071E+00  0.940147E+00
  0.953239E+00  0.960896E+00  0.965128E+00  0.966889E+00  0.966141E+00  0.962027E+00
  0.952247E+00  0.930672E+00  0.881905E+00  0.775677E+00  0.595061E+00  0.417237E+00
  0.348998E+00  0.417237E+00  0.595061E+00  0.775677E+00  0.881905E+00  0.930672E+00
  0.952247E+00  0.962027E+00  0.966141E+00  0.966889E+00  0.965128E+00  0.960896E+00
  0.953239E+00  0.946565E+00  0.929061E+00  0.901455E+00  0.863434E+00  0.822259E+00
  0.794169E+00  0.794169E+00  0.822259E+00  0.863434E+00  0.901455E+00  0.929061E+00
  0.946565E+00  0.956802E+00  0.962421E+00  0.965128E+00  0.965541E+00  0.963297E+00
  0.957107E+00  0.944061E+00  0.917622E+00  0.864962E+00  0.771243E+00  0.648433E+00
  0.558353E+00  0.558353E+00  0.648433E+00  0.771243E+00  0.864962E+00  0.917622E+00
  0.944061E+00  0.957107E+00  0.963297E+00  0.965541E+00  0.965128E+00  0.962421E+00
  0.956802E+00  0.946565E+00  0.933893E+00  0.909232E+00  0.871856E+00  0.824561E+00
  0.781559E+00  0.763777E+00  0.781559E+00  0.824561E+00  0.871856E+00  0.909232E+00
  0.933893E+00  0.948619E+00  0.956802E+00  0.960896E+00  0.962277E+00  0.961250E+00
  0.957117E+00  0.948129E+00  0.930907E+00  0.899477E+00  0.846287E+00  0.771450E+00
  0.698583E+00  0.667685E+00  0.698583E+00  0.771450E+00  0.846287E+00  0.899477E+00
  0.930907E+00  0.948129E+00  0.957117E+00  0.961250E+00  0.962277E+00  0.960896E+00
  0.956802E+00  0.948619E+00  0.933893E+00  0.911831E+00  0.876291E+00  0.826147E+00
  0.770919E+00  0.733036E+00  0.733036E+00  0.770919E+00  0.826147E+00  0.876291E+00
  0.911831E+00  0.933893E+00  0.946565E+00  0.953239E+00  0.956052E+00  0.956052E+00
  0.953239E+00  0.946565E+00  0.933893E+00  0.911831E+00  0.876291E+00  0.826147E+00
  0.770919E+00  0.733036E+00  0.733036E+00  0.770919E+00  0.826147E+00  0.876291E+00
  0.911831E+00  0.933893E+00  0.946565E+00  0.953239E+00  0.956052E+00  0.956052E+00
  0.953239E+00  0.946565E+00  0.933893E+00  0.911831E+00  0.899477E+00  0.846287E+00
  0.771450E+00  0.698583E+00  0.667685E+00  0.698583E+00  0.771450E+00  0.846287E+00
  0.899477E+00  0.930907E+00  0.948129E+00  0.957117E+00  0.961250E+00  0.962277E+00
  0.960896E+00  0.956802E+00  0.948619E+00  0.933893E+00  0.909232E+00  0.871856E+00
  0.824561E+00  0.781559E+00  0.763777E+00  0.781559E+00  0.824561E+00  0.871856E+00
  0.909232E+00  0.933893E+00  0.948619E+00  0.956802E+00  0.960896E+00  0.962277E+00
  0.961250E+00  0.957117E+00  0.948129E+00  0.930907E+00  0.899477E+00  0.846287E+00
  0.768297E+00  0.677313E+00  0.613876E+00  0.613876E+00  0.677313E+00  0.768297E+00
  0.846287E+00  0.896997E+00  0.925971E+00  0.941667E+00  0.949607E+00  0.952720E+00
  0.952446E+00  0.949183E+00  0.942256E+00  0.929953E+00  0.909889E+00  0.880071E+00
  0.841543E+00  0.802133E+00  0.776263E+00  0.776263E+00  0.802133E+00  0.841543E+00
  0.880071E+00  0.909889E+00  0.929953E+00  0.942256E+00  0.949183E+00  0.952446E+00
  0.952720E+00  0.949607E+00  0.941667E+00  0.925971E+00  0.896997E+00  0.846287E+00
  0.771450E+00  0.677313E+00  0.593073E+00  0.559242E+00  0.593073E+00  0.677313E+00
  0.771450E+00  0.844128E+00  0.889881E+00  0.916105E+00  0.930310E+00  0.937093E+00
  0.938876E+00  0.936757E+00  0.930725E+00  0.919685E+00  0.901853E+00  0.875698E+00
  0.841629E+00  0.804360E+00  0.773987E+00  0.762109E+00  0.773987E+00  0.804360E+00
  0.841629E+00  0.875698E+00  0.901853E+00  0.919685E+00  0.930725E+00  0.936757E+00
  0.938876E+00  0.937093E+00  0.930310E+00  0.916105E+00  0.889881E+00  0.844128E+00
  0.771450E+00  0.698583E+00  0.613876E+00  0.559242E+00  0.559242E+00  0.613876E+00
  0.698583E+00  0.780322E+00  0.840627E+00  0.878923E+00  0.901307E+00  0.913231E+00
  0.918080E+00  0.917684E+00  0.912665E+00  0.902446E+00  0.885603E+00  0.860867E+00
  0.828502E+00  0.791772E+00  0.757992E+00  0.737237E+00  0.737237E+00  0.757992E+00
  0.791772E+00  0.828502E+00  0.860867E+00  0.885603E+00  0.902446E+00  0.912665E+00
  0.917684E+00  0.918080E+00  0.913231E+00  0.901307E+00  0.878923E+00  0.840627E+00
  0.780322E+00  0.698583E+00  0.667685E+00  0.613876E+00  0.593073E+00  0.613876E+00
  0.667685E+00  0.733870E+00  0.793025E+00  0.836570E+00  0.864917E+00  0.881476E+00
  0.889340E+00  0.890613E+00  0.886415E+00  0.876685E+00  0.860241E+00  0.835769E+00
  0.803384E+00  0.765762E+00  0.728638E+00  0.700498E+00  0.689879E+00  0.700498E+00
  0.728638E+00  0.765762E+00  0.803384E+00  0.835769E+00  0.860241E+00  0.876685E+00
  0.886415E+00  0.890613E+00  0.889340E+00  0.881476E+00  0.864917E+00  0.836570E+00
  0.793025E+00  0.733870E+00  0.667685E+00  0.698583E+00  0.677313E+00  0.677313E+00
  0.698583E+00  0.733870E+00  0.772689E+00  0.806658E+00  0.831960E+00  0.848185E+00
  0.856271E+00  0.857373E+00  0.852456E+00  0.841820E+00  0.824639E+00  0.799498E+00
  0.766087E+00  0.726635E+00  0.686054E+00  0.651514E+00  0.631262E+00  0.631262E+00
  0.651514E+00  0.686054E+00  0.726635E+00  0.766087E+00  0.799498E+00  0.824639E+00
  0.841820E+00  0.852456E+00  0.857373E+00  0.856271E+00  0.848185E+00  0.831960E+00
  0.806658E+00  0.772689E+00  0.733870E+00  0.698583E+00  0.771450E+00  0.768297E+00
  0.771450E+00  0.780322E+00  0.793025E+00  0.806658E+00  0.818328E+00  0.825964E+00
  0.828396E+00  0.825123E+00  0.816137E+00  0.801535E+00  0.780827E+00  0.752806E+00
  0.716829E+00  0.674555E+00  0.630305E+00  0.590259E+00  0.561693E+00  0.551240E+00
  0.561693E+00  0.590259E+00  0.630305E+00  0.674555E+00  0.716829E+00  0.752806E+00
  0.780827E+00  0.801535E+00  0.816137E+00  0.825123E+00  0.828396E+00  0.825964E+00
  0.818328E+00  0.806658E+00  0.793025E+00  0.780322E+00  0.771450E+00  0.846287E+00
  0.846287E+00  0.844128E+00  0.840627E+00  0.836570E+00  0.831960E+00  0.825964E+00
  0.817315E+00  0.804767E+00  0.787445E+00  0.764890E+00  0.736650E+00  0.701939E+00
  0.660301E+00  0.613096E+00  0.564139E+00  0.518853E+00  0.483344E+00  0.463594E+00
  0.463594E+00  0.483344E+00  0.518853E+00  0.564139E+00  0.613096E+00  0.660301E+00
  0.701939E+00  0.736650E+00  0.764890E+00  0.787445E+00  0.804767E+00  0.817315E+00
  0.825964E+00  0.831960E+00  0.836570E+00  0.840627E+00  0.844128E+00  0.846287E+00
  0.899477E+00  0.896997E+00  0.889881E+00  0.878923E+00  0.864917E+00  0.848185E+00
  0.828396E+00  0.804767E+00  0.776465E+00  0.742887E+00  0.703605E+00  0.658266E+00
  0.607066E+00  0.551750E+00  0.496028E+00  0.444766E+00  0.402996E+00  0.375446E+00
  0.365787E+00  0.375446E+00  0.402996E+00  0.444766E+00  0.496028E+00  0.551750E+00
  0.607066E+00  0.658266E+00  0.703605E+00  0.742887E+00  0.776465E+00  0.804767E+00
  0.828396E+00  0.848185E+00  0.864917E+00  0.878923E+00  0.889881E+00  0.896997E+00
  0.899477E+00  0.930907E+00  0.925971E+00  0.916105E+00  0.901307E+00  0.881476E+00
  0.856271E+00  0.825123E+00  0.787445E+00  0.742887E+00  0.691368E+00  0.633130E+00
  0.569300E+00  0.502683E+00  0.437682E+00  0.379088E+00  0.331053E+00  0.296914E+00
  0.279165E+00  0.279165E+00  0.296914E+00  0.331053E+00  0.379088E+00  0.437682E+00
  0.502683E+00  0.569300E+00  0.633130E+00  0.691368E+00  0.742887E+00  0.787445E+00
  0.825123E+00  0.856271E+00  0.881476E+00  0.901307E+00  0.916105E+00  0.925971E+00
  0.930907E+00  0.930907E+00  0.948129E+00  0.941667E+00  0.930310E+00  0.913231E+00
  0.889340E+00  0.857373E+00  0.816137E+00  0.764890E+00  0.703605E+00  0.633130E+00
  0.555703E+00  0.475622E+00  0.398817E+00  0.330950E+00  0.275912E+00  0.235823E+00
  0.211619E+00  0.203547E+00  0.211619E+00  0.235823E+00  0.275912E+00  0.330950E+00
  0.398817E+00  0.475622E+00  0.555703E+00  0.633130E+00  0.703605E+00  0.764890E+00
  0.816137E+00  0.857373E+00  0.889340E+00  0.913231E+00  0.930310E+00  0.941667E+00
  0.948129E+00  0.950221E+00  0.948129E+00  0.957117E+00  0.949607E+00  0.937093E+00
  0.918080E+00  0.890613E+00  0.852456E+00  0.801535E+00  0.736650E+00  0.658266E+00
  0.569300E+00  0.475622E+00  0.385222E+00  0.305649E+00  0.241692E+00  0.195030E+00
  0.165197E+00  0.150822E+00  0.150822E+00  0.165197E+00  0.195030E+00  0.241692E+00
  0.305649E+00  0.385222E+00  0.475622E+00  0.569300E+00  0.658266E+00  0.736650E+00
  0.801535E+00  0.852456E+00  0.890613E+00  0.918080E+00  0.937093E+00  0.949607E+00
  0.957117E+00  0.960622E+00  0.960622E+00  0.957117E+00  0.961250E+00  0.952720E+00
  0.938876E+00  0.917684E+00  0.886415E+00  0.841820E+00  0.780827E+00  0.701939E+00
  0.607066E+00  0.502683E+00  0.398817E+00  0.305649E+00  0.230108E+00  0.174733E+00
  0.138504E+00  0.118587E+00  0.112302E+00  0.118587E+00  0.138504E+00  0.174733E+00
  0.230108E+00  0.305649E+00  0.398817E+00  0.502683E+00  0.607066E+00  0.701939E+00
  0.780827E+00  0.841820E+00  0.886415E+00  0.917684E+00  0.938876E+00  0.952720E+00
  0.961250E+00  0.965842E+00  0.967287E+00  0.965842E+00  0.961250E+00  0.962277E+00
  0.952446E+00  0.936757E+00  0.912665E+00  0.876685E+00  0.824639E+00  0.752806E+00
  0.660301E+00  0.551750E+00  0.437682E+00  0.330950E+00  0.241692E+00  0.174733E+00
  0.129829E+00  0.103506E+00  0.916369E-01  0.916369E-01  0.103506E+00  0.129829E+00
  0.174733E+00  0.241692E+00  0.330950E+00  0.437682E+00  0.551750E+00  0.660301E+00
  0.752806E+00  0.824639E+00  0.876685E+00  0.912665E+00  0.936757E+00  0.952446E+00
  0.962277E+00  0.967966E+00  0.970562E+00  0.970562E+00  0.967966E+00  0.962277E+00
  0.960896E+00  0.949183E+00  0.930725E+00  0.902446E+00  0.860241E+00  0.799498E+00
  0.716829E+00  0.613096E+00  0.496028E+00  0.379088E+00  0.275912E+00  0.195030E+00
  0.138504E+00  0.103506E+00  0.851972E-01  0.795882E-01  0.851972E-01  0.103506E+00
  0.138504E+00  0.195030E+00  0.275912E+00  0.379088E+00  0.496028E+00  0.613096E+00
  0.716829E+00  0.799498E+00  0.860241E+00  0.902446E+00  0.930725E+00  0.949183E+00
  0.960896E+00  0.967966E+00  0.971722E+00  0.972897E+00  0.971722E+00  0.967966E+00
  0.960896E+00  0.956802E+00  0.942256E+00  0.919685E+00  0.885603E+00  0.835769E+00
  0.766087E+00  0.674555E+00  0.564139E+00  0.444766E+00  0.331053E+00  0.235823E+00
  0.165197E+00  0.118587E+00  0.916369E-01  0.795882E-01  0.795882E-01  0.916369E-01
  0.118587E+00  0.165197E+00  0.235823E+00  0.331053E+00  0.444766E+00  0.564139E+00
  0.674555E+00  0.766087E+00  0.835769E+00  0.885603E+00  0.919685E+00  0.942256E+00
  0.956802E+00  0.965842E+00  0.971048E+00  0.973419E+00  0.973419E+00  0.971048E+00
  0.965842E+00  0.956802E+00  0.948619E+00  0.929953E+00  0.901853E+00  0.860867E+00
  0.803384E+00  0.726635E+00  0.630305E+00  0.518853E+00  0.402996E+00  0.296914E+00
  0.211619E+00  0.150822E+00  0.112302E+00  0.916369E-01  0.851972E-01  0.916369E-01
  0.112302E+00  0.150822E+00  0.211619E+00  0.296914E+00  0.402996E+00  0.518853E+00
  0.630305E+00  0.726635E+00  0.803384E+00  0.860867E+00  0.901853E+00  0.929953E+00
  0.948619E+00  0.960622E+00  0.967940E+00  0.971857E+00  0.973086E+00  0.971857E+00
  0.967940E+00  0.960622E+00  0.948619E+00  0.933893E+00  0.909889E+00  0.875698E+00
  0.828502E+00  0.765762E+00  0.686054E+00  0.590259E+00  0.483344E+00  0.375446E+00
  0.279165E+00  0.203547E+00  0.150822E+00  0.118587E+00  0.103506E+00  0.103506E+00
  0.118587E+00  0.150822E+00  0.203547E+00  0.279165E+00  0.375446E+00  0.483344E+00
  0.590259E+00  0.686054E+00  0.765762E+00  0.828502E+00  0.875698E+00  0.909889E+00
  0.933893E+00  0.950221E+00  0.960838E+00  0.967152E+00  0.970080E+00  0.970080E+00
  0.967152E+00  0.960838E+00  0.950221E+00  0.933893E+00  0.909232E+00  0.880071E+00
  0.841629E+00  0.791772E+00  0.728638E+00  0.651514E+00  0.561693E+00  0.463594E+00
  0.365787E+00  0.279165E+00  0.211619E+00  0.165197E+00  0.138504E+00  0.129829E+00
  0.138504E+00  0.165197E+00  0.211619E+00  0.279165E+00  0.365787E+00  0.463594E+00
  0.561693E+00  0.651514E+00  0.728638E+00  0.791772E+00  0.841629E+00  0.880071E+00
  0.909232E+00  0.930907E+00  0.946395E+00  0.956650E+00  0.962435E+00  0.964296E+00
  0.962435E+00  0.956650E+00  0.946395E+00  0.930907E+00  0.909232E+00  0.871856E+00
  0.841543E+00  0.804360E+00  0.757992E+00  0.700498E+00  0.631262E+00  0.551240E+00
  0.463594E+00  0.375446E+00  0.296914E+00  0.235823E+00  0.195030E+00  0.174733E+00
  0.174733E+00  0.195030E+00  0.235823E+00  0.296914E+00  0.375446E+00  0.463594E+00
  0.551240E+00  0.631262E+00  0.700498E+00  0.757992E+00  0.804360E+00  0.841543E+00
  0.871856E+00  0.896997E+00  0.917622E+00  0.933549E+00  0.944323E+00  0.949711E+00
  0.949711E+00  0.944323E+00  0.933549E+00  0.917622E+00  0.896997E+00  0.871856E+00
  0.824561E+00  0.802133E+00  0.773987E+00  0.737237E+00  0.689879E+00  0.631262E+00
  0.561693E+00  0.483344E+00  0.402996E+00  0.331053E+00  0.275912E+00  0.241692E+00
  0.230108E+00  0.241692E+00  0.275912E+00  0.331053E+00  0.402996E+00  0.483344E+00
  0.561693E+00  0.631262E+00  0.689879E+00  0.737237E+00  0.773987E+00  0.802133E+00
  0.824561E+00  0.844128E+00  0.863012E+00  0.881905E+00  0.899163E+00  0.911439E+00
  0.915868E+00  0.911439E+00  0.899163E+00  0.881905E+00  0.863012E+00  0.844128E+00
  0.824561E+00  0.781559E+00  0.776263E+00  0.762109E+00  0.737237E+00  0.700498E+00
  0.651514E+00  0.590259E+00  0.518853E+00  0.444766E+00  0.379088E+00  0.330950E+00
  0.305649E+00  0.305649E+00  0.330950E+00  0.379088E+00  0.444766E+00  0.518853E+00
  0.590259E+00  0.651514E+00  0.700498E+00  0.737237E+00  0.762109E+00  0.776263E+00
  0.781559E+00  0.780322E+00  0.776412E+00  0.776484E+00  0.786933E+00  0.805754E+00
  0.820760E+00  0.820760E+00  0.805754E+00  0.786933E+00  0.776484E+00  0.776412E+00
  0.780322E+00  0.781559E+00  0.763777E+00  0.776263E+00  0.773987E+00  0.757992E+00
  0.728638E+00  0.686054E+00  0.630305E+00  0.564139E+00  0.496028E+00  0.437682E+00
  0.398817E+00  0.385222E+00  0.398817E+00  0.437682E+00  0.496028E+00  0.564139E+00
  0.630305E+00  0.686054E+00  0.728638E+00  0.757992E+00  0.773987E+00  0.776263E+00
  0.763777E+00  0.733870E+00  0.684389E+00  0.622113E+00  0.570338E+00  0.555109E+00
  0.573444E+00  0.587777E+00  0.573444E+00  0.555109E+00  0.570338E+00  0.622113E+00
  0.684389E+00  0.733870E+00  0.763777E+00  0.781559E+00  0.802133E+00  0.804360E+00
  0.791772E+00  0.765762E+00  0.726635E+00  0.674555E+00  0.613096E+00  0.551750E+00
  0.502683E+00  0.475622E+00  0.475622E+00  0.502683E+00  0.551750E+00  0.613096E+00
  0.674555E+00  0.726635E+00  0.765762E+00  0.791772E+00  0.804360E+00  0.802133E+00
  0.781559E+00  0.733870E+00  0.643880E+00  0.504360E+00  0.350933E+00  0.247506E+00
  0.214687E+00  0.223792E+00  0.223792E+00  0.214687E+00  0.247506E+00  0.350933E+00
  0.504360E+00  0.643880E+00  0.733870E+00  0.781559E+00  0.824561E+00  0.841543E+00
  0.841629E+00  0.828502E+00  0.803384E+00  0.766087E+00  0.716829E+00  0.660301E+00
  0.607066E+00  0.569300E+00  0.555703E+00  0.569300E+00  0.607066E+00  0.660301E+00
  0.716829E+00  0.766087E+00  0.803384E+00  0.828502E+00  0.841629E+00  0.841543E+00
  0.824561E+00  0.780322E+00  0.684389E+00  0.504360E+00  0.271466E+00  0.109806E+00
  0.482593E-01  0.340784E-01  0.338326E-01  0.340784E-01  0.482593E-01  0.109806E+00
  0.271466E+00  0.504360E+00  0.684389E+00  0.780322E+00  0.824561E+00  0.871856E+00
  0.880071E+00  0.875698E+00  0.860867E+00  0.835769E+00  0.799498E+00  0.752806E+00
  0.701939E+00  0.658266E+00  0.633130E+00  0.633130E+00  0.658266E+00  0.701939E+00
  0.752806E+00  0.799498E+00  0.835769E+00  0.860867E+00  0.875698E+00  0.880071E+00
  0.871856E+00  0.844128E+00  0.776412E+00  0.622113E+00  0.350933E+00  0.109806E+00
  0.219171E-01  0.479589E-02  0.216387E-02  0.216387E-02  0.479589E-02  0.219171E-01
  0.109806E+00  0.350933E+00  0.622113E+00  0.776412E+00  0.844128E+00  0.871856E+00
  0.909232E+00  0.909889E+00  0.901853E+00  0.885603E+00  0.860241E+00  0.824639E+00
  0.780827E+00  0.736650E+00  0.703605E+00  0.691368E+00  0.703605E+00  0.736650E+00
  0.780827E+00  0.824639E+00  0.860241E+00  0.885603E+00  0.901853E+00  0.909889E+00
  0.909232E+00  0.896997E+00  0.863012E+00  0.776484E+00  0.570338E+00  0.247506E+00
  0.482593E-01  0.479589E-02  0.356834E-03  0.836674E-04  0.356834E-03  0.479589E-02
  0.482593E-01  0.247506E+00  0.570338E+00  0.776484E+00  0.863012E+00  0.896997E+00
  0.909232E+00  0.933893E+00  0.929953E+00  0.919685E+00  0.902446E+00  0.876685E+00
  0.841820E+00  0.801535E+00  0.764890E+00  0.742887E+00  0.742887E+00  0.764890E+00
  0.801535E+00  0.841820E+00  0.876685E+00  0.902446E+00  0.919685E+00  0.929953E+00
  0.933893E+00  0.930907E+00  0.917622E+00  0.881905E+00  0.786933E+00  0.555109E+00
  0.214687E+00  0.340784E-01  0.216387E-02  0.836674E-04  0.836674E-04  0.216387E-02
  0.340784E-01  0.214687E+00  0.555109E+00  0.786933E+00  0.881905E+00  0.917622E+00
  0.930907E+00  0.933893E+00  0.948619E+00  0.942256E+00  0.930725E+00  0.912665E+00
  0.886415E+00  0.852456E+00  0.816137E+00  0.787445E+00  0.776465E+00  0.787445E+00
  0.816137E+00  0.852456E+00  0.886415E+00  0.912665E+00  0.930725E+00  0.942256E+00
  0.948619E+00  0.950221E+00  0.946395E+00  0.933549E+00  0.899163E+00  0.805754E+00
  0.573444E+00  0.223792E+00  0.338326E-01  0.216387E-02  0.356834E-03  0.216387E-02
  0.338326E-01  0.223792E+00  0.573444E+00  0.805754E+00  0.899163E+00  0.933549E+00
  0.946395E+00  0.950221E+00  0.948619E+00  0.956802E+00  0.949183E+00  0.936757E+00
  0.917684E+00  0.890613E+00  0.857373E+00  0.825123E+00  0.804767E+00  0.804767E+00
  0.825123E+00  0.857373E+00  0.890613E+00  0.917684E+00  0.936757E+00  0.949183E+00
  0.956802E+00  0.960622E+00  0.960838E+00  0.956650E+00  0.944323E+00  0.911439E+00
  0.820760E+00  0.587777E+00  0.223792E+00  0.340784E-01  0.479589E-02  0.479589E-02
  0.340784E-01  0.223792E+00  0.587777E+00  0.820760E+00  0.911439E+00  0.944323E+00
  0.956650E+00  0.960838E+00  0.960622E+00  0.956802E+00  0.960896E+00  0.952446E+00
  0.938876E+00  0.918080E+00  0.889340E+00  0.856271E+00  0.828396E+00  0.817315E+00
  0.828396E+00  0.856271E+00  0.889340E+00  0.918080E+00  0.938876E+00  0.952446E+00
  0.960896E+00  0.965842E+00  0.967940E+00  0.967152E+00  0.962435E+00  0.949711E+00
  0.915868E+00  0.820760E+00  0.573444E+00  0.214687E+00  0.482593E-01  0.219171E-01
  0.482593E-01  0.214687E+00  0.573444E+00  0.820760E+00  0.915868E+00  0.949711E+00
  0.962435E+00  0.967152E+00  0.967940E+00  0.965842E+00  0.960896E+00  0.962277E+00
  0.952720E+00  0.937093E+00  0.913231E+00  0.881476E+00  0.848185E+00  0.825964E+00
  0.825964E+00  0.848185E+00  0.881476E+00  0.913231E+00  0.937093E+00  0.952720E+00
  0.962277E+00  0.967966E+00  0.971048E+00  0.971857E+00  0.970080E+00  0.964296E+00
  0.949711E+00  0.911439E+00  0.805754E+00  0.555109E+00  0.247506E+00  0.109806E+00
  0.109806E+00  0.247506E+00  0.555109E+00  0.805754E+00  0.911439E+00  0.949711E+00
  0.964296E+00  0.970080E+00  0.971857E+00  0.971048E+00  0.967966E+00  0.962277E+00
  0.961250E+00  0.949607E+00  0.930310E+00  0.901307E+00  0.864917E+00  0.831960E+00
  0.818328E+00  0.831960E+00  0.864917E+00  0.901307E+00  0.930310E+00  0.949607E+00
  0.961250E+00  0.967966E+00  0.971722E+00  0.973419E+00  0.973086E+00  0.970080E+00
  0.962435E+00  0.944323E+00  0.899163E+00  0.786933E+00  0.570338E+00  0.350933E+00
  0.271466E+00  0.350933E+00  0.570338E+00  0.786933E+00  0.899163E+00  0.944323E+00
  0.962435E+00  0.970080E+00  0.973086E+00  0.973419E+00  0.971722E+00  0.967966E+00
  0.961250E+00  0.957117E+00  0.941667E+00  0.916105E+00  0.878923E+00  0.836570E+00
  0.806658E+00  0.806658E+00  0.836570E+00  0.878923E+00  0.916105E+00  0.941667E+00
  0.957117E+00  0.965842E+00  0.970562E+00  0.972897E+00  0.973419E+00  0.971857E+00
  0.967152E+00  0.956650E+00  0.933549E+00  0.881905E+00  0.776484E+00  0.622113E+00
  0.504360E+00  0.504360E+00  0.622113E+00  0.776484E+00  0.881905E+00  0.933549E+00
  0.956650E+00  0.967152E+00  0.971857E+00  0.973419E+00  0.972897E+00  0.970562E+00
  0.965842E+00  0.957117E+00  0.948129E+00  0.925971E+00  0.889881E+00  0.840627E+00
  0.793025E+00  0.772689E+00  0.793025E+00  0.840627E+00  0.889881E+00  0.925971E+00
  0.948129E+00  0.960622E+00  0.967287E+00  0.970562E+00  0.971722E+00  0.971048E+00
  0.967940E+00  0.960838E+00  0.946395E+00  0.917622E+00  0.863012E+00  0.776412E+00
  0.684389E+00  0.643880E+00  0.684389E+00  0.776412E+00  0.863012E+00  0.917622E+00
  0.946395E+00  0.960838E+00  0.967940E+00  0.971048E+00  0.971722E+00  0.970562E+00
  0.967287E+00  0.960622E+00  0.948129E+00  0.930907E+00  0.896997E+00  0.844128E+00
  0.780322E+00  0.733870E+00  0.733870E+00  0.780322E+00  0.844128E+00  0.896997E+00
  0.930907E+00  0.950221E+00  0.960622E+00  0.965842E+00  0.967966E+00  0.967966E+00
  0.965842E+00  0.960622E+00  0.950221E+00  0.930907E+00  0.896997E+00  0.844128E+00
  0.780322E+00  0.733870E+00  0.733870E+00  0.780322E+00  0.844128E+00  0.896997E+00
  0.930907E+00  0.950221E+00  0.960622E+00  0.965842E+00  0.967966E+00  0.967966E+00
  0.965842E+00  0.960622E+00  0.950221E+00  0.930907E+00  0.899477E+00  0.846287E+00
  0.771450E+00  0.698583E+00  0.667685E+00  0.698583E+00  0.771450E+00  0.846287E+00
  0.899477E+00  0.930907E+00  0.948129E+00  0.957117E+00  0.961250E+00  0.962277E+00
  0.960896E+00  0.956802E+00  0.948619E+00  0.933893E+00  0.909232E+00  0.871856E+00
  0.824561E+00  0.781559E+00  0.763777E+00  0.781559E+00  0.824561E+00  0.871856E+00
  0.909232E+00  0.933893E+00  0.948619E+00  0.956802E+00  0.960896E+00  0.962277E+00
  0.961250E+00  0.957117E+00  0.948129E+00  0.930907E+00  0.899477E+00  0.864962E+00
  0.771243E+00  0.648433E+00  0.558353E+00  0.558353E+00  0.648433E+00  0.771243E+00
  0.864962E+00  0.917622E+00  0.944061E+00  0.957107E+00  0.963297E+00  0.965541E+00
  0.965128E+00  0.962421E+00  0.956802E+00  0.946565E+00  0.929061E+00  0.901455E+00
  0.863434E+00  0.822259E+00  0.794169E+00  0.794169E+00  0.822259E+00  0.863434E+00
  0.901455E+00  0.929061E+00  0.946565E+00  0.956802E+00  0.962421E+00  0.965128E+00
  0.965541E+00  0.963297E+00  0.957107E+00  0.944061E+00  0.917622E+00  0.864962E+00
  0.771243E+00  0.635102E+00  0.505925E+00  0.454286E+00  0.505925E+00  0.635102E+00
  0.771243E+00  0.863012E+00  0.912300E+00  0.937027E+00  0.949255E+00  0.954747E+00
  0.956025E+00  0.954147E+00  0.949183E+00  0.940107E+00  0.924940E+00  0.901506E+00
  0.869174E+00  0.831886E+00  0.800266E+00  0.787639E+00  0.800266E+00  0.831886E+00
  0.869174E+00  0.901506E+00  0.924940E+00  0.940107E+00  0.949183E+00  0.954147E+00
  0.956025E+00  0.954747E+00  0.949255E+00  0.937027E+00  0.912300E+00  0.863012E+00
  0.771243E+00  0.648433E+00  0.505925E+00  0.415066E+00  0.415066E+00  0.505925E+00
  0.648433E+00  0.776412E+00  0.858063E+00  0.902353E+00  0.925222E+00  0.936544E+00
  0.941053E+00  0.940864E+00  0.936757E+00  0.928375E+00  0.914279E+00  0.892673E+00
  0.862867E+00  0.827277E+00  0.793206E+00  0.771741E+00  0.771741E+00  0.793206E+00
  0.827277E+00  0.862867E+00  0.892673E+00  0.914279E+00  0.928375E+00  0.936757E+00
  0.940864E+00  0.941053E+00  0.936544E+00  0.925222E+00  0.902353E+00  0.858063E+00
  0.776412E+00  0.648433E+00  0.558353E+00  0.454286E+00  0.415066E+00  0.454286E+00
  0.558353E+00  0.684389E+00  0.786775E+00  0.851935E+00  0.888829E+00  0.908541E+00
  0.917925E+00  0.920437E+00  0.917684E+00  0.909997E+00  0.896443E+00  0.875418E+00
  0.846161E+00  0.810442E+00  0.773732E+00  0.745125E+00  0.734179E+00  0.745125E+00
  0.773732E+00  0.810442E+00  0.846161E+00  0.875418E+00  0.896443E+00  0.909997E+00
  0.917684E+00  0.920437E+00  0.917925E+00  0.908541E+00  0.888829E+00  0.851935E+00
  0.786775E+00  0.684389E+00  0.558353E+00  0.558353E+00  0.505925E+00  0.505925E+00
  0.558353E+00  0.643880E+00  0.731923E+00  0.800604E+00  0.845759E+00  0.872543E+00
  0.886724E+00  0.892051E+00  0.890613E+00  0.883345E+00  0.869890E+00  0.848811E+00
  0.819070E+00  0.781976E+00  0.742102E+00  0.707087E+00  0.686171E+00  0.686171E+00
  0.707087E+00  0.742102E+00  0.781976E+00  0.819070E+00  0.848811E+00  0.869890E+00
  0.883345E+00  0.890613E+00  0.892051E+00  0.886724E+00  0.872543E+00  0.845759E+00
  0.800604E+00  0.731923E+00  0.643880E+00  0.558353E+00  0.648433E+00  0.635102E+00
  0.648433E+00  0.684389E+00  0.731923E+00  0.778058E+00  0.814523E+00  0.839294E+00
  0.853612E+00  0.859200E+00  0.857373E+00  0.849008E+00  0.834202E+00  0.811875E+00
  0.780730E+00  0.741465E+00  0.698049E+00  0.657192E+00  0.627275E+00  0.616176E+00
  0.627275E+00  0.657192E+00  0.698049E+00  0.741465E+00  0.780730E+00  0.811875E+00
  0.834202E+00  0.849008E+00  0.857373E+00  0.859200E+00  0.853612E+00  0.839294E+00
  0.814523E+00  0.778058E+00  0.731923E+00  0.684389E+00  0.648433E+00  0.771243E+00
  0.771243E+00  0.776412E+00  0.786775E+00  0.800604E+00  0.814523E+00  0.825394E+00
  0.831330E+00  0.831390E+00  0.825123E+00  0.812443E+00  0.793306E+00  0.767015E+00
  0.732368E+00  0.689542E+00  0.641901E+00  0.595540E+00  0.557842E+00  0.536362E+00
  0.536362E+00  0.557842E+00  0.595540E+00  0.641901E+00  0.689542E+00  0.732368E+00
  0.767015E+00  0.793306E+00  0.812443E+00  0.825123E+00  0.831390E+00  0.831330E+00
  0.825394E+00  0.814523E+00  0.800604E+00  0.786775E+00  0.776412E+00  0.771243E+00
  0.864962E+00  0.863012E+00  0.858063E+00  0.851935E+00  0.845759E+00  0.839294E+00
  0.831330E+00  0.820310E+00  0.804767E+00  0.783640E+00  0.756335E+00  0.722272E+00
  0.680650E+00  0.631625E+00  0.578122E+00  0.525774E+00  0.481145E+00  0.450686E+00
  0.439792E+00  0.450686E+00  0.481145E+00  0.525774E+00  0.578122E+00  0.631625E+00
  0.680650E+00  0.722272E+00  0.756335E+00  0.783640E+00  0.804767E+00  0.820310E+00
  0.831330E+00  0.839294E+00  0.845759E+00  0.851935E+00  0.858063E+00  0.863012E+00
  0.864962E+00  0.917622E+00  0.912300E+00  0.902353E+00  0.888829E+00  0.872543E+00
  0.853612E+00  0.831390E+00  0.804767E+00  0.772632E+00  0.734199E+00  0.688982E+00
  0.636737E+00  0.578216E+00  0.516486E+00  0.456937E+00  0.405504E+00  0.367405E+00
  0.346987E+00  0.346987E+00  0.367405E+00  0.405504E+00  0.456937E+00  0.516486E+00
  0.578216E+00  0.636737E+00  0.688982E+00  0.734199E+00  0.772632E+00  0.804767E+00
  0.831390E+00  0.853612E+00  0.872543E+00  0.888829E+00  0.902353E+00  0.912300E+00
  0.917622E+00  0.917622E+00  0.944061E+00  0.937027E+00  0.925222E+00  0.908541E+00
  0.886724E+00  0.859200E+00  0.825123E+00  0.783640E+00  0.734199E+00  0.676670E+00
  0.611545E+00  0.540677E+00  0.468131E+00  0.399717E+00  0.341058E+00  0.296263E+00
  0.268136E+00  0.258533E+00  0.268136E+00  0.296263E+00  0.341058E+00  0.399717E+00
  0.468131E+00  0.540677E+00  0.611545E+00  0.676670E+00  0.734199E+00  0.783640E+00
  0.825123E+00  0.859200E+00  0.886724E+00  0.908541E+00  0.925222E+00  0.937027E+00
  0.944061E+00  0.946395E+00  0.944061E+00  0.957107E+00  0.949255E+00  0.936544E+00
  0.917925E+00  0.892051E+00  0.857373E+00  0.812443E+00  0.756335E+00  0.688982E+00
  0.611545E+00  0.527183E+00  0.441640E+00  0.362163E+00  0.294936E+00  0.243483E+00
  0.209087E+00  0.191940E+00  0.191940E+00  0.209087E+00  0.243483E+00  0.294936E+00
  0.362163E+00  0.441640E+00  0.527183E+00  0.611545E+00  0.688982E+00  0.756335E+00
  0.812443E+00  0.857373E+00  0.892051E+00  0.917925E+00  0.936544E+00  0.949255E+00
  0.957107E+00  0.960838E+00  0.960838E+00  0.957107E+00  0.963297E+00  0.954747E+00
  0.941053E+00  0.920437E+00  0.890613E+00  0.849008E+00  0.793306E+00  0.722272E+00
  0.636737E+00  0.540677E+00  0.441640E+00  0.349086E+00  0.270956E+00  0.211341E+00
  0.170709E+00  0.147533E+00  0.140055E+00  0.147533E+00  0.170709E+00  0.211341E+00
  0.270956E+00  0.349086E+00  0.441640E+00  0.540677E+00  0.636737E+00  0.722272E+00
  0.793306E+00  0.849008E+00  0.890613E+00  0.920437E+00  0.941053E+00  0.954747E+00
  0.963297E+00  0.967940E+00  0.969408E+00  0.967940E+00  0.963297E+00  0.965541E+00
  0.956025E+00  0.940864E+00  0.917684E+00  0.883345E+00  0.834202E+00  0.767015E+00
  0.680650E+00  0.578216E+00  0.468131E+00  0.362163E+00  0.270956E+00  0.200556E+00
  0.151939E+00  0.122620E+00  0.109116E+00  0.109116E+00  0.122620E+00  0.151939E+00
  0.200556E+00  0.270956E+00  0.362163E+00  0.468131E+00  0.578216E+00  0.680650E+00
  0.767015E+00  0.834202E+00  0.883345E+00  0.917684E+00  0.940864E+00  0.956025E+00
  0.965541E+00  0.971048E+00  0.973561E+00  0.973561E+00  0.971048E+00  0.965541E+00
  0.965128E+00  0.954147E+00  0.936757E+00  0.909997E+00  0.869890E+00  0.811875E+00
  0.732368E+00  0.631625E+00  0.516486E+00  0.399717E+00  0.294936E+00  0.211341E+00
  0.151939E+00  0.114642E+00  0.949373E-01  0.888698E-01  0.949373E-01  0.114642E+00
  0.151939E+00  0.211341E+00  0.294936E+00  0.399717E+00  0.516486E+00  0.631625E+00
  0.732368E+00  0.811875E+00  0.869890E+00  0.909997E+00  0.936757E+00  0.954147E+00
  0.965128E+00  0.971722E+00  0.975211E+00  0.976299E+00  0.975211E+00  0.971722E+00
  0.965128E+00  0.962421E+00  0.949183E+00  0.928375E+00  0.896443E+00  0.848811E+00
  0.780730E+00  0.689542E+00  0.578122E+00  0.456937E+00  0.341058E+00  0.243483E+00
  0.170709E+00  0.122620E+00  0.949373E-01  0.826370E-01  0.826370E-01  0.949373E-01
  0.122620E+00  0.170709E+00  0.243483E+00  0.341058E+00  0.456937E+00  0.578122E+00
  0.689542E+00  0.780730E+00  0.848811E+00  0.896443E+00  0.928375E+00  0.949183E+00
  0.962421E+00  0.970562E+00  0.975211E+00  0.977315E+00  0.977315E+00  0.975211E+00
  0.970562E+00  0.962421E+00  0.956802E+00  0.940107E+00  0.914279E+00  0.875418E+00
  0.819070E+00  0.741465E+00  0.641901E+00  0.525774E+00  0.405504E+00  0.296263E+00
  0.209087E+00  0.147533E+00  0.109116E+00  0.888698E-01  0.826370E-01  0.888698E-01
  0.109116E+00  0.147533E+00  0.209087E+00  0.296263E+00  0.405504E+00  0.525774E+00
  0.641901E+00  0.741465E+00  0.819070E+00  0.875418E+00  0.914279E+00  0.940107E+00
  0.956802E+00  0.967287E+00  0.973561E+00  0.976874E+00  0.977906E+00  0.976874E+00
  0.973561E+00  0.967287E+00  0.956802E+00  0.946565E+00  0.924940E+00  0.892673E+00
  0.846161E+00  0.781976E+00  0.698049E+00  0.595540E+00  0.481145E+00  0.367405E+00
  0.268136E+00  0.191940E+00  0.140055E+00  0.109116E+00  0.949373E-01  0.949373E-01
  0.109116E+00  0.140055E+00  0.191940E+00  0.268136E+00  0.367405E+00  0.481145E+00
  0.595540E+00  0.698049E+00  0.781976E+00  0.846161E+00  0.892673E+00  0.924940E+00
  0.946565E+00  0.960622E+00  0.969408E+00  0.974481E+00  0.976792E+00  0.976792E+00
  0.974481E+00  0.969408E+00  0.960622E+00  0.946565E+00  0.929061E+00  0.901506E+00
  0.862867E+00  0.810442E+00  0.742102E+00  0.657192E+00  0.557842E+00  0.450686E+00
  0.346987E+00  0.258533E+00  0.191940E+00  0.147533E+00  0.122620E+00  0.114642E+00
  0.122620E+00  0.147533E+00  0.191940E+00  0.258533E+00  0.346987E+00  0.450686E+00
  0.557842E+00  0.657192E+00  0.742102E+00  0.810442E+00  0.862867E+00  0.901506E+00
  0.929061E+00  0.948129E+00  0.960838E+00  0.968789E+00  0.973107E+00  0.974471E+00
  0.973107E+00  0.968789E+00  0.960838E+00  0.948129E+00  0.929061E+00  0.901455E+00
  0.869174E+00  0.827277E+00  0.773732E+00  0.707087E+00  0.627275E+00  0.536362E+00
  0.439792E+00  0.346987E+00  0.268136E+00  0.209087E+00  0.170709E+00  0.151939E+00
  0.151939E+00  0.170709E+00  0.209087E+00  0.268136E+00  0.346987E+00  0.439792E+00
  0.536362E+00  0.627275E+00  0.707087E+00  0.773732E+00  0.827277E+00  0.869174E+00
  0.901455E+00  0.925971E+00  0.944061E+00  0.956650E+00  0.964485E+00  0.968205E+00
  0.968205E+00  0.964485E+00  0.956650E+00  0.944061E+00  0.925971E+00  0.901455E+00
  0.863434E+00  0.831886E+00  0.793206E+00  0.745125E+00  0.686171E+00  0.616176E+00
  0.536362E+00  0.450686E+00  0.367405E+00  0.296263E+00  0.243483E+00  0.211341E+00
  0.200556E+00  0.211341E+00  0.243483E+00  0.296263E+00  0.367405E+00  0.450686E+00
  0.536362E+00  0.616176E+00  0.686171E+00  0.745125E+00  0.793206E+00  0.831886E+00
  0.863434E+00  0.889881E+00  0.912300E+00  0.930672E+00  0.944323E+00  0.952636E+00
  0.955406E+00  0.952636E+00  0.944323E+00  0.930672E+00  0.912300E+00  0.889881E+00
  0.863434E+00  0.822259E+00  0.800266E+00  0.771741E+00  0.734179E+00  0.686171E+00
  0.627275E+00  0.557842E+00  0.481145E+00  0.405504E+00  0.341058E+00  0.294936E+00
  0.270956E+00  0.270956E+00  0.294936E+00  0.341058E+00  0.405504E+00  0.481145E+00
  0.557842E+00  0.627275E+00  0.686171E+00  0.734179E+00  0.771741E+00  0.800266E+00
  0.822259E+00  0.840627E+00  0.858063E+00  0.876382E+00  0.895241E+00  0.911439E+00
  0.920791E+00  0.920791E+00  0.911439E+00  0.895241E+00  0.876382E+00  0.858063E+00
  0.840627E+00  0.822259E+00  0.794169E+00  0.787639E+00  0.771741E+00  0.745125E+00
  0.707087E+00  0.657192E+00  0.595540E+00  0.525774E+00  0.456937E+00  0.399717E+00
  0.362163E+00  0.349086E+00  0.362163E+00  0.399717E+00  0.456937E+00  0.525774E+00
  0.595540E+00  0.657192E+00  0.707087E+00  0.745125E+00  0.771741E+00  0.787639E+00
  0.794169E+00  0.793025E+00  0.786775E+00  0.780845E+00  0.783687E+00  0.799822E+00
  0.820760E+00  0.830327E+00  0.820760E+00  0.799822E+00  0.783687E+00  0.780845E+00
  0.786775E+00  0.793025E+00  0.794169E+00  0.794169E+00  0.800266E+00  0.793206E+00
  0.773732E+00  0.742102E+00  0.698049E+00  0.641901E+00  0.578122E+00  0.516486E+00
  0.468131E+00  0.441640E+00  0.441640E+00  0.468131E+00  0.516486E+00  0.578122E+00
  0.641901E+00  0.698049E+00  0.742102E+00  0.773732E+00  0.793206E+00  0.800266E+00
  0.794169E+00  0.772689E+00  0.731923E+00  0.671267E+00  0.604698E+00  0.562588E+00
  0.564518E+00  0.587777E+00  0.587777E+00  0.564518E+00  0.562588E+00  0.604698E+00
  0.671267E+00  0.731923E+00  0.772689E+00  0.794169E+00  0.822259E+00  0.831886E+00
  0.827277E+00  0.810442E+00  0.781976E+00  0.741465E+00  0.689542E+00  0.631625E+00
  0.578216E+00  0.540677E+00  0.527183E+00  0.540677E+00  0.578216E+00  0.631625E+00
  0.689542E+00  0.741465E+00  0.781976E+00  0.810442E+00  0.827277E+00  0.831886E+00
  0.822259E+00  0.793025E+00  0.731923E+00  0.621549E+00  0.464263E+00  0.315231E+00
  0.233054E+00  0.217212E+00  0.223792E+00  0.217212E+00  0.233054E+00  0.315231E+00
  0.464263E+00  0.621549E+00  0.731923E+00  0.793025E+00  0.822259E+00  0.863434E+00
  0.869174E+00  0.862867E+00  0.846161E+00  0.819070E+00  0.780730E+00  0.732368E+00
  0.680650E+00  0.636737E+00  0.611545E+00  0.611545E+00  0.636737E+00  0.680650E+00
  0.732368E+00  0.780730E+00  0.819070E+00  0.846161E+00  0.862867E+00  0.869174E+00
  0.863434E+00  0.840627E+00  0.786775E+00  0.671267E+00  0.464263E+00  0.229521E+00
  0.915576E-01  0.444108E-01  0.340784E-01  0.340784E-01  0.444108E-01  0.915576E-01
  0.229521E+00  0.464263E+00  0.671267E+00  0.786775E+00  0.840627E+00  0.863434E+00
  0.901455E+00  0.901506E+00  0.892673E+00  0.875418E+00  0.848811E+00  0.811875E+00
  0.767015E+00  0.722272E+00  0.688982E+00  0.676670E+00  0.688982E+00  0.722272E+00
  0.767015E+00  0.811875E+00  0.848811E+00  0.875418E+00  0.892673E+00  0.901506E+00
  0.901455E+00  0.889881E+00  0.858063E+00  0.780845E+00  0.604698E+00  0.315231E+00
  0.915576E-01  0.187832E-01  0.479589E-02  0.280581E-02  0.479589E-02  0.187832E-01
  0.915576E-01  0.315231E+00  0.604698E+00  0.780845E+00  0.858063E+00  0.889881E+00
  0.901455E+00  0.929061E+00  0.924940E+00  0.914279E+00  0.896443E+00  0.869890E+00
  0.834202E+00  0.793306E+00  0.756335E+00  0.734199E+00  0.734199E+00  0.756335E+00
  0.793306E+00  0.834202E+00  0.869890E+00  0.896443E+00  0.914279E+00  0.924940E+00
  0.929061E+00  0.925971E+00  0.912300E+00  0.876382E+00  0.783687E+00  0.562588E+00
  0.233054E+00  0.444108E-01  0.479589E-02  0.627272E-03  0.627272E-03  0.479589E-02
  0.444108E-01  0.233054E+00  0.562588E+00  0.783687E+00  0.876382E+00  0.912300E+00
  0.925971E+00  0.929061E+00  0.946565E+00  0.940107E+00  0.928375E+00  0.909997E+00
  0.883345E+00  0.849008E+00  0.812443E+00  0.783640E+00  0.772632E+00  0.783640E+00
  0.812443E+00  0.849008E+00  0.883345E+00  0.909997E+00  0.928375E+00  0.940107E+00
  0.946565E+00  0.948129E+00  0.944061E+00  0.930672E+00  0.895241E+00  0.799822E+00
  0.564518E+00  0.217212E+00  0.340784E-01  0.280581E-02  0.627272E-03  0.280581E-02
  0.340784E-01  0.217212E+00  0.564518E+00  0.799822E+00  0.895241E+00  0.930672E+00
  0.944061E+00  0.948129E+00  0.946565E+00  0.956802E+00  0.949183E+00  0.936757E+00
  0.917684E+00  0.890613E+00  0.857373E+00  0.825123E+00  0.804767E+00  0.804767E+00
  0.825123E+00  0.857373E+00  0.890613E+00  0.917684E+00  0.936757E+00  0.949183E+00
  0.956802E+00  0.960622E+00  0.960838E+00  0.956650E+00  0.944323E+00  0.911439E+00
  0.820760E+00  0.587777E+00  0.223792E+00  0.340784E-01  0.479589E-02  0.479589E-02
  0.340784E-01  0.223792E+00  0.587777E+00  0.820760E+00  0.911439E+00  0.944323E+00
  0.956650E+00  0.960838E+00  0.960622E+00  0.956802E+00  0.962421E+00  0.954147E+00
  0.940864E+00  0.920437E+00  0.892051E+00  0.859200E+00  0.831390E+00  0.820310E+00
  0.831390E+00  0.859200E+00  0.892051E+00  0.920437E+00  0.940864E+00  0.954147E+00
  0.962421E+00  0.967287E+00  0.969408E+00  0.968789E+00  0.964485E+00  0.952636E+00
  0.920791E+00  0.830327E+00  0.587777E+00  0.217212E+00  0.444108E-01  0.187832E-01
  0.444108E-01  0.217212E+00  0.587777E+00  0.830327E+00  0.920791E+00  0.952636E+00
  0.964485E+00  0.968789E+00  0.969408E+00  0.967287E+00  0.962421E+00  0.965128E+00
  0.956025E+00  0.941053E+00  0.917925E+00  0.886724E+00  0.853612E+00  0.831330E+00
  0.831330E+00  0.853612E+00  0.886724E+00  0.917925E+00  0.941053E+00  0.956025E+00
  0.965128E+00  0.970562E+00  0.973561E+00  0.974481E+00  0.973107E+00  0.968205E+00
  0.955406E+00  0.920791E+00  0.820760E+00  0.564518E+00  0.233054E+00  0.915576E-01
  0.915576E-01  0.233054E+00  0.564518E+00  0.820760E+00  0.920791E+00  0.955406E+00
  0.968205E+00  0.973107E+00  0.974481E+00  0.973561E+00  0.970562E+00  0.965128E+00
  0.965541E+00  0.954747E+00  0.936544E+00  0.908541E+00  0.872543E+00  0.839294E+00
  0.825394E+00  0.839294E+00  0.872543E+00  0.908541E+00  0.936544E+00  0.954747E+00
  0.965541E+00  0.971722E+00  0.975211E+00  0.976874E+00  0.976792E+00  0.974471E+00
  0.968205E+00  0.952636E+00  0.911439E+00  0.799822E+00  0.562588E+00  0.315231E+00
  0.229521E+00  0.315231E+00  0.562588E+00  0.799822E+00  0.911439E+00  0.952636E+00
  0.968205E+00  0.974471E+00  0.976792E+00  0.976874E+00  0.975211E+00  0.971722E+00
  0.965541E+00  0.963297E+00  0.949255E+00  0.925222E+00  0.888829E+00  0.845759E+00
  0.814523E+00  0.814523E+00  0.845759E+00  0.888829E+00  0.925222E+00  0.949255E+00
  0.963297E+00  0.971048E+00  0.975211E+00  0.977315E+00  0.977906E+00  0.976792E+00
  0.973107E+00  0.964485E+00  0.944323E+00  0.895241E+00  0.783687E+00  0.604698E+00
  0.464263E+00  0.464263E+00  0.604698E+00  0.783687E+00  0.895241E+00  0.944323E+00
  0.964485E+00  0.973107E+00  0.976792E+00  0.977906E+00  0.977315E+00  0.975211E+00
  0.971048E+00  0.963297E+00  0.957107E+00  0.937027E+00  0.902353E+00  0.851935E+00
  0.800604E+00  0.778058E+00  0.800604E+00  0.851935E+00  0.902353E+00  0.937027E+00
  0.957107E+00  0.967940E+00  0.973561E+00  0.976299E+00  0.977315E+00  0.976874E+00
  0.974481E+00  0.968789E+00  0.956650E+00  0.930672E+00  0.876382E+00  0.780845E+00
  0.671267E+00  0.621549E+00  0.671267E+00  0.780845E+00  0.876382E+00  0.930672E+00
  0.956650E+00  0.968789E+00  0.974481E+00  0.976874E+00  0.977315E+00  0.976299E+00
  0.973561E+00  0.967940E+00  0.957107E+00  0.944061E+00  0.912300E+00  0.858063E+00
  0.786775E+00  0.731923E+00  0.731923E+00  0.786775E+00  0.858063E+00  0.912300E+00
  0.944061E+00  0.960838E+00  0.969408E+00  0.973561E+00  0.975211E+00  0.975211E+00
  0.973561E+00  0.969408E+00  0.960838E+00  0.944061E+00  0.912300E+00  0.858063E+00
  0.786775E+00  0.731923E+00  0.731923E+00  0.786775E+00  0.858063E+00  0.912300E+00
  0.944061E+00  0.960838E+00  0.969408E+00  0.973561E+00  0.975211E+00  0.975211E+00
  0.973561E+00  0.969408E+00  0.960838E+00  0.944061E+00  0.917622E+00  0.863012E+00
  0.776412E+00  0.684389E+00  0.643880E+00  0.684389E+00  0.776412E+00  0.863012E+00
  0.917622E+00  0.946395E+00  0.960838E+00  0.967940E+00  0.971048E+00  0.971722E+00
  0.970562E+00  0.967287E+00  0.960622E+00  0.948129E+00  0.925971E+00  0.889881E+00
  0.840627E+00  0.793025E+00  0.772689E+00  0.793025E+00  0.840627E+00  0.889881E+00
  0.925971E+00  0.948129E+00  0.960622E+00  0.967287E+00  0.970562E+00  0.971722E+00
  0.971048E+00  0.967940E+00  0.960838E+00  0.946395E+00  0.917622E+00  0.864962E+00
  0.771243E+00  0.648433E+00  0.558353E+00  0.558353E+00  0.648433E+00  0.771243E+00
  0.864962E+00  0.917622E+00  0.944061E+00  0.957107E+00  0.963297E+00  0.965541E+00
  0.965128E+00  0.962421E+00  0.956802E+00  0.946565E+00  0.929061E+00  0.901455E+00
  0.863434E+00  0.822259E+00  0.794169E+00  0.794169E+00  0.822259E+00  0.863434E+00
  0.901455E+00  0.929061E+00  0.946565E+00  0.956802E+00  0.962421E+00  0.965128E+00
  0.965541E+00  0.963297E+00  0.957107E+00  0.944061E+00  0.917622E+00  0.864962E+00
  0.775677E+00  0.595061E+00  0.417237E+00  0.348998E+00  0.417237E+00  0.595061E+00
  0.775677E+00  0.881905E+00  0.930672E+00  0.952247E+00  0.962027E+00  0.966141E+00
  0.966889E+00  0.965128E+00  0.960896E+00  0.953239E+00  0.940147E+00  0.919071E+00
  0.888546E+00  0.851650E+00  0.819209E+00  0.806003E+00  0.819209E+00  0.851650E+00
  0.888546E+00  0.919071E+00  0.940147E+00  0.953239E+00  0.960896E+00  0.965128E+00
  0.966889E+00  0.966141E+00  0.962027E+00  0.952247E+00  0.930672E+00  0.881905E+00
  0.775677E+00  0.595061E+00  0.386134E+00  0.264971E+00  0.264971E+00  0.386134E+00
  0.595061E+00  0.776484E+00  0.876382E+00  0.922395E+00  0.943292E+00  0.952809E+00
  0.956374E+00  0.956025E+00  0.952446E+00  0.945353E+00  0.933366E+00  0.914412E+00
  0.887074E+00  0.852917E+00  0.818992E+00  0.797124E+00  0.797124E+00  0.818992E+00
  0.852917E+00  0.887074E+00  0.914412E+00  0.933366E+00  0.945353E+00  0.952446E+00
  0.956025E+00  0.956374E+00  0.952809E+00  0.943292E+00  0.922395E+00  0.876382E+00
  0.776484E+00  0.595061E+00  0.417237E+00  0.264971E+00  0.215181E+00  0.264971E+00
  0.417237E+00  0.622113E+00  0.780845E+00  0.867735E+00  0.909675E+00  0.929586E+00
  0.938539E+00  0.941053E+00  0.938876E+00  0.932440E+00  0.921000E+00  0.902860E+00
  0.876614E+00  0.843118E+00  0.807366E+00  0.778789E+00  0.767722E+00  0.778789E+00
  0.807366E+00  0.843118E+00  0.876614E+00  0.902860E+00  0.921000E+00  0.932440E+00
  0.938876E+00  0.941053E+00  0.938539E+00  0.929586E+00  0.909675E+00  0.867735E+00
  0.780845E+00  0.622113E+00  0.417237E+00  0.348998E+00  0.264971E+00  0.264971E+00
  0.348998E+00  0.504360E+00  0.671267E+00  0.790939E+00  0.858674E+00  0.893656E+00
  0.910882E+00  0.917925E+00  0.918080E+00  0.912663E+00  0.901650E+00  0.883758E+00
  0.857489E+00  0.823206E+00  0.784830E+00  0.750167E+00  0.729141E+00  0.729141E+00
  0.750167E+00  0.784830E+00  0.823206E+00  0.857489E+00  0.883758E+00  0.901650E+00
  0.912663E+00  0.918080E+00  0.917925E+00  0.910882E+00  0.893656E+00  0.858674E+00
  0.790939E+00  0.671267E+00  0.504360E+00  0.348998E+00  0.417237E+00  0.386134E+00
  0.417237E+00  0.504360E+00  0.621549E+00  0.729236E+00  0.804888E+00  0.850245E+00
  0.875029E+00  0.886724E+00  0.889340E+00  0.884808E+00  0.873792E+00  0.855590E+00
  0.828684E+00  0.792854E+00  0.751277E+00  0.710759E+00  0.680479E+00  0.669144E+00
  0.680479E+00  0.710759E+00  0.751277E+00  0.792854E+00  0.828684E+00  0.855590E+00
  0.873792E+00  0.884808E+00  0.889340E+00  0.886724E+00  0.875029E+00  0.850245E+00
  0.804888E+00  0.729236E+00  0.621549E+00  0.504360E+00  0.417237E+00  0.595061E+00
  0.595061E+00  0.622113E+00  0.671267E+00  0.729236E+00  0.780815E+00  0.818302E+00
  0.841684E+00  0.853612E+00  0.856271E+00  0.850949E+00  0.838351E+00  0.818294E+00
  0.789514E+00  0.751302E+00  0.706074E+00  0.659954E+00  0.621313E+00  0.598933E+00
  0.598933E+00  0.621313E+00  0.659954E+00  0.706074E+00  0.751302E+00  0.789514E+00
  0.818294E+00  0.838351E+00  0.850949E+00  0.856271E+00  0.853612E+00  0.841684E+00
  0.818302E+00  0.780815E+00  0.729236E+00  0.671267E+00  0.622113E+00  0.595061E+00
  0.775677E+00  0.776484E+00  0.780845E+00  0.790939E+00  0.804888E+00  0.818302E+00
  0.827691E+00  0.831330E+00  0.828396E+00  0.818380E+00  0.801078E+00  0.776261E+00
  0.743026E+00  0.700534E+00  0.650538E+00  0.598611E+00  0.552474E+00  0.520146E+00
  0.508428E+00  0.520146E+00  0.552474E+00  0.598611E+00  0.650538E+00  0.700534E+00
  0.743026E+00  0.776261E+00  0.801078E+00  0.818380E+00  0.828396E+00  0.831330E+00
  0.827691E+00  0.818302E+00  0.804888E+00  0.790939E+00  0.780845E+00  0.776484E+00
  0.775677E+00  0.881905E+00  0.876382E+00  0.867735E+00  0.858674E+00  0.850245E+00
  0.841684E+00  0.831330E+00  0.817315E+00  0.797929E+00  0.771957E+00  0.738712E+00
  0.697512E+00  0.647787E+00  0.591005E+00  0.532288E+00  0.478920E+00  0.437967E+00
  0.415512E+00  0.415512E+00  0.437967E+00  0.478920E+00  0.532288E+00  0.591005E+00
  0.647787E+00  0.697512E+00  0.738712E+00  0.771957E+00  0.797929E+00  0.817315E+00
  0.831330E+00  0.841684E+00  0.850245E+00  0.858674E+00  0.867735E+00  0.876382E+00
  0.881905E+00  0.881905E+00  0.930672E+00  0.922395E+00  0.909675E+00  0.893656E+00
  0.875029E+00  0.853612E+00  0.828396E+00  0.797929E+00  0.760865E+00  0.716350E+00
  0.663959E+00  0.603784E+00  0.537707E+00  0.470762E+00  0.409915E+00  0.361393E+00
  0.329933E+00  0.318989E+00  0.329933E+00  0.361393E+00  0.409915E+00  0.470762E+00
  0.537707E+00  0.603784E+00  0.663959E+00  0.716350E+00  0.760865E+00  0.797929E+00
  0.828396E+00  0.853612E+00  0.875029E+00  0.893656E+00  0.909675E+00  0.922395E+00
  0.930672E+00  0.933549E+00  0.930672E+00  0.952247E+00  0.943292E+00  0.929586E+00
  0.910882E+00  0.886724E+00  0.856271E+00  0.818380E+00  0.771957E+00  0.716350E+00
  0.651578E+00  0.578695E+00  0.500785E+00  0.423688E+00  0.354538E+00  0.298971E+00
  0.260280E+00  0.240401E+00  0.240401E+00  0.260280E+00  0.298971E+00  0.354538E+00
  0.423688E+00  0.500785E+00  0.578695E+00  0.651578E+00  0.716350E+00  0.771957E+00
  0.818380E+00  0.856271E+00  0.886724E+00  0.910882E+00  0.929586E+00  0.943292E+00
  0.952247E+00  0.956650E+00  0.956650E+00  0.952247E+00  0.962027E+00  0.952809E+00
  0.938539E+00  0.917925E+00  0.889340E+00  0.850949E+00  0.801078E+00  0.738712E+00
  0.663959E+00  0.578695E+00  0.487565E+00  0.398166E+00  0.318864E+00  0.255519E+00
  0.210423E+00  0.183687E+00  0.174852E+00  0.183687E+00  0.210423E+00  0.255519E+00
  0.318864E+00  0.398166E+00  0.487565E+00  0.578695E+00  0.663959E+00  0.738712E+00
  0.801078E+00  0.850949E+00  0.889340E+00  0.917925E+00  0.938539E+00  0.952809E+00
  0.962027E+00  0.967152E+00  0.968789E+00  0.967152E+00  0.962027E+00  0.966141E+00
  0.956374E+00  0.941053E+00  0.918080E+00  0.884808E+00  0.838351E+00  0.776261E+00
  0.697512E+00  0.603784E+00  0.500785E+00  0.398166E+00  0.306530E+00  0.233257E+00
  0.180788E+00  0.147952E+00  0.132372E+00  0.132372E+00  0.147952E+00  0.180788E+00
  0.233257E+00  0.306530E+00  0.398166E+00  0.500785E+00  0.603784E+00  0.697512E+00
  0.776261E+00  0.838351E+00  0.884808E+00  0.918080E+00  0.941053E+00  0.956374E+00
  0.966141E+00  0.971857E+00  0.974481E+00  0.974481E+00  0.971857E+00  0.966141E+00
  0.966889E+00  0.956025E+00  0.938876E+00  0.912663E+00  0.873792E+00  0.818294E+00
  0.743026E+00  0.647787E+00  0.537707E+00  0.423688E+00  0.318864E+00  0.233257E+00
  0.170971E+00  0.130867E+00  0.109179E+00  0.102404E+00  0.109179E+00  0.130867E+00
  0.170971E+00  0.233257E+00  0.318864E+00  0.423688E+00  0.537707E+00  0.647787E+00
  0.743026E+00  0.818294E+00  0.873792E+00  0.912663E+00  0.938876E+00  0.956025E+00
  0.966889E+00  0.973419E+00  0.976874E+00  0.977951E+00  0.976874E+00  0.973419E+00
  0.966889E+00  0.965128E+00  0.952446E+00  0.932440E+00  0.901650E+00  0.855590E+00
  0.789514E+00  0.700534E+00  0.591005E+00  0.470762E+00  0.354538E+00  0.255519E+00
  0.180788E+00  0.130867E+00  0.101879E+00  0.889275E-01  0.889275E-01  0.101879E+00
  0.130867E+00  0.180788E+00  0.255519E+00  0.354538E+00  0.470762E+00  0.591005E+00
  0.700534E+00  0.789514E+00  0.855590E+00  0.901650E+00  0.932440E+00  0.952446E+00
  0.965128E+00  0.972897E+00  0.977315E+00  0.979310E+00  0.979310E+00  0.977315E+00
  0.972897E+00  0.965128E+00  0.960896E+00  0.945353E+00  0.921000E+00  0.883758E+00
  0.828684E+00  0.751302E+00  0.650538E+00  0.532288E+00  0.409915E+00  0.298971E+00
  0.210423E+00  0.147952E+00  0.109179E+00  0.889275E-01  0.827351E-01  0.889275E-01
  0.109179E+00  0.147952E+00  0.210423E+00  0.298971E+00  0.409915E+00  0.532288E+00
  0.650538E+00  0.751302E+00  0.828684E+00  0.883758E+00  0.921000E+00  0.945353E+00
  0.960896E+00  0.970562E+00  0.976299E+00  0.979310E+00  0.980246E+00  0.979310E+00
  0.976299E+00  0.970562E+00  0.960896E+00  0.953239E+00  0.933366E+00  0.902860E+00
  0.857489E+00  0.792854E+00  0.706074E+00  0.598611E+00  0.478920E+00  0.361393E+00
  0.260280E+00  0.183687E+00  0.132372E+00  0.102404E+00  0.889275E-01  0.889275E-01
  0.102404E+00  0.132372E+00  0.183687E+00  0.260280E+00  0.361393E+00  0.478920E+00
  0.598611E+00  0.706074E+00  0.792854E+00  0.857489E+00  0.902860E+00  0.933366E+00
  0.953239E+00  0.965842E+00  0.973561E+00  0.977951E+00  0.979933E+00  0.979933E+00
  0.977951E+00  0.973561E+00  0.965842E+00  0.953239E+00  0.940147E+00  0.914412E+00
  0.876614E+00  0.823206E+00  0.751277E+00  0.659954E+00  0.552474E+00  0.437967E+00
  0.329933E+00  0.240401E+00  0.174852E+00  0.132372E+00  0.109179E+00  0.101879E+00
  0.109179E+00  0.132372E+00  0.174852E+00  0.240401E+00  0.329933E+00  0.437967E+00
  0.552474E+00  0.659954E+00  0.751277E+00  0.823206E+00  0.876614E+00  0.914412E+00
  0.940147E+00  0.957117E+00  0.967940E+00  0.974481E+00  0.977953E+00  0.979037E+00
  0.977953E+00  0.974481E+00  0.967940E+00  0.957117E+00  0.940147E+00  0.919071E+00
  0.887074E+00  0.843118E+00  0.784830E+00  0.710759E+00  0.621313E+00  0.520146E+00
  0.415512E+00  0.318989E+00  0.240401E+00  0.183687E+00  0.147952E+00  0.130867E+00
  0.130867E+00  0.147952E+00  0.183687E+00  0.240401E+00  0.318989E+00  0.415512E+00
  0.520146E+00  0.621313E+00  0.710759E+00  0.784830E+00  0.843118E+00  0.887074E+00
  0.919071E+00  0.941667E+00  0.957107E+00  0.967152E+00  0.973107E+00  0.975858E+00
  0.975858E+00  0.973107E+00  0.967152E+00  0.957107E+00  0.941667E+00  0.919071E+00
  0.888546E+00  0.852917E+00  0.807366E+00  0.750167E+00  0.680479E+00  0.598933E+00
  0.508428E+00  0.415512E+00  0.329933E+00  0.260280E+00  0.210423E+00  0.180788E+00
  0.170971E+00  0.180788E+00  0.210423E+00  0.260280E+00  0.329933E+00  0.415512E+00
  0.508428E+00  0.598933E+00  0.680479E+00  0.750167E+00  0.807366E+00  0.852917E+00
  0.888546E+00  0.916105E+00  0.937027E+00  0.952247E+00  0.962435E+00  0.968205E+00
  0.970060E+00  0.968205E+00  0.962435E+00  0.952247E+00  0.937027E+00  0.916105E+00
  0.888546E+00  0.851650E+00  0.818992E+00  0.778789E+00  0.729141E+00  0.669144E+00
  0.598933E+00  0.520146E+00  0.437967E+00  0.361393E+00  0.298971E+00  0.255519E+00
  0.233257E+00  0.233257E+00  0.255519E+00  0.298971E+00  0.361393E+00  0.437967E+00
  0.520146E+00  0.598933E+00  0.669144E+00  0.729141E+00  0.778789E+00  0.818992E+00
  0.851650E+00  0.878923E+00  0.902353E+00  0.922395E+00  0.938496E+00  0.949711E+00
  0.955406E+00  0.955406E+00  0.949711E+00  0.938496E+00  0.922395E+00  0.902353E+00
  0.878923E+00  0.851650E+00  0.819209E+00  0.797124E+00  0.767722E+00  0.729141E+00
  0.680479E+00  0.621313E+00  0.552474E+00  0.478920E+00  0.409915E+00  0.354538E+00
  0.318864E+00  0.306530E+00  0.318864E+00  0.354538E+00  0.409915E+00  0.478920E+00
  0.552474E+00  0.621313E+00  0.680479E+00  0.729141E+00  0.767722E+00  0.797124E+00
  0.819209E+00  0.836570E+00  0.851935E+00  0.867735E+00  0.885164E+00  0.902628E+00
  0.915868E+00  0.920791E+00  0.915868E+00  0.902628E+00  0.885164E+00  0.867735E+00
  0.851935E+00  0.836570E+00  0.819209E+00  0.806003E+00  0.797124E+00  0.778789E+00
  0.750167E+00  0.710759E+00  0.659954E+00  0.598611E+00  0.532288E+00  0.470762E+00
  0.423688E+00  0.398166E+00  0.398166E+00  0.423688E+00  0.470762E+00  0.532288E+00
  0.598611E+00  0.659954E+00  0.710759E+00  0.750167E+00  0.778789E+00  0.797124E+00
  0.806003E+00  0.806658E+00  0.800604E+00  0.790939E+00  0.784361E+00  0.789090E+00
  0.805505E+00  0.820760E+00  0.820760E+00  0.805505E+00  0.789090E+00  0.784361E+00
  0.790939E+00  0.800604E+00  0.806658E+00  0.806003E+00  0.819209E+00  0.818992E+00
  0.807366E+00  0.784830E+00  0.751277E+00  0.706074E+00  0.650538E+00  0.591005E+00
  0.537707E+00  0.500785E+00  0.487565E+00  0.500785E+00  0.537707E+00  0.591005E+00
  0.650538E+00  0.706074E+00  0.751277E+00  0.784830E+00  0.807366E+00  0.818992E+00
  0.819209E+00  0.806658E+00  0.778058E+00  0.729236E+00  0.662448E+00  0.596986E+00
  0.562078E+00  0.564518E+00  0.573444E+00  0.564518E+00  0.562078E+00  0.596986E+00
  0.662448E+00  0.729236E+00  0.778058E+00  0.806658E+00  0.819209E+00  0.851650E+00
  0.852917E+00  0.843118E+00  0.823206E+00  0.792854E+00  0.751302E+00  0.700534E+00
  0.647787E+00  0.603784E+00  0.578695E+00  0.578695E+00  0.603784E+00  0.647787E+00
  0.700534E+00  0.751302E+00  0.792854E+00  0.823206E+00  0.843118E+00  0.852917E+00
  0.851650E+00  0.836570E+00  0.800604E+00  0.729236E+00  0.606031E+00  0.443838E+00
  0.304696E+00  0.233054E+00  0.214687E+00  0.214687E+00  0.233054E+00  0.304696E+00
  0.443838E+00  0.606031E+00  0.729236E+00  0.800604E+00  0.836570E+00  0.851650E+00
  0.888546E+00  0.887074E+00  0.876614E+00  0.857489E+00  0.828684E+00  0.789514E+00
  0.743026E+00  0.697512E+00  0.663959E+00  0.651578E+00  0.663959E+00  0.697512E+00
  0.743026E+00  0.789514E+00  0.828684E+00  0.857489E+00  0.876614E+00  0.887074E+00
  0.888546E+00  0.878923E+00  0.851935E+00  0.790939E+00  0.662448E+00  0.443838E+00
  0.216884E+00  0.915576E-01  0.482593E-01  0.390039E-01  0.482593E-01  0.915576E-01
  0.216884E+00  0.443838E+00  0.662448E+00  0.790939E+00  0.851935E+00  0.878923E+00
  0.888546E+00  0.919071E+00  0.914412E+00  0.902860E+00  0.883758E+00  0.855590E+00
  0.818294E+00  0.776261E+00  0.738712E+00  0.716350E+00  0.716350E+00  0.738712E+00
  0.776261E+00  0.818294E+00  0.855590E+00  0.883758E+00  0.902860E+00  0.914412E+00
  0.919071E+00  0.916105E+00  0.902353E+00  0.867735E+00  0.784361E+00  0.596986E+00
  0.304696E+00  0.915576E-01  0.219171E-01  0.778269E-02  0.778269E-02  0.219171E-01
  0.915576E-01  0.304696E+00  0.596986E+00  0.784361E+00  0.867735E+00  0.902353E+00
  0.916105E+00  0.919071E+00  0.940147E+00  0.933366E+00  0.921000E+00  0.901650E+00
  0.873792E+00  0.838351E+00  0.801078E+00  0.771957E+00  0.760865E+00  0.771957E+00
  0.801078E+00  0.838351E+00  0.873792E+00  0.901650E+00  0.921000E+00  0.933366E+00
  0.940147E+00  0.941667E+00  0.937027E+00  0.922395E+00  0.885164E+00  0.789090E+00
  0.562078E+00  0.233054E+00  0.482593E-01  0.778269E-02  0.309728E-02  0.778269E-02
  0.482593E-01  0.233054E+00  0.562078E+00  0.789090E+00  0.885164E+00  0.922395E+00
  0.937027E+00  0.941667E+00  0.940147E+00  0.953239E+00  0.945353E+00  0.932440E+00
  0.912663E+00  0.884808E+00  0.850949E+00  0.818380E+00  0.797929E+00  0.797929E+00
  0.818380E+00  0.850949E+00  0.884808E+00  0.912663E+00  0.932440E+00  0.945353E+00
  0.953239E+00  0.957117E+00  0.957107E+00  0.952247E+00  0.938496E+00  0.902628E+00
  0.805505E+00  0.564518E+00  0.214687E+00  0.390039E-01  0.778269E-02  0.778269E-02
  0.390039E-01  0.214687E+00  0.564518E+00  0.805505E+00  0.902628E+00  0.938496E+00
  0.952247E+00  0.957107E+00  0.957117E+00  0.953239E+00  0.960896E+00  0.952446E+00
  0.938876E+00  0.918080E+00  0.889340E+00  0.856271E+00  0.828396E+00  0.817315E+00
  0.828396E+00  0.856271E+00  0.889340E+00  0.918080E+00  0.938876E+00  0.952446E+00
  0.960896E+00  0.965842E+00  0.967940E+00  0.967152E+00  0.962435E+00  0.949711E+00
  0.915868E+00  0.820760E+00  0.573444E+00  0.214687E+00  0.482593E-01  0.219171E-01
  0.482593E-01  0.214687E+00  0.573444E+00  0.820760E+00  0.915868E+00  0.949711E+00
  0.962435E+00  0.967152E+00  0.967940E+00  0.965842E+00  0.960896E+00  0.965128E+00
  0.956025E+00  0.941053E+00  0.917925E+00  0.886724E+00  0.853612E+00  0.831330E+00
  0.831330E+00  0.853612E+00  0.886724E+00  0.917925E+00  0.941053E+00  0.956025E+00
  0.965128E+00  0.970562E+00  0.973561E+00  0.974481E+00  0.973107E+00  0.968205E+00
  0.955406E+00  0.920791E+00  0.820760E+00  0.564518E+00  0.233054E+00  0.915576E-01
  0.915576E-01  0.233054E+00  0.564518E+00  0.820760E+00  0.920791E+00  0.955406E+00
  0.968205E+00  0.973107E+00  0.974481E+00  0.973561E+00  0.970562E+00  0.965128E+00
  0.966889E+00  0.956374E+00  0.938539E+00  0.910882E+00  0.875029E+00  0.841684E+00
  0.827691E+00  0.841684E+00  0.875029E+00  0.910882E+00  0.938539E+00  0.956374E+00
  0.966889E+00  0.972897E+00  0.976299E+00  0.977951E+00  0.977953E+00  0.975858E+00
  0.970060E+00  0.955406E+00  0.915868E+00  0.805505E+00  0.562078E+00  0.304696E+00
  0.216884E+00  0.304696E+00  0.562078E+00  0.805505E+00  0.915868E+00  0.955406E+00
  0.970060E+00  0.975858E+00  0.977953E+00  0.977951E+00  0.976299E+00  0.972897E+00
  0.966889E+00  0.966141E+00  0.952809E+00  0.929586E+00  0.893656E+00  0.850245E+00
  0.818302E+00  0.818302E+00  0.850245E+00  0.893656E+00  0.929586E+00  0.952809E+00
  0.966141E+00  0.973419E+00  0.977315E+00  0.979310E+00  0.979933E+00  0.979037E+00
  0.975858E+00  0.968205E+00  0.949711E+00  0.902628E+00  0.789090E+00  0.596986E+00
  0.443838E+00  0.443838E+00  0.596986E+00  0.789090E+00  0.902628E+00  0.949711E+00
  0.968205E+00  0.975858E+00  0.979037E+00  0.979933E+00  0.979310E+00  0.977315E+00
  0.973419E+00  0.966141E+00  0.962027E+00  0.943292E+00  0.909675E+00  0.858674E+00
  0.804888E+00  0.780815E+00  0.804888E+00  0.858674E+00  0.909675E+00  0.943292E+00
  0.962027E+00  0.971857E+00  0.976874E+00  0.979310E+00  0.980246E+00  0.979933E+00
  0.977953E+00  0.973107E+00  0.962435E+00  0.938496E+00  0.885164E+00  0.784361E+00
  0.662448E+00  0.606031E+00  0.662448E+00  0.784361E+00  0.885164E+00  0.938496E+00
  0.962435E+00  0.973107E+00  0.977953E+00  0.979933E+00  0.980246E+00  0.979310E+00
  0.976874E+00  0.971857E+00  0.962027E+00  0.952247E+00  0.922395E+00  0.867735E+00
  0.790939E+00  0.729236E+00  0.729236E+00  0.790939E+00  0.867735E+00  0.922395E+00
  0.952247E+00  0.967152E+00  0.974481E+00  0.977951E+00  0.979310E+00  0.979310E+00
  0.977951E+00  0.974481E+00  0.967152E+00  0.952247E+00  0.922395E+00  0.867735E+00
  0.790939E+00  0.729236E+00  0.729236E+00  0.790939E+00  0.867735E+00  0.922395E+00
  0.952247E+00  0.967152E+00  0.974481E+00  0.977951E+00  0.979310E+00  0.979310E+00
  0.977951E+00  0.974481E+00  0.967152E+00  0.952247E+00  0.930672E+00  0.876382E+00
  0.780845E+00  0.671267E+00  0.621549E+00  0.671267E+00  0.780845E+00  0.876382E+00
  0.930672E+00  0.956650E+00  0.968789E+00  0.974481E+00  0.976874E+00  0.977315E+00
  0.976299E+00  0.973561E+00  0.967940E+00  0.957107E+00  0.937027E+00  0.902353E+00
  0.851935E+00  0.800604E+00  0.778058E+00  0.800604E+00  0.851935E+00  0.902353E+00
  0.937027E+00  0.957107E+00  0.967940E+00  0.973561E+00  0.976299E+00  0.977315E+00
  0.976874E+00  0.974481E+00  0.968789E+00  0.956650E+00  0.930672E+00  0.881905E+00
  0.776484E+00  0.622113E+00  0.504360E+00  0.504360E+00  0.622113E+00  0.776484E+00
  0.881905E+00  0.933549E+00  0.956650E+00  0.967152E+00  0.971857E+00  0.973419E+00
  0.972897E+00  0.970562E+00  0.965842E+00  0.957117E+00  0.941667E+00  0.916105E+00
  0.878923E+00  0.836570E+00  0.806658E+00  0.806658E+00  0.836570E+00  0.878923E+00
  0.916105E+00  0.941667E+00  0.957117E+00  0.965842E+00  0.970562E+00  0.972897E+00
  0.973419E+00  0.971857E+00  0.967152E+00  0.956650E+00  0.933549E+00  0.881905E+00
  0.775677E+00  0.595061E+00  0.417237E+00  0.348998E+00  0.417237E+00  0.595061E+00
  0.775677E+00  0.881905E+00  0.930672E+00  0.952247E+00  0.962027E+00  0.966141E+00
  0.966889E+00  0.965128E+00  0.960896E+00  0.953239E+00  0.940147E+00  0.919071E+00
  0.888546E+00  0.851650E+00  0.819209E+00  0.806003E+00  0.819209E+00  0.851650E+00
  0.888546E+00  0.919071E+00  0.940147E+00  0.953239E+00  0.960896E+00  0.965128E+00
  0.966889E+00  0.966141E+00  0.962027E+00  0.952247E+00  0.930672E+00  0.881905E+00
  0.775677E+00  0.560227E+00  0.294237E+00  0.160773E+00  0.160773E+00  0.294237E+00
  0.560227E+00  0.786933E+00  0.895241E+00  0.938496E+00  0.956151E+00  0.963591E+00
  0.966141E+00  0.965541E+00  0.962277E+00  0.956052E+00  0.945554E+00  0.928605E+00
  0.903309E+00  0.870516E+00  0.836916E+00  0.814823E+00  0.814823E+00  0.836916E+00
  0.870516E+00  0.903309E+00  0.928605E+00  0.945554E+00  0.956052E+00  0.962277E+00
  0.965541E+00  0.966141E+00  0.963591E+00  0.956151E+00  0.938496E+00  0.895241E+00
  0.786933E+00  0.560227E+00  0.294237E+00  0.128976E+00  0.871439E-01  0.128976E+00
  0.294237E+00  0.570338E+00  0.783687E+00  0.885164E+00  0.927398E+00  0.945318E+00
  0.952809E+00  0.954747E+00  0.952720E+00  0.947056E+00  0.937092E+00  0.921142E+00
  0.897403E+00  0.865986E+00  0.831331E+00  0.803000E+00  0.791909E+00  0.803000E+00
  0.831331E+00  0.865986E+00  0.897403E+00  0.921142E+00  0.937092E+00  0.947056E+00
  0.952720E+00  0.954747E+00  0.952809E+00  0.945318E+00  0.927398E+00  0.885164E+00
  0.783687E+00  0.570338E+00  0.294237E+00  0.160773E+00  0.871439E-01  0.871439E-01
  0.160773E+00  0.350933E+00  0.604698E+00  0.784361E+00  0.872717E+00  0.912087E+00
  0.929586E+00  0.936544E+00  0.937093E+00  0.932611E+00  0.923166E+00  0.907619E+00
  0.884243E+00  0.852646E+00  0.816017E+00  0.782080E+00  0.761216E+00  0.761216E+00
  0.782080E+00  0.816017E+00  0.852646E+00  0.884243E+00  0.907619E+00  0.923166E+00
  0.932611E+00  0.937093E+00  0.936544E+00  0.929586E+00  0.912087E+00  0.872717E+00
  0.784361E+00  0.604698E+00  0.350933E+00  0.160773E+00  0.160773E+00  0.128976E+00
  0.160773E+00  0.271466E+00  0.464263E+00  0.662448E+00  0.793016E+00  0.860913E+00
  0.893656E+00  0.908541E+00  0.913231E+00  0.910708E+00  0.901961E+00  0.886582E+00
  0.863052E+00  0.830485E+00  0.791153E+00  0.751624E+00  0.721570E+00  0.710244E+00
  0.721570E+00  0.751624E+00  0.791153E+00  0.830485E+00  0.863052E+00  0.886582E+00
  0.901961E+00  0.910708E+00  0.913231E+00  0.908541E+00  0.893656E+00  0.860913E+00
  0.793016E+00  0.662448E+00  0.464263E+00  0.271466E+00  0.160773E+00  0.294237E+00
  0.294237E+00  0.350933E+00  0.464263E+00  0.606031E+00  0.727435E+00  0.806267E+00
  0.850245E+00  0.872543E+00  0.881476E+00  0.880931E+00  0.872569E+00  0.856730E+00
  0.832397E+00  0.798359E+00  0.755998E+00  0.710989E+00  0.672303E+00  0.649635E+00
  0.649635E+00  0.672303E+00  0.710989E+00  0.755998E+00  0.798359E+00  0.832397E+00
  0.856730E+00  0.872569E+00  0.880931E+00  0.881476E+00  0.872543E+00  0.850245E+00
  0.806267E+00  0.727435E+00  0.606031E+00  0.464263E+00  0.350933E+00  0.294237E+00
  0.560227E+00  0.570338E+00  0.604698E+00  0.662448E+00  0.727435E+00  0.781645E+00
  0.818302E+00  0.839294E+00  0.848185E+00  0.847231E+00  0.837532E+00  0.819558E+00
  0.792806E+00  0.756099E+00  0.710083E+00  0.659629E+00  0.613075E+00  0.579769E+00
  0.567592E+00  0.579769E+00  0.613075E+00  0.659629E+00  0.710083E+00  0.756099E+00
  0.792806E+00  0.819558E+00  0.837532E+00  0.847231E+00  0.848185E+00  0.839294E+00
  0.818302E+00  0.781645E+00  0.727435E+00  0.662448E+00  0.604698E+00  0.570338E+00
  0.560227E+00  0.786933E+00  0.783687E+00  0.784361E+00  0.793016E+00  0.806267E+00
  0.818302E+00  0.825394E+00  0.825964E+00  0.819169E+00  0.804365E+00  0.781224E+00
  0.749298E+00  0.707624E+00  0.656429E+00  0.599900E+00  0.545913E+00  0.503166E+00
  0.479330E+00  0.479330E+00  0.503166E+00  0.545913E+00  0.599900E+00  0.656429E+00
  0.707624E+00  0.749298E+00  0.781224E+00  0.804365E+00  0.819169E+00  0.825964E+00
  0.825394E+00  0.818302E+00  0.806267E+00  0.793016E+00  0.784361E+00  0.783687E+00
  0.786933E+00  0.786933E+00  0.895241E+00  0.885164E+00  0.872717E+00  0.860913E+00
  0.850245E+00  0.839294E+00  0.825964E+00  0.808082E+00  0.783730E+00  0.751638E+00
  0.711089E+00  0.661396E+00  0.602790E+00  0.538975E+00  0.477448E+00  0.426352E+00
  0.392362E+00  0.380383E+00  0.392362E+00  0.426352E+00  0.477448E+00  0.538975E+00
  0.602790E+00  0.661396E+00  0.711089E+00  0.751638E+00  0.783730E+00  0.808082E+00
  0.825964E+00  0.839294E+00  0.850245E+00  0.860913E+00  0.872717E+00  0.885164E+00
  0.895241E+00  0.899163E+00  0.895241E+00  0.938496E+00  0.927398E+00  0.912087E+00
  0.893656E+00  0.872543E+00  0.848185E+00  0.819169E+00  0.783730E+00  0.740424E+00
  0.688497E+00  0.627760E+00  0.559099E+00  0.486359E+00  0.416815E+00  0.358140E+00
  0.315838E+00  0.293597E+00  0.293597E+00  0.315838E+00  0.358140E+00  0.416815E+00
  0.486359E+00  0.559099E+00  0.627760E+00  0.688497E+00  0.740424E+00  0.783730E+00
  0.819169E+00  0.848185E+00  0.872543E+00  0.893656E+00  0.912087E+00  0.927398E+00
  0.938496E+00  0.944323E+00  0.944323E+00  0.938496E+00  0.956151E+00  0.945318E+00
  0.929586E+00  0.908541E+00  0.881476E+00  0.847231E+00  0.804365E+00  0.751638E+00
  0.688497E+00  0.615394E+00  0.534423E+00  0.450587E+00  0.371730E+00  0.305439E+00
  0.256219E+00  0.226036E+00  0.215859E+00  0.226036E+00  0.256219E+00  0.305439E+00
  0.371730E+00  0.450587E+00  0.534423E+00  0.615394E+00  0.688497E+00  0.751638E+00
  0.804365E+00  0.847231E+00  0.881476E+00  0.908541E+00  0.929586E+00  0.945318E+00
  0.956151E+00  0.962435E+00  0.964485E+00  0.962435E+00  0.956151E+00  0.963591E+00
  0.952809E+00  0.936544E+00  0.913231E+00  0.880931E+00  0.837532E+00  0.781224E+00
  0.711089E+00  0.627760E+00  0.534423E+00  0.437862E+00  0.347614E+00  0.272232E+00
  0.216013E+00  0.179438E+00  0.161543E+00  0.161543E+00  0.179438E+00  0.216013E+00
  0.272232E+00  0.347614E+00  0.437862E+00  0.534423E+00  0.627760E+00  0.711089E+00
  0.781224E+00  0.837532E+00  0.880931E+00  0.913231E+00  0.936544E+00  0.952809E+00
  0.963591E+00  0.970080E+00  0.973107E+00  0.973107E+00  0.970080E+00  0.963591E+00
  0.966141E+00  0.954747E+00  0.937093E+00  0.910708E+00  0.872569E+00  0.819558E+00
  0.749298E+00  0.661396E+00  0.559099E+00  0.450587E+00  0.347614E+00  0.260869E+00
  0.195821E+00  0.152551E+00  0.128399E+00  0.120701E+00  0.128399E+00  0.152551E+00
  0.195821E+00  0.260869E+00  0.347614E+00  0.450587E+00  0.559099E+00  0.661396E+00
  0.749298E+00  0.819558E+00  0.872569E+00  0.910708E+00  0.937093E+00  0.954747E+00
  0.966141E+00  0.973086E+00  0.976792E+00  0.977953E+00  0.976792E+00  0.973086E+00
  0.966141E+00  0.965541E+00  0.952720E+00  0.932611E+00  0.901961E+00  0.856730E+00
  0.792806E+00  0.707624E+00  0.602790E+00  0.486359E+00  0.371730E+00  0.272232E+00
  0.195821E+00  0.143800E+00  0.112959E+00  0.989401E-01  0.989401E-01  0.112959E+00
  0.143800E+00  0.195821E+00  0.272232E+00  0.371730E+00  0.486359E+00  0.602790E+00
  0.707624E+00  0.792806E+00  0.856730E+00  0.901961E+00  0.932611E+00  0.952720E+00
  0.965541E+00  0.973419E+00  0.977906E+00  0.979933E+00  0.979933E+00  0.977906E+00
  0.973419E+00  0.965541E+00  0.962277E+00  0.947056E+00  0.923166E+00  0.886582E+00
  0.832397E+00  0.756099E+00  0.656429E+00  0.538975E+00  0.416815E+00  0.305439E+00
  0.216013E+00  0.152551E+00  0.112959E+00  0.922012E-01  0.858413E-01  0.922012E-01
  0.112959E+00  0.152551E+00  0.216013E+00  0.305439E+00  0.416815E+00  0.538975E+00
  0.656429E+00  0.756099E+00  0.832397E+00  0.886582E+00  0.923166E+00  0.947056E+00
  0.962277E+00  0.971722E+00  0.977315E+00  0.980246E+00  0.981155E+00  0.980246E+00
  0.977315E+00  0.971722E+00  0.962277E+00  0.956052E+00  0.937092E+00  0.907619E+00
  0.863052E+00  0.798359E+00  0.710083E+00  0.599900E+00  0.477448E+00  0.358140E+00
  0.256219E+00  0.179438E+00  0.128399E+00  0.989401E-01  0.858413E-01  0.858413E-01
  0.989401E-01  0.128399E+00  0.179438E+00  0.256219E+00  0.358140E+00  0.477448E+00
  0.599900E+00  0.710083E+00  0.798359E+00  0.863052E+00  0.907619E+00  0.937092E+00
  0.956052E+00  0.967966E+00  0.975211E+00  0.979310E+00  0.981155E+00  0.981155E+00
  0.979310E+00  0.975211E+00  0.967966E+00  0.956052E+00  0.945554E+00  0.921142E+00
  0.884243E+00  0.830485E+00  0.755998E+00  0.659629E+00  0.545913E+00  0.426352E+00
  0.315838E+00  0.226036E+00  0.161543E+00  0.120701E+00  0.989401E-01  0.922012E-01
  0.989401E-01  0.120701E+00  0.161543E+00  0.226036E+00  0.315838E+00  0.426352E+00
  0.545913E+00  0.659629E+00  0.755998E+00  0.830485E+00  0.884243E+00  0.921142E+00
  0.945554E+00  0.961250E+00  0.971048E+00  0.976874E+00  0.979933E+00  0.980884E+00
  0.979933E+00  0.976874E+00  0.971048E+00  0.961250E+00  0.945554E+00  0.928605E+00
  0.897403E+00  0.852646E+00  0.791153E+00  0.710989E+00  0.613075E+00  0.503166E+00
  0.392362E+00  0.293597E+00  0.215859E+00  0.161543E+00  0.128399E+00  0.112959E+00
  0.112959E+00  0.128399E+00  0.161543E+00  0.215859E+00  0.293597E+00  0.392362E+00
  0.503166E+00  0.613075E+00  0.710989E+00  0.791153E+00  0.852646E+00  0.897403E+00
  0.928605E+00  0.949607E+00  0.963297E+00  0.971857E+00  0.976792E+00  0.979037E+00
  0.979037E+00  0.976792E+00  0.971857E+00  0.963297E+00  0.949607E+00  0.928605E+00
  0.903309E+00  0.865986E+00  0.816017E+00  0.751624E+00  0.672303E+00  0.579769E+00
  0.479330E+00  0.380383E+00  0.293597E+00  0.226036E+00  0.179438E+00  0.152551E+00
  0.143800E+00  0.152551E+00  0.179438E+00  0.226036E+00  0.293597E+00  0.380383E+00
  0.479330E+00  0.579769E+00  0.672303E+00  0.751624E+00  0.816017E+00  0.865986E+00
  0.903309E+00  0.930310E+00  0.949255E+00  0.962027E+00  0.970080E+00  0.974471E+00
  0.975858E+00  0.974471E+00  0.970080E+00  0.962027E+00  0.949255E+00  0.930310E+00
  0.903309E+00  0.870516E+00  0.831331E+00  0.782080E+00  0.721570E+00  0.649635E+00
  0.567592E+00  0.479330E+00  0.392362E+00  0.315838E+00  0.256219E+00  0.216013E+00
  0.195821E+00  0.195821E+00  0.216013E+00  0.256219E+00  0.315838E+00  0.392362E+00
  0.479330E+00  0.567592E+00  0.649635E+00  0.721570E+00  0.782080E+00  0.831331E+00
  0.870516E+00  0.901307E+00  0.925222E+00  0.943292E+00  0.956151E+00  0.964296E+00
  0.968205E+00  0.968205E+00  0.964296E+00  0.956151E+00  0.943292E+00  0.925222E+00
  0.901307E+00  0.870516E+00  0.836916E+00  0.803000E+00  0.761216E+00  0.710244E+00
  0.649635E+00  0.579769E+00  0.503166E+00  0.426352E+00  0.358140E+00  0.305439E+00
  0.272232E+00  0.260869E+00  0.272232E+00  0.305439E+00  0.358140E+00  0.426352E+00
  0.503166E+00  0.579769E+00  0.649635E+00  0.710244E+00  0.761216E+00  0.803000E+00
  0.836916E+00  0.864917E+00  0.888829E+00  0.909675E+00  0.927398E+00  0.941094E+00
  0.949711E+00  0.952636E+00  0.949711E+00  0.941094E+00  0.927398E+00  0.909675E+00
  0.888829E+00  0.864917E+00  0.836916E+00  0.814823E+00  0.791909E+00  0.761216E+00
  0.721570E+00  0.672303E+00  0.613075E+00  0.545913E+00  0.477448E+00  0.416815E+00
  0.371730E+00  0.347614E+00  0.347614E+00  0.371730E+00  0.416815E+00  0.477448E+00
  0.545913E+00  0.613075E+00  0.672303E+00  0.721570E+00  0.761216E+00  0.791909E+00
  0.814823E+00  0.831960E+00  0.845759E+00  0.858674E+00  0.872717E+00  0.888233E+00
  0.902628E+00  0.911439E+00  0.911439E+00  0.902628E+00  0.888233E+00  0.872717E+00
  0.858674E+00  0.845759E+00  0.831960E+00  0.814823E+00  0.814823E+00  0.803000E+00
  0.782080E+00  0.751624E+00  0.710989E+00  0.659629E+00  0.599900E+00  0.538975E+00
  0.486359E+00  0.450587E+00  0.437862E+00  0.450587E+00  0.486359E+00  0.538975E+00
  0.599900E+00  0.659629E+00  0.710989E+00  0.751624E+00  0.782080E+00  0.803000E+00
  0.814823E+00  0.818328E+00  0.814523E+00  0.804888E+00  0.793016E+00  0.785741E+00
  0.789090E+00  0.799822E+00  0.805754E+00  0.799822E+00  0.789090E+00  0.785741E+00
  0.793016E+00  0.804888E+00  0.814523E+00  0.818328E+00  0.814823E+00  0.836916E+00
  0.831331E+00  0.816017E+00  0.791153E+00  0.755998E+00  0.710083E+00  0.656429E+00
  0.602790E+00  0.559099E+00  0.534423E+00  0.534423E+00  0.559099E+00  0.602790E+00
  0.656429E+00  0.710083E+00  0.755998E+00  0.791153E+00  0.816017E+00  0.831331E+00
  0.836916E+00  0.831960E+00  0.814523E+00  0.780815E+00  0.727435E+00  0.659397E+00
  0.596986E+00  0.562588E+00  0.555109E+00  0.555109E+00  0.562588E+00  0.596986E+00
  0.659397E+00  0.727435E+00  0.780815E+00  0.814523E+00  0.831960E+00  0.836916E+00
  0.870516E+00  0.865986E+00  0.852646E+00  0.830485E+00  0.798359E+00  0.756099E+00
  0.707624E+00  0.661396E+00  0.627760E+00  0.615394E+00  0.627760E+00  0.661396E+00
  0.707624E+00  0.756099E+00  0.798359E+00  0.830485E+00  0.852646E+00  0.865986E+00
  0.870516E+00  0.864917E+00  0.845759E+00  0.804888E+00  0.727435E+00  0.600524E+00
  0.443838E+00  0.315231E+00  0.247506E+00  0.229049E+00  0.247506E+00  0.315231E+00
  0.443838E+00  0.600524E+00  0.727435E+00  0.804888E+00  0.845759E+00  0.864917E+00
  0.870516E+00  0.903309E+00  0.897403E+00  0.884243E+00  0.863052E+00  0.832397E+00
  0.792806E+00  0.749298E+00  0.711089E+00  0.688497E+00  0.688497E+00  0.711089E+00
  0.749298E+00  0.792806E+00  0.832397E+00  0.863052E+00  0.884243E+00  0.897403E+00
  0.903309E+00  0.901307E+00  0.888829E+00  0.858674E+00  0.793016E+00  0.659397E+00
  0.443838E+00  0.229521E+00  0.109806E+00  0.679346E-01  0.679346E-01  0.109806E+00
  0.229521E+00  0.443838E+00  0.659397E+00  0.793016E+00  0.858674E+00  0.888829E+00
  0.901307E+00  0.903309E+00  0.928605E+00  0.921142E+00  0.907619E+00  0.886582E+00
  0.856730E+00  0.819558E+00  0.781224E+00  0.751638E+00  0.740424E+00  0.751638E+00
  0.781224E+00  0.819558E+00  0.856730E+00  0.886582E+00  0.907619E+00  0.921142E+00
  0.928605E+00  0.930310E+00  0.925222E+00  0.909675E+00  0.872717E+00  0.785741E+00
  0.596986E+00  0.315231E+00  0.109806E+00  0.369830E-01  0.228351E-01  0.369830E-01
  0.109806E+00  0.315231E+00  0.596986E+00  0.785741E+00  0.872717E+00  0.909675E+00
  0.925222E+00  0.930310E+00  0.928605E+00  0.945554E+00  0.937092E+00  0.923166E+00
  0.901961E+00  0.872569E+00  0.837532E+00  0.804365E+00  0.783730E+00  0.783730E+00
  0.804365E+00  0.837532E+00  0.872569E+00  0.901961E+00  0.923166E+00  0.937092E+00
  0.945554E+00  0.949607E+00  0.949255E+00  0.943292E+00  0.927398E+00  0.888233E+00
  0.789090E+00  0.562588E+00  0.247506E+00  0.679346E-01  0.228351E-01  0.228351E-01
  0.679346E-01  0.247506E+00  0.562588E+00  0.789090E+00  0.888233E+00  0.927398E+00
  0.943292E+00  0.949255E+00  0.949607E+00  0.945554E+00  0.956052E+00  0.947056E+00
  0.932611E+00  0.910708E+00  0.880931E+00  0.847231E+00  0.819169E+00  0.808082E+00
  0.819169E+00  0.847231E+00  0.880931E+00  0.910708E+00  0.932611E+00  0.947056E+00
  0.956052E+00  0.961250E+00  0.963297E+00  0.962027E+00  0.956151E+00  0.941094E+00
  0.902628E+00  0.799822E+00  0.555109E+00  0.229049E+00  0.679346E-01  0.369830E-01
  0.679346E-01  0.229049E+00  0.555109E+00  0.799822E+00  0.902628E+00  0.941094E+00
  0.956151E+00  0.962027E+00  0.963297E+00  0.961250E+00  0.956052E+00  0.962277E+00
  0.952720E+00  0.937093E+00  0.913231E+00  0.881476E+00  0.848185E+00  0.825964E+00
  0.825964E+00  0.848185E+00  0.881476E+00  0.913231E+00  0.937093E+00  0.952720E+00
  0.962277E+00  0.967966E+00  0.971048E+00  0.971857E+00  0.970080E+00  0.964296E+00
  0.949711E+00  0.911439E+00  0.805754E+00  0.555109E+00  0.247506E+00  0.109806E+00
  0.109806E+00  0.247506E+00  0.555109E+00  0.805754E+00  0.911439E+00  0.949711E+00
  0.964296E+00  0.970080E+00  0.971857E+00  0.971048E+00  0.967966E+00  0.962277E+00
  0.965541E+00  0.954747E+00  0.936544E+00  0.908541E+00  0.872543E+00  0.839294E+00
  0.825394E+00  0.839294E+00  0.872543E+00  0.908541E+00  0.936544E+00  0.954747E+00
  0.965541E+00  0.971722E+00  0.975211E+00  0.976874E+00  0.976792E+00  0.974471E+00
  0.968205E+00  0.952636E+00  0.911439E+00  0.799822E+00  0.562588E+00  0.315231E+00
  0.229521E+00  0.315231E+00  0.562588E+00  0.799822E+00  0.911439E+00  0.952636E+00
  0.968205E+00  0.974471E+00  0.976792E+00  0.976874E+00  0.975211E+00  0.971722E+00
  0.965541E+00  0.966141E+00  0.952809E+00  0.929586E+00  0.893656E+00  0.850245E+00
  0.818302E+00  0.818302E+00  0.850245E+00  0.893656E+00  0.929586E+00  0.952809E+00
  0.966141E+00  0.973419E+00  0.977315E+00  0.979310E+00  0.979933E+00  0.979037E+00
  0.975858E+00  0.968205E+00  0.949711E+00  0.902628E+00  0.789090E+00  0.596986E+00
  0.443838E+00  0.443838E+00  0.596986E+00  0.789090E+00  0.902628E+00  0.949711E+00
  0.968205E+00  0.975858E+00  0.979037E+00  0.979933E+00  0.979310E+00  0.977315E+00
  0.973419E+00  0.966141E+00  0.963591E+00  0.945318E+00  0.912087E+00  0.860913E+00
  0.806267E+00  0.781645E+00  0.806267E+00  0.860913E+00  0.912087E+00  0.945318E+00
  0.963591E+00  0.973086E+00  0.977906E+00  0.980246E+00  0.981155E+00  0.980884E+00
  0.979037E+00  0.974471E+00  0.964296E+00  0.941094E+00  0.888233E+00  0.785741E+00
  0.659397E+00  0.600524E+00  0.659397E+00  0.785741E+00  0.888233E+00  0.941094E+00
  0.964296E+00  0.974471E+00  0.979037E+00  0.980884E+00  0.981155E+00  0.980246E+00
  0.977906E+00  0.973086E+00  0.963591E+00  0.956151E+00  0.927398E+00  0.872717E+00
  0.793016E+00  0.727435E+00  0.727435E+00  0.793016E+00  0.872717E+00  0.927398E+00
  0.956151E+00  0.970080E+00  0.976792E+00  0.979933E+00  0.981155E+00  0.981155E+00
  0.979933E+00  0.976792E+00  0.970080E+00  0.956151E+00  0.927398E+00  0.872717E+00
  0.793016E+00  0.727435E+00  0.727435E+00  0.793016E+00  0.872717E+00  0.927398E+00
  0.956151E+00  0.970080E+00  0.976792E+00  0.979933E+00  0.981155E+00  0.981155E+00
  0.979933E+00  0.976792E+00  0.970080E+00  0.956151E+00  0.938496E+00  0.885164E+00
  0.784361E+00  0.662448E+00  0.606031E+00  0.662448E+00  0.784361E+00  0.885164E+00
  0.938496E+00  0.962435E+00  0.973107E+00  0.977953E+00  0.979933E+00  0.980246E+00
  0.979310E+00  0.976874E+00  0.971857E+00  0.962027E+00  0.943292E+00  0.909675E+00
  0.858674E+00  0.804888E+00  0.780815E+00  0.804888E+00  0.858674E+00  0.909675E+00
  0.943292E+00  0.962027E+00  0.971857E+00  0.976874E+00  0.979310E+00  0.980246E+00
  0.979933E+00  0.977953E+00  0.973107E+00  0.962435E+00  0.938496E+00  0.895241E+00
  0.783687E+00  0.604698E+00  0.464263E+00  0.464263E+00  0.604698E+00  0.783687E+00
  0.895241E+00  0.944323E+00  0.964485E+00  0.973107E+00  0.976792E+00  0.977906E+00
  0.977315E+00  0.975211E+00  0.971048E+00  0.963297E+00  0.949255E+00  0.925222E+00
  0.888829E+00  0.845759E+00  0.814523E+00  0.814523E+00  0.845759E+00  0.888829E+00
  0.925222E+00  0.949255E+00  0.963297E+00  0.971048E+00  0.975211E+00  0.977315E+00
  0.977906E+00  0.976792E+00  0.973107E+00  0.964485E+00  0.944323E+00  0.895241E+00
  0.786933E+00  0.570338E+00  0.350933E+00  0.271466E+00  0.350933E+00  0.570338E+00
  0.786933E+00  0.899163E+00  0.944323E+00  0.962435E+00  0.970080E+00  0.973086E+00
  0.973419E+00  0.971722E+00  0.967966E+00  0.961250E+00  0.949607E+00  0.930310E+00
  0.901307E+00  0.864917E+00  0.831960E+00  0.818328E+00  0.831960E+00  0.864917E+00
  0.901307E+00  0.930310E+00  0.949607E+00  0.961250E+00  0.967966E+00  0.971722E+00
  0.973419E+00  0.973086E+00  0.970080E+00  0.962435E+00  0.944323E+00  0.899163E+00
  0.786933E+00  0.560227E+00  0.294237E+00  0.160773E+00  0.160773E+00  0.294237E+00
  0.560227E+00  0.786933E+00  0.895241E+00  0.938496E+00  0.956151E+00  0.963591E+00
  0.966141E+00  0.965541E+00  0.962277E+00  0.956052E+00  0.945554E+00  0.928605E+00
  0.903309E+00  0.870516E+00  0.836916E+00  0.814823E+00  0.814823E+00  0.836916E+00
  0.870516E+00  0.903309E+00  0.928605E+00  0.945554E+00  0.956052E+00  0.962277E+00
  0.965541E+00  0.966141E+00  0.963591E+00  0.956151E+00  0.938496E+00  0.895241E+00
  0.786933E+00  0.560227E+00  0.229049E+00  0.679346E-01  0.369830E-01  0.679346E-01
  0.229049E+00  0.555109E+00  0.799822E+00  0.902628E+00  0.941094E+00  0.956151E+00
  0.962027E+00  0.963297E+00  0.961250E+00  0.956052E+00  0.947056E+00  0.932611E+00
  0.910708E+00  0.880931E+00  0.847231E+00  0.819169E+00  0.808082E+00  0.819169E+00
  0.847231E+00  0.880931E+00  0.910708E+00  0.932611E+00  0.947056E+00  0.956052E+00
  0.961250E+00  0.963297E+00  0.962027E+00  0.956151E+00  0.941094E+00  0.902628E+00
  0.799822E+00  0.555109E+00  0.229049E+00  0.679346E-01  0.228351E-01  0.228351E-01
  0.679346E-01  0.247506E+00  0.562588E+00  0.789090E+00  0.888233E+00  0.927398E+00
  0.943292E+00  0.949255E+00  0.949607E+00  0.945554E+00  0.937092E+00  0.923166E+00
  0.901961E+00  0.872569E+00  0.837532E+00  0.804365E+00  0.783730E+00  0.783730E+00
  0.804365E+00  0.837532E+00  0.872569E+00  0.901961E+00  0.923166E+00  0.937092E+00
  0.945554E+00  0.949607E+00  0.949255E+00  0.943292E+00  0.927398E+00  0.888233E+00
  0.789090E+00  0.562588E+00  0.247506E+00  0.679346E-01  0.369830E-01  0.228351E-01
  0.369830E-01  0.109806E+00  0.315231E+00  0.596986E+00  0.785741E+00  0.872717E+00
  0.909675E+00  0.925222E+00  0.930310E+00  0.928605E+00  0.921142E+00  0.907619E+00
  0.886582E+00  0.856730E+00  0.819558E+00  0.781224E+00  0.751638E+00  0.740424E+00
  0.751638E+00  0.781224E+00  0.819558E+00  0.856730E+00  0.886582E+00  0.907619E+00
  0.921142E+00  0.928605E+00  0.930310E+00  0.925222E+00  0.909675E+00  0.872717E+00
  0.785741E+00  0.596986E+00  0.315231E+00  0.109806E+00  0.369830E-01  0.679346E-01
  0.679346E-01  0.109806E+00  0.229521E+00  0.443838E+00  0.659397E+00  0.793016E+00
  0.858674E+00  0.888829E+00  0.901307E+00  0.903309E+00  0.897403E+00  0.884243E+00
  0.863052E+00  0.832397E+00  0.792806E+00  0.749298E+00  0.711089E+00  0.688497E+00
  0.688497E+00  0.711089E+00  0.749298E+00  0.792806E+00  0.832397E+00  0.863052E+00
  0.884243E+00  0.897403E+00  0.903309E+00  0.901307E+00  0.888829E+00  0.858674E+00
  0.793016E+00  0.659397E+00  0.443838E+00  0.229521E+00  0.109806E+00  0.679346E-01
  0.229049E+00  0.247506E+00  0.315231E+00  0.443838E+00  0.600524E+00  0.727435E+00
  0.804888E+00  0.845759E+00  0.864917E+00  0.870516E+00  0.865986E+00  0.852646E+00
  0.830485E+00  0.798359E+00  0.756099E+00  0.707624E+00  0.661396E+00  0.627760E+00
  0.615394E+00  0.627760E+00  0.661396E+00  0.707624E+00  0.756099E+00  0.798359E+00
  0.830485E+00  0.852646E+00  0.865986E+00  0.870516E+00  0.864917E+00  0.845759E+00
  0.804888E+00  0.727435E+00  0.600524E+00  0.443838E+00  0.315231E+00  0.247506E+00
  0.229049E+00  0.555109E+00  0.562588E+00  0.596986E+00  0.659397E+00  0.727435E+00
  0.780815E+00  0.814523E+00  0.831960E+00  0.836916E+00  0.831331E+00  0.816017E+00
  0.791153E+00  0.755998E+00  0.710083E+00  0.656429E+00  0.602790E+00  0.559099E+00
  0.534423E+00  0.534423E+00  0.559099E+00  0.602790E+00  0.656429E+00  0.710083E+00
  0.755998E+00  0.791153E+00  0.816017E+00  0.831331E+00  0.836916E+00  0.831960E+00
  0.814523E+00  0.780815E+00  0.727435E+00  0.659397E+00  0.596986E+00  0.562588E+00
  0.555109E+00  0.555109E+00  0.799822E+00  0.789090E+00  0.785741E+00  0.793016E+00
  0.804888E+00  0.814523E+00  0.818328E+00  0.814823E+00  0.803000E+00  0.782080E+00
  0.751624E+00  0.710989E+00  0.659629E+00  0.599900E+00  0.538975E+00  0.486359E+00
  0.450587E+00  0.437862E+00  0.450587E+00  0.486359E+00  0.538975E+00  0.599900E+00
  0.659629E+00  0.710989E+00  0.751624E+00  0.782080E+00  0.803000E+00  0.814823E+00
  0.818328E+00  0.814523E+00  0.804888E+00  0.793016E+00  0.785741E+00  0.789090E+00
  0.799822E+00  0.805754E+00  0.799822E+00  0.902628E+00  0.888233E+00  0.872717E+00
  0.858674E+00  0.845759E+00  0.831960E+00  0.814823E+00  0.791909E+00  0.761216E+00
  0.721570E+00  0.672303E+00  0.613075E+00  0.545913E+00  0.477448E+00  0.416815E+00
  0.371730E+00  0.347614E+00  0.347614E+00  0.371730E+00  0.416815E+00  0.477448E+00
  0.545913E+00  0.613075E+00  0.672303E+00  0.721570E+00  0.761216E+00  0.791909E+00
  0.814823E+00  0.831960E+00  0.845759E+00  0.858674E+00  0.872717E+00  0.888233E+00
  0.902628E+00  0.911439E+00  0.911439E+00  0.902628E+00  0.941094E+00  0.927398E+00
  0.909675E+00  0.888829E+00  0.864917E+00  0.836916E+00  0.803000E+00  0.761216E+00
  0.710244E+00  0.649635E+00  0.579769E+00  0.503166E+00  0.426352E+00  0.358140E+00
  0.305439E+00  0.272232E+00  0.260869E+00  0.272232E+00  0.305439E+00  0.358140E+00
  0.426352E+00  0.503166E+00  0.579769E+00  0.649635E+00  0.710244E+00  0.761216E+00
  0.803000E+00  0.836916E+00  0.864917E+00  0.888829E+00  0.909675E+00  0.927398E+00
  0.941094E+00  0.949711E+00  0.952636E+00  0.949711E+00  0.941094E+00  0.956151E+00
  0.943292E+00  0.925222E+00  0.901307E+00  0.870516E+00  0.831331E+00  0.782080E+00
  0.721570E+00  0.649635E+00  0.567592E+00  0.479330E+00  0.392362E+00  0.315838E+00
  0.256219E+00  0.216013E+00  0.195821E+00  0.195821E+00  0.216013E+00  0.256219E+00
  0.315838E+00  0.392362E+00  0.479330E+00  0.567592E+00  0.649635E+00  0.721570E+00
  0.782080E+00  0.831331E+00  0.870516E+00  0.901307E+00  0.925222E+00  0.943292E+00
  0.956151E+00  0.964296E+00  0.968205E+00  0.968205E+00  0.964296E+00  0.956151E+00
  0.962027E+00  0.949255E+00  0.930310E+00  0.903309E+00  0.865986E+00  0.816017E+00
  0.751624E+00  0.672303E+00  0.579769E+00  0.479330E+00  0.380383E+00  0.293597E+00
  0.226036E+00  0.179438E+00  0.152551E+00  0.143800E+00  0.152551E+00  0.179438E+00
  0.226036E+00  0.293597E+00  0.380383E+00  0.479330E+00  0.579769E+00  0.672303E+00
  0.751624E+00  0.816017E+00  0.865986E+00  0.903309E+00  0.930310E+00  0.949255E+00
  0.962027E+00  0.970080E+00  0.974471E+00  0.975858E+00  0.974471E+00  0.970080E+00
  0.962027E+00  0.963297E+00  0.949607E+00  0.928605E+00  0.897403E+00  0.852646E+00
  0.791153E+00  0.710989E+00  0.613075E+00  0.503166E+00  0.392362E+00  0.293597E+00
  0.215859E+00  0.161543E+00  0.128399E+00  0.112959E+00  0.112959E+00  0.128399E+00
  0.161543E+00  0.215859E+00  0.293597E+00  0.392362E+00  0.503166E+00  0.613075E+00
  0.710989E+00  0.791153E+00  0.852646E+00  0.897403E+00  0.928605E+00  0.949607E+00
  0.963297E+00  0.971857E+00  0.976792E+00  0.979037E+00  0.979037E+00  0.976792E+00
  0.971857E+00  0.963297E+00  0.961250E+00  0.945554E+00  0.921142E+00  0.884243E+00
  0.830485E+00  0.755998E+00  0.659629E+00  0.545913E+00  0.426352E+00  0.315838E+00
  0.226036E+00  0.161543E+00  0.120701E+00  0.989401E-01  0.922012E-01  0.989401E-01
  0.120701E+00  0.161543E+00  0.226036E+00  0.315838E+00  0.426352E+00  0.545913E+00
  0.659629E+00  0.755998E+00  0.830485E+00  0.884243E+00  0.921142E+00  0.945554E+00
  0.961250E+00  0.971048E+00  0.976874E+00  0.979933E+00  0.980884E+00  0.979933E+00
  0.976874E+00  0.971048E+00  0.961250E+00  0.956052E+00  0.937092E+00  0.907619E+00
  0.863052E+00  0.798359E+00  0.710083E+00  0.599900E+00  0.477448E+00  0.358140E+00
  0.256219E+00  0.179438E+00  0.128399E+00  0.989401E-01  0.858413E-01  0.858413E-01
  0.989401E-01  0.128399E+00  0.179438E+00  0.256219E+00  0.358140E+00  0.477448E+00
  0.599900E+00  0.710083E+00  0.798359E+00  0.863052E+00  0.907619E+00  0.937092E+00
  0.956052E+00  0.967966E+00  0.975211E+00  0.979310E+00  0.981155E+00  0.981155E+00
  0.979310E+00  0.975211E+00  0.967966E+00  0.956052E+00  0.947056E+00  0.923166E+00
  0.886582E+00  0.832397E+00  0.756099E+00  0.656429E+00  0.538975E+00  0.416815E+00
  0.305439E+00  0.216013E+00  0.152551E+00  0.112959E+00  0.922012E-01  0.858413E-01
  0.922012E-01  0.112959E+00  0.152551E+00  0.216013E+00  0.305439E+00  0.416815E+00
  0.538975E+00  0.656429E+00  0.756099E+00  0.832397E+00  0.886582E+00  0.923166E+00
  0.947056E+00  0.962277E+00  0.971722E+00  0.977315E+00  0.980246E+00  0.981155E+00
  0.980246E+00  0.977315E+00  0.971722E+00  0.962277E+00  0.947056E+00  0.932611E+00
  0.901961E+00  0.856730E+00  0.792806E+00  0.707624E+00  0.602790E+00  0.486359E+00
  0.371730E+00  0.272232E+00  0.195821E+00  0.143800E+00  0.112959E+00  0.989401E-01
  0.989401E-01  0.112959E+00  0.143800E+00  0.195821E+00  0.272232E+00  0.371730E+00
  0.486359E+00  0.602790E+00  0.707624E+00  0.792806E+00  0.856730E+00  0.901961E+00
  0.932611E+00  0.952720E+00  0.965541E+00  0.973419E+00  0.977906E+00  0.979933E+00
  0.979933E+00  0.977906E+00  0.973419E+00  0.965541E+00  0.952720E+00  0.932611E+00
  0.910708E+00  0.872569E+00  0.819558E+00  0.749298E+00  0.661396E+00  0.559099E+00
  0.450587E+00  0.347614E+00  0.260869E+00  0.195821E+00  0.152551E+00  0.128399E+00
  0.120701E+00  0.128399E+00  0.152551E+00  0.195821E+00  0.260869E+00  0.347614E+00
  0.450587E+00  0.559099E+00  0.661396E+00  0.749298E+00  0.819558E+00  0.872569E+00
  0.910708E+00  0.937093E+00  0.954747E+00  0.966141E+00  0.973086E+00  0.976792E+00
  0.977953E+00  0.976792E+00  0.973086E+00  0.966141E+00  0.954747E+00  0.937093E+00
  0.910708E+00  0.880931E+00  0.837532E+00  0.781224E+00  0.711089E+00  0.627760E+00
  0.534423E+00  0.437862E+00  0.347614E+00  0.272232E+00  0.216013E+00  0.179438E+00
  0.161543E+00  0.161543E+00  0.179438E+00  0.216013E+00  0.272232E+00  0.347614E+00
  0.437862E+00  0.534423E+00  0.627760E+00  0.711089E+00  0.781224E+00  0.837532E+00
  0.880931E+00  0.913231E+00  0.936544E+00  0.952809E+00  0.963591E+00  0.970080E+00
  0.973107E+00  0.973107E+00  0.970080E+00  0.963591E+00  0.952809E+00  0.936544E+00
  0.913231E+00  0.880931E+00  0.847231E+00  0.804365E+00  0.751638E+00  0.688497E+00
  0.615394E+00  0.534423E+00  0.450587E+00  0.371730E+00  0.305439E+00  0.256219E+00
  0.226036E+00  0.215859E+00  0.226036E+00  0.256219E+00  0.305439E+00  0.371730E+00
  0.450587E+00  0.534423E+00  0.615394E+00  0.688497E+00  0.751638E+00  0.804365E+00
  0.847231E+00  0.881476E+00  0.908541E+00  0.929586E+00  0.945318E+00  0.956151E+00
  0.962435E+00  0.964485E+00  0.962435E+00  0.956151E+00  0.945318E+00  0.929586E+00
  0.908541E+00  0.881476E+00  0.847231E+00  0.819169E+00  0.783730E+00  0.740424E+00
  0.688497E+00  0.627760E+00  0.559099E+00  0.486359E+00  0.416815E+00  0.358140E+00
  0.315838E+00  0.293597E+00  0.293597E+00  0.315838E+00  0.358140E+00  0.416815E+00
  0.486359E+00  0.559099E+00  0.627760E+00  0.688497E+00  0.740424E+00  0.783730E+00
  0.819169E+00  0.848185E+00  0.872543E+00  0.893656E+00  0.912087E+00  0.927398E+00
  0.938496E+00  0.944323E+00  0.944323E+00  0.938496E+00  0.927398E+00  0.912087E+00
  0.893656E+00  0.872543E+00  0.848185E+00  0.819169E+00  0.808082E+00  0.783730E+00
  0.751638E+00  0.711089E+00  0.661396E+00  0.602790E+00  0.538975E+00  0.477448E+00
  0.426352E+00  0.392362E+00  0.380383E+00  0.392362E+00  0.426352E+00  0.477448E+00
  0.538975E+00  0.602790E+00  0.661396E+00  0.711089E+00  0.751638E+00  0.783730E+00
  0.808082E+00  0.825964E+00  0.839294E+00  0.850245E+00  0.860913E+00  0.872717E+00
  0.885164E+00  0.895241E+00  0.899163E+00  0.895241E+00  0.885164E+00  0.872717E+00
  0.860913E+00  0.850245E+00  0.839294E+00  0.825964E+00  0.808082E+00  0.819169E+00
  0.804365E+00  0.781224E+00  0.749298E+00  0.707624E+00  0.656429E+00  0.599900E+00
  0.545913E+00  0.503166E+00  0.479330E+00  0.479330E+00  0.503166E+00  0.545913E+00
  0.599900E+00  0.656429E+00  0.707624E+00  0.749298E+00  0.781224E+00  0.804365E+00
  0.819169E+00  0.825964E+00  0.825394E+00  0.818302E+00  0.806267E+00  0.793016E+00
  0.784361E+00  0.783687E+00  0.786933E+00  0.786933E+00  0.783687E+00  0.784361E+00
  0.793016E+00  0.806267E+00  0.818302E+00  0.825394E+00  0.825964E+00  0.819169E+00
  0.847231E+00  0.837532E+00  0.819558E+00  0.792806E+00  0.756099E+00  0.710083E+00
  0.659629E+00  0.613075E+00  0.579769E+00  0.567592E+00  0.579769E+00  0.613075E+00
  0.659629E+00  0.710083E+00  0.756099E+00  0.792806E+00  0.819558E+00  0.837532E+00
  0.847231E+00  0.848185E+00  0.839294E+00  0.818302E+00  0.781645E+00  0.727435E+00
  0.662448E+00  0.604698E+00  0.570338E+00  0.560227E+00  0.570338E+00  0.604698E+00
  0.662448E+00  0.727435E+00  0.781645E+00  0.818302E+00  0.839294E+00  0.848185E+00
  0.847231E+00  0.880931E+00  0.872569E+00  0.856730E+00  0.832397E+00  0.798359E+00
  0.755998E+00  0.710989E+00  0.672303E+00  0.649635E+00  0.649635E+00  0.672303E+00
  0.710989E+00  0.755998E+00  0.798359E+00  0.832397E+00  0.856730E+00  0.872569E+00
  0.880931E+00  0.881476E+00  0.872543E+00  0.850245E+00  0.806267E+00  0.727435E+00
  0.606031E+00  0.464263E+00  0.350933E+00  0.294237E+00  0.294237E+00  0.350933E+00
  0.464263E+00  0.606031E+00  0.727435E+00  0.806267E+00  0.850245E+00  0.872543E+00
  0.881476E+00  0.880931E+00  0.910708E+00  0.901961E+00  0.886582E+00  0.863052E+00
  0.830485E+00  0.791153E+00  0.751624E+00  0.721570E+00  0.710244E+00  0.721570E+00
  0.751624E+00  0.791153E+00  0.830485E+00  0.863052E+00  0.886582E+00  0.901961E+00
  0.910708E+00  0.913231E+00  0.908541E+00  0.893656E+00  0.860913E+00  0.793016E+00
  0.662448E+00  0.464263E+00  0.271466E+00  0.160773E+00  0.128976E+00  0.160773E+00
  0.271466E+00  0.464263E+00  0.662448E+00  0.793016E+00  0.860913E+00  0.893656E+00
  0.908541E+00  0.913231E+00  0.910708E+00  0.932611E+00  0.923166E+00  0.907619E+00
  0.884243E+00  0.852646E+00  0.816017E+00  0.782080E+00  0.761216E+00  0.761216E+00
  0.782080E+00  0.816017E+00  0.852646E+00  0.884243E+00  0.907619E+00  0.923166E+00
  0.932611E+00  0.937093E+00  0.936544E+00  0.929586E+00  0.912087E+00  0.872717E+00
  0.784361E+00  0.604698E+00  0.350933E+00  0.160773E+00  0.871439E-01  0.871439E-01
  0.160773E+00  0.350933E+00  0.604698E+00  0.784361E+00  0.872717E+00  0.912087E+00
  0.929586E+00  0.936544E+00  0.937093E+00  0.932611E+00  0.947056E+00  0.937092E+00
  0.921142E+00  0.897403E+00  0.865986E+00  0.831331E+00  0.803000E+00  0.791909E+00
  0.803000E+00  0.831331E+00  0.865986E+00  0.897403E+00  0.921142E+00  0.937092E+00
  0.947056E+00  0.952720E+00  0.954747E+00  0.952809E+00  0.945318E+00  0.927398E+00
  0.885164E+00  0.783687E+00  0.570338E+00  0.294237E+00  0.128976E+00  0.871439E-01
  0.128976E+00  0.294237E+00  0.570338E+00  0.783687E+00  0.885164E+00  0.927398E+00
  0.945318E+00  0.952809E+00  0.954747E+00  0.952720E+00  0.947056E+00  0.956052E+00
  0.945554E+00  0.928605E+00  0.903309E+00  0.870516E+00  0.836916E+00  0.814823E+00
  0.814823E+00  0.836916E+00  0.870516E+00  0.903309E+00  0.928605E+00  0.945554E+00
  0.956052E+00  0.962277E+00  0.965541E+00  0.966141E+00  0.963591E+00  0.956151E+00
  0.938496E+00  0.895241E+00  0.786933E+00  0.560227E+00  0.294237E+00  0.160773E+00
  0.160773E+00  0.294237E+00  0.560227E+00  0.786933E+00  0.895241E+00  0.938496E+00
  0.956151E+00  0.963591E+00  0.966141E+00  0.965541E+00  0.962277E+00  0.956052E+00
  0.961250E+00  0.949607E+00  0.930310E+00  0.901307E+00  0.864917E+00  0.831960E+00
  0.818328E+00  0.831960E+00  0.864917E+00  0.901307E+00  0.930310E+00  0.949607E+00
  0.961250E+00  0.967966E+00  0.971722E+00  0.973419E+00  0.973086E+00  0.970080E+00
  0.962435E+00  0.944323E+00  0.899163E+00  0.786933E+00  0.570338E+00  0.350933E+00
  0.271466E+00  0.350933E+00  0.570338E+00  0.786933E+00  0.899163E+00  0.944323E+00
  0.962435E+00  0.970080E+00  0.973086E+00  0.973419E+00  0.971722E+00  0.967966E+00
  0.961250E+00  0.963297E+00  0.949255E+00  0.925222E+00  0.888829E+00  0.845759E+00
  0.814523E+00  0.814523E+00  0.845759E+00  0.888829E+00  0.925222E+00  0.949255E+00
  0.963297E+00  0.971048E+00  0.975211E+00  0.977315E+00  0.977906E+00  0.976792E+00
  0.973107E+00  0.964485E+00  0.944323E+00  0.895241E+00  0.783687E+00  0.604698E+00
  0.464263E+00  0.464263E+00  0.604698E+00  0.783687E+00  0.895241E+00  0.944323E+00
  0.964485E+00  0.973107E+00  0.976792E+00  0.977906E+00  0.977315E+00  0.975211E+00
  0.971048E+00  0.963297E+00  0.962027E+00  0.943292E+00  0.909675E+00  0.858674E+00
  0.804888E+00  0.780815E+00  0.804888E+00  0.858674E+00  0.909675E+00  0.943292E+00
  0.962027E+00  0.971857E+00  0.976874E+00  0.979310E+00  0.980246E+00  0.979933E+00
  0.977953E+00  0.973107E+00  0.962435E+00  0.938496E+00  0.885164E+00  0.784361E+00
  0.662448E+00  0.606031E+00  0.662448E+00  0.784361E+00  0.885164E+00  0.938496E+00
  0.962435E+00  0.973107E+00  0.977953E+00  0.979933E+00  0.980246E+00  0.979310E+00
  0.976874E+00  0.971857E+00  0.962027E+00  0.956151E+00  0.927398E+00  0.872717E+00
  0.793016E+00  0.727435E+00  0.727435E+00  0.793016E+00  0.872717E+00  0.927398E+00
  0.956151E+00  0.970080E+00  0.976792E+00  0.979933E+00  0.981155E+00  0.981155E+00
  0.979933E+00  0.976792E+00  0.970080E+00  0.956151E+00  0.927398E+00  0.872717E+00
  0.793016E+00  0.727435E+00  0.727435E+00  0.793016E+00  0.872717E+00  0.927398E+00
  0.956151E+00  0.970080E+00  0.976792E+00  0.979933E+00  0.981155E+00  0.981155E+00
  0.979933E+00  0.976792E+00  0.970080E+00  0.956151E+00  0.941094E+00  0.888233E+00
  0.785741E+00  0.659397E+00  0.600524E+00  0.659397E+00  0.785741E+00  0.888233E+00
  0.941094E+00  0.964296E+00  0.974471E+00  0.979037E+00  0.980884E+00  0.981155E+00
  0.980246E+00  0.977906E+00  0.973086E+00  0.963591E+00  0.945318E+00  0.912087E+00
  0.860913E+00  0.806267E+00  0.781645E+00  0.806267E+00  0.860913E+00  0.912087E+00
  0.945318E+00  0.963591E+00  0.973086E+00  0.977906E+00  0.980246E+00  0.981155E+00
  0.980884E+00  0.979037E+00  0.974471E+00  0.964296E+00  0.941094E+00  0.902628E+00
  0.789090E+00  0.596986E+00  0.443838E+00  0.443838E+00  0.596986E+00  0.789090E+00
  0.902628E+00  0.949711E+00  0.968205E+00  0.975858E+00  0.979037E+00  0.979933E+00
  0.979310E+00  0.977315E+00  0.973419E+00  0.966141E+00  0.952809E+00  0.929586E+00
  0.893656E+00  0.850245E+00  0.818302E+00  0.818302E+00  0.850245E+00  0.893656E+00
  0.929586E+00  0.952809E+00  0.966141E+00  0.973419E+00  0.977315E+00  0.979310E+00
  0.979933E+00  0.979037E+00  0.975858E+00  0.968205E+00  0.949711E+00  0.902628E+00
  0.799822E+00  0.562588E+00  0.315231E+00  0.229521E+00  0.315231E+00  0.562588E+00
  0.799822E+00  0.911439E+00  0.952636E+00  0.968205E+00  0.974471E+00  0.976792E+00
  0.976874E+00  0.975211E+00  0.971722E+00  0.965541E+00  0.954747E+00  0.936544E+00
  0.908541E+00  0.872543E+00  0.839294E+00  0.825394E+00  0.839294E+00  0.872543E+00
  0.908541E+00  0.936544E+00  0.954747E+00  0.965541E+00  0.971722E+00  0.975211E+00
  0.976874E+00  0.976792E+00  0.974471E+00  0.968205E+00  0.952636E+00  0.911439E+00
  0.799822E+00  0.555109E+00  0.247506E+00  0.109806E+00  0.109806E+00  0.247506E+00
  0.555109E+00  0.805754E+00  0.911439E+00  0.949711E+00  0.964296E+00  0.970080E+00
  0.971857E+00  0.971048E+00  0.967966E+00  0.962277E+00  0.952720E+00  0.937093E+00
  0.913231E+00  0.881476E+00  0.848185E+00  0.825964E+00  0.825964E+00  0.848185E+00
  0.881476E+00  0.913231E+00  0.937093E+00  0.952720E+00  0.962277E+00  0.967966E+00
  0.971048E+00  0.971857E+00  0.970080E+00  0.964296E+00  0.949711E+00  0.911439E+00
  0.805754E+00  0.555109E+00  0.229049E+00  0.679346E-01  0.369830E-01  0.679346E-01
  0.229049E+00  0.555109E+00  0.799822E+00  0.902628E+00  0.941094E+00  0.956151E+00
  0.962027E+00  0.963297E+00  0.961250E+00  0.956052E+00  0.947056E+00  0.932611E+00
  0.910708E+00  0.880931E+00  0.847231E+00  0.819169E+00  0.808082E+00  0.819169E+00
  0.847231E+00  0.880931E+00  0.910708E+00  0.932611E+00  0.947056E+00  0.956052E+00
  0.961250E+00  0.963297E+00  0.962027E+00  0.956151E+00  0.941094E+00  0.902628E+00
  0.799822E+00  0.555109E+00  0.229049E+00  0.390039E-01  0.778269E-02  0.778269E-02
  0.390039E-01  0.214687E+00  0.564518E+00  0.805505E+00  0.902628E+00  0.938496E+00
  0.952247E+00  0.957107E+00  0.957117E+00  0.953239E+00  0.945353E+00  0.932440E+00
  0.912663E+00  0.884808E+00  0.850949E+00  0.818380E+00  0.797929E+00  0.797929E+00
  0.818380E+00  0.850949E+00  0.884808E+00  0.912663E+00  0.932440E+00  0.945353E+00
  0.953239E+00  0.957117E+00  0.957107E+00  0.952247E+00  0.938496E+00  0.902628E+00
  0.805505E+00  0.564518E+00  0.214687E+00  0.390039E-01  0.778269E-02  0.309728E-02
  0.778269E-02  0.482593E-01  0.233054E+00  0.562078E+00  0.789090E+00  0.885164E+00
  0.922395E+00  0.937027E+00  0.941667E+00  0.940147E+00  0.933366E+00  0.921000E+00
  0.901650E+00  0.873792E+00  0.838351E+00  0.801078E+00  0.771957E+00  0.760865E+00
  0.771957E+00  0.801078E+00  0.838351E+00  0.873792E+00  0.901650E+00  0.921000E+00
  0.933366E+00  0.940147E+00  0.941667E+00  0.937027E+00  0.922395E+00  0.885164E+00
  0.789090E+00  0.562078E+00  0.233054E+00  0.482593E-01  0.778269E-02  0.778269E-02
  0.778269E-02  0.219171E-01  0.915576E-01  0.304696E+00  0.596986E+00  0.784361E+00
  0.867735E+00  0.902353E+00  0.916105E+00  0.919071E+00  0.914412E+00  0.902860E+00
  0.883758E+00  0.855590E+00  0.818294E+00  0.776261E+00  0.738712E+00  0.716350E+00
  0.716350E+00  0.738712E+00  0.776261E+00  0.818294E+00  0.855590E+00  0.883758E+00
  0.902860E+00  0.914412E+00  0.919071E+00  0.916105E+00  0.902353E+00  0.867735E+00
  0.784361E+00  0.596986E+00  0.304696E+00  0.915576E-01  0.219171E-01  0.778269E-02
  0.390039E-01  0.482593E-01  0.915576E-01  0.216884E+00  0.443838E+00  0.662448E+00
  0.790939E+00  0.851935E+00  0.878923E+00  0.888546E+00  0.887074E+00  0.876614E+00
  0.857489E+00  0.828684E+00  0.789514E+00  0.743026E+00  0.697512E+00  0.663959E+00
  0.651578E+00  0.663959E+00  0.697512E+00  0.743026E+00  0.789514E+00  0.828684E+00
  0.857489E+00  0.876614E+00  0.887074E+00  0.888546E+00  0.878923E+00  0.851935E+00
  0.790939E+00  0.662448E+00  0.443838E+00  0.216884E+00  0.915576E-01  0.482593E-01
  0.390039E-01  0.214687E+00  0.233054E+00  0.304696E+00  0.443838E+00  0.606031E+00
  0.729236E+00  0.800604E+00  0.836570E+00  0.851650E+00  0.852917E+00  0.843118E+00
  0.823206E+00  0.792854E+00  0.751302E+00  0.700534E+00  0.647787E+00  0.603784E+00
  0.578695E+00  0.578695E+00  0.603784E+00  0.647787E+00  0.700534E+00  0.751302E+00
  0.792854E+00  0.823206E+00  0.843118E+00  0.852917E+00  0.851650E+00  0.836570E+00
  0.800604E+00  0.729236E+00  0.606031E+00  0.443838E+00  0.304696E+00  0.233054E+00
  0.214687E+00  0.214687E+00  0.564518E+00  0.562078E+00  0.596986E+00  0.662448E+00
  0.729236E+00  0.778058E+00  0.806658E+00  0.819209E+00  0.818992E+00  0.807366E+00
  0.784830E+00  0.751277E+00  0.706074E+00  0.650538E+00  0.591005E+00  0.537707E+00
  0.500785E+00  0.487565E+00  0.500785E+00  0.537707E+00  0.591005E+00  0.650538E+00
  0.706074E+00  0.751277E+00  0.784830E+00  0.807366E+00  0.818992E+00  0.819209E+00
  0.806658E+00  0.778058E+00  0.729236E+00  0.662448E+00  0.596986E+00  0.562078E+00
  0.564518E+00  0.573444E+00  0.564518E+00  0.805505E+00  0.789090E+00  0.784361E+00
  0.790939E+00  0.800604E+00  0.806658E+00  0.806003E+00  0.797124E+00  0.778789E+00
  0.750167E+00  0.710759E+00  0.659954E+00  0.598611E+00  0.532288E+00  0.470762E+00
  0.423688E+00  0.398166E+00  0.398166E+00  0.423688E+00  0.470762E+00  0.532288E+00
  0.598611E+00  0.659954E+00  0.710759E+00  0.750167E+00  0.778789E+00  0.797124E+00
  0.806003E+00  0.806658E+00  0.800604E+00  0.790939E+00  0.784361E+00  0.789090E+00
  0.805505E+00  0.820760E+00  0.820760E+00  0.805505E+00  0.902628E+00  0.885164E+00
  0.867735E+00  0.851935E+00  0.836570E+00  0.819209E+00  0.797124E+00  0.767722E+00
  0.729141E+00  0.680479E+00  0.621313E+00  0.552474E+00  0.478920E+00  0.409915E+00
  0.354538E+00  0.318864E+00  0.306530E+00  0.318864E+00  0.354538E+00  0.409915E+00
  0.478920E+00  0.552474E+00  0.621313E+00  0.680479E+00  0.729141E+00  0.767722E+00
  0.797124E+00  0.819209E+00  0.836570E+00  0.851935E+00  0.867735E+00  0.885164E+00
  0.902628E+00  0.915868E+00  0.920791E+00  0.915868E+00  0.902628E+00  0.938496E+00
  0.922395E+00  0.902353E+00  0.878923E+00  0.851650E+00  0.818992E+00  0.778789E+00
  0.729141E+00  0.669144E+00  0.598933E+00  0.520146E+00  0.437967E+00  0.361393E+00
  0.298971E+00  0.255519E+00  0.233257E+00  0.233257E+00  0.255519E+00  0.298971E+00
  0.361393E+00  0.437967E+00  0.520146E+00  0.598933E+00  0.669144E+00  0.729141E+00
  0.778789E+00  0.818992E+00  0.851650E+00  0.878923E+00  0.902353E+00  0.922395E+00
  0.938496E+00  0.949711E+00  0.955406E+00  0.955406E+00  0.949711E+00  0.938496E+00
  0.952247E+00  0.937027E+00  0.916105E+00  0.888546E+00  0.852917E+00  0.807366E+00
  0.750167E+00  0.680479E+00  0.598933E+00  0.508428E+00  0.415512E+00  0.329933E+00
  0.260280E+00  0.210423E+00  0.180788E+00  0.170971E+00  0.180788E+00  0.210423E+00
  0.260280E+00  0.329933E+00  0.415512E+00  0.508428E+00  0.598933E+00  0.680479E+00
  0.750167E+00  0.807366E+00  0.852917E+00  0.888546E+00  0.916105E+00  0.937027E+00
  0.952247E+00  0.962435E+00  0.968205E+00  0.970060E+00  0.968205E+00  0.962435E+00
  0.952247E+00  0.957107E+00  0.941667E+00  0.919071E+00  0.887074E+00  0.843118E+00
  0.784830E+00  0.710759E+00  0.621313E+00  0.520146E+00  0.415512E+00  0.318989E+00
  0.240401E+00  0.183687E+00  0.147952E+00  0.130867E+00  0.130867E+00  0.147952E+00
  0.183687E+00  0.240401E+00  0.318989E+00  0.415512E+00  0.520146E+00  0.621313E+00
  0.710759E+00  0.784830E+00  0.843118E+00  0.887074E+00  0.919071E+00  0.941667E+00
  0.957107E+00  0.967152E+00  0.973107E+00  0.975858E+00  0.975858E+00  0.973107E+00
  0.967152E+00  0.957107E+00  0.957117E+00  0.940147E+00  0.914412E+00  0.876614E+00
  0.823206E+00  0.751277E+00  0.659954E+00  0.552474E+00  0.437967E+00  0.329933E+00
  0.240401E+00  0.174852E+00  0.132372E+00  0.109179E+00  0.101879E+00  0.109179E+00
  0.132372E+00  0.174852E+00  0.240401E+00  0.329933E+00  0.437967E+00  0.552474E+00
  0.659954E+00  0.751277E+00  0.823206E+00  0.876614E+00  0.914412E+00  0.940147E+00
  0.957117E+00  0.967940E+00  0.974481E+00  0.977953E+00  0.979037E+00  0.977953E+00
  0.974481E+00  0.967940E+00  0.957117E+00  0.953239E+00  0.933366E+00  0.902860E+00
  0.857489E+00  0.792854E+00  0.706074E+00  0.598611E+00  0.478920E+00  0.361393E+00
  0.260280E+00  0.183687E+00  0.132372E+00  0.102404E+00  0.889275E-01  0.889275E-01
  0.102404E+00  0.132372E+00  0.183687E+00  0.260280E+00  0.361393E+00  0.478920E+00
  0.598611E+00  0.706074E+00  0.792854E+00  0.857489E+00  0.902860E+00  0.933366E+00
  0.953239E+00  0.965842E+00  0.973561E+00  0.977951E+00  0.979933E+00  0.979933E+00
  0.977951E+00  0.973561E+00  0.965842E+00  0.953239E+00  0.945353E+00  0.921000E+00
  0.883758E+00  0.828684E+00  0.751302E+00  0.650538E+00  0.532288E+00  0.409915E+00
  0.298971E+00  0.210423E+00  0.147952E+00  0.109179E+00  0.889275E-01  0.827351E-01
  0.889275E-01  0.109179E+00  0.147952E+00  0.210423E+00  0.298971E+00  0.409915E+00
  0.532288E+00  0.650538E+00  0.751302E+00  0.828684E+00  0.883758E+00  0.921000E+00
  0.945353E+00  0.960896E+00  0.970562E+00  0.976299E+00  0.979310E+00  0.980246E+00
  0.979310E+00  0.976299E+00  0.970562E+00  0.960896E+00  0.945353E+00  0.932440E+00
  0.901650E+00  0.855590E+00  0.789514E+00  0.700534E+00  0.591005E+00  0.470762E+00
  0.354538E+00  0.255519E+00  0.180788E+00  0.130867E+00  0.101879E+00  0.889275E-01
  0.889275E-01  0.101879E+00  0.130867E+00  0.180788E+00  0.255519E+00  0.354538E+00
  0.470762E+00  0.591005E+00  0.700534E+00  0.789514E+00  0.855590E+00  0.901650E+00
  0.932440E+00  0.952446E+00  0.965128E+00  0.972897E+00  0.977315E+00  0.979310E+00
  0.979310E+00  0.977315E+00  0.972897E+00  0.965128E+00  0.952446E+00  0.932440E+00
  0.912663E+00  0.873792E+00  0.818294E+00  0.743026E+00  0.647787E+00  0.537707E+00
  0.423688E+00  0.318864E+00  0.233257E+00  0.170971E+00  0.130867E+00  0.109179E+00
  0.102404E+00  0.109179E+00  0.130867E+00  0.170971E+00  0.233257E+00  0.318864E+00
  0.423688E+00  0.537707E+00  0.647787E+00  0.743026E+00  0.818294E+00  0.873792E+00
  0.912663E+00  0.938876E+00  0.956025E+00  0.966889E+00  0.973419E+00  0.976874E+00
  0.977951E+00  0.976874E+00  0.973419E+00  0.966889E+00  0.956025E+00  0.938876E+00
  0.912663E+00  0.884808E+00  0.838351E+00  0.776261E+00  0.697512E+00  0.603784E+00
  0.500785E+00  0.398166E+00  0.306530E+00  0.233257E+00  0.180788E+00  0.147952E+00
  0.132372E+00  0.132372E+00  0.147952E+00  0.180788E+00  0.233257E+00  0.306530E+00
  0.398166E+00  0.500785E+00  0.603784E+00  0.697512E+00  0.776261E+00  0.838351E+00
  0.884808E+00  0.918080E+00  0.941053E+00  0.956374E+00  0.966141E+00  0.971857E+00
  0.974481E+00  0.974481E+00  0.971857E+00  0.966141E+00  0.956374E+00  0.941053E+00
  0.918080E+00  0.884808E+00  0.850949E+00  0.801078E+00  0.738712E+00  0.663959E+00
  0.578695E+00  0.487565E+00  0.398166E+00  0.318864E+00  0.255519E+00  0.210423E+00
  0.183687E+00  0.174852E+00  0.183687E+00  0.210423E+00  0.255519E+00  0.318864E+00
  0.398166E+00  0.487565E+00  0.578695E+00  0.663959E+00  0.738712E+00  0.801078E+00
  0.850949E+00  0.889340E+00  0.917925E+00  0.938539E+00  0.952809E+00  0.962027E+00
  0.967152E+00  0.968789E+00  0.967152E+00  0.962027E+00  0.952809E+00  0.938539E+00
  0.917925E+00  0.889340E+00  0.850949E+00  0.818380E+00  0.771957E+00  0.716350E+00
  0.651578E+00  0.578695E+00  0.500785E+00  0.423688E+00  0.354538E+00  0.298971E+00
  0.260280E+00  0.240401E+00  0.240401E+00  0.260280E+00  0.298971E+00  0.354538E+00
  0.423688E+00  0.500785E+00  0.578695E+00  0.651578E+00  0.716350E+00  0.771957E+00
  0.818380E+00  0.856271E+00  0.886724E+00  0.910882E+00  0.929586E+00  0.943292E+00
  0.952247E+00  0.956650E+00  0.956650E+00  0.952247E+00  0.943292E+00  0.929586E+00
  0.910882E+00  0.886724E+00  0.856271E+00  0.818380E+00  0.797929E+00  0.760865E+00
  0.716350E+00  0.663959E+00  0.603784E+00  0.537707E+00  0.470762E+00  0.409915E+00
  0.361393E+00  0.329933E+00  0.318989E+00  0.329933E+00  0.361393E+00  0.409915E+00
  0.470762E+00  0.537707E+00  0.603784E+00  0.663959E+00  0.716350E+00  0.760865E+00
  0.797929E+00  0.828396E+00  0.853612E+00  0.875029E+00  0.893656E+00  0.909675E+00
  0.922395E+00  0.930672E+00  0.933549E+00  0.930672E+00  0.922395E+00  0.909675E+00
  0.893656E+00  0.875029E+00  0.853612E+00  0.828396E+00  0.797929E+00  0.797929E+00
  0.771957E+00  0.738712E+00  0.697512E+00  0.647787E+00  0.591005E+00  0.532288E+00
  0.478920E+00  0.437967E+00  0.415512E+00  0.415512E+00  0.437967E+00  0.478920E+00
  0.532288E+00  0.591005E+00  0.647787E+00  0.697512E+00  0.738712E+00  0.771957E+00
  0.797929E+00  0.817315E+00  0.831330E+00  0.841684E+00  0.850245E+00  0.858674E+00
  0.867735E+00  0.876382E+00  0.881905E+00  0.881905E+00  0.876382E+00  0.867735E+00
  0.858674E+00  0.850245E+00  0.841684E+00  0.831330E+00  0.817315E+00  0.797929E+00
  0.818380E+00  0.801078E+00  0.776261E+00  0.743026E+00  0.700534E+00  0.650538E+00
  0.598611E+00  0.552474E+00  0.520146E+00  0.508428E+00  0.520146E+00  0.552474E+00
  0.598611E+00  0.650538E+00  0.700534E+00  0.743026E+00  0.776261E+00  0.801078E+00
  0.818380E+00  0.828396E+00  0.831330E+00  0.827691E+00  0.818302E+00  0.804888E+00
  0.790939E+00  0.780845E+00  0.776484E+00  0.775677E+00  0.776484E+00  0.780845E+00
  0.790939E+00  0.804888E+00  0.818302E+00  0.827691E+00  0.831330E+00  0.828396E+00
  0.818380E+00  0.850949E+00  0.838351E+00  0.818294E+00  0.789514E+00  0.751302E+00
  0.706074E+00  0.659954E+00  0.621313E+00  0.598933E+00  0.598933E+00  0.621313E+00
  0.659954E+00  0.706074E+00  0.751302E+00  0.789514E+00  0.818294E+00  0.838351E+00
  0.850949E+00  0.856271E+00  0.853612E+00  0.841684E+00  0.818302E+00  0.780815E+00
  0.729236E+00  0.671267E+00  0.622113E+00  0.595061E+00  0.595061E+00  0.622113E+00
  0.671267E+00  0.729236E+00  0.780815E+00  0.818302E+00  0.841684E+00  0.853612E+00
  0.856271E+00  0.850949E+00  0.884808E+00  0.873792E+00  0.855590E+00  0.828684E+00
  0.792854E+00  0.751277E+00  0.710759E+00  0.680479E+00  0.669144E+00  0.680479E+00
  0.710759E+00  0.751277E+00  0.792854E+00  0.828684E+00  0.855590E+00  0.873792E+00
  0.884808E+00  0.889340E+00  0.886724E+00  0.875029E+00  0.850245E+00  0.804888E+00
  0.729236E+00  0.621549E+00  0.504360E+00  0.417237E+00  0.386134E+00  0.417237E+00
  0.504360E+00  0.621549E+00  0.729236E+00  0.804888E+00  0.850245E+00  0.875029E+00
  0.886724E+00  0.889340E+00  0.884808E+00  0.912663E+00  0.901650E+00  0.883758E+00
  0.857489E+00  0.823206E+00  0.784830E+00  0.750167E+00  0.729141E+00  0.729141E+00
  0.750167E+00  0.784830E+00  0.823206E+00  0.857489E+00  0.883758E+00  0.901650E+00
  0.912663E+00  0.918080E+00  0.917925E+00  0.910882E+00  0.893656E+00  0.858674E+00
  0.790939E+00  0.671267E+00  0.504360E+00  0.348998E+00  0.264971E+00  0.264971E+00
  0.348998E+00  0.504360E+00  0.671267E+00  0.790939E+00  0.858674E+00  0.893656E+00
  0.910882E+00  0.917925E+00  0.918080E+00  0.912663E+00  0.932440E+00  0.921000E+00
  0.902860E+00  0.876614E+00  0.843118E+00  0.807366E+00  0.778789E+00  0.767722E+00
  0.778789E+00  0.807366E+00  0.843118E+00  0.876614E+00  0.902860E+00  0.921000E+00
  0.932440E+00  0.938876E+00  0.941053E+00  0.938539E+00  0.929586E+00  0.909675E+00
  0.867735E+00  0.780845E+00  0.622113E+00  0.417237E+00  0.264971E+00  0.215181E+00
  0.264971E+00  0.417237E+00  0.622113E+00  0.780845E+00  0.867735E+00  0.909675E+00
  0.929586E+00  0.938539E+00  0.941053E+00  0.938876E+00  0.932440E+00  0.945353E+00
  0.933366E+00  0.914412E+00  0.887074E+00  0.852917E+00  0.818992E+00  0.797124E+00
  0.797124E+00  0.818992E+00  0.852917E+00  0.887074E+00  0.914412E+00  0.933366E+00
  0.945353E+00  0.952446E+00  0.956025E+00  0.956374E+00  0.952809E+00  0.943292E+00
  0.922395E+00  0.876382E+00  0.776484E+00  0.595061E+00  0.386134E+00  0.264971E+00
  0.264971E+00  0.386134E+00  0.595061E+00  0.776484E+00  0.876382E+00  0.922395E+00
  0.943292E+00  0.952809E+00  0.956374E+00  0.956025E+00  0.952446E+00  0.945353E+00
  0.953239E+00  0.940147E+00  0.919071E+00  0.888546E+00  0.851650E+00  0.819209E+00
  0.806003E+00  0.819209E+00  0.851650E+00  0.888546E+00  0.919071E+00  0.940147E+00
  0.953239E+00  0.960896E+00  0.965128E+00  0.966889E+00  0.966141E+00  0.962027E+00
  0.952247E+00  0.930672E+00  0.881905E+00  0.775677E+00  0.595061E+00  0.417237E+00
  0.348998E+00  0.417237E+00  0.595061E+00  0.775677E+00  0.881905E+00  0.930672E+00
  0.952247E+00  0.962027E+00  0.966141E+00  0.966889E+00  0.965128E+00  0.960896E+00
  0.953239E+00  0.957117E+00  0.941667E+00  0.916105E+00  0.878923E+00  0.836570E+00
  0.806658E+00  0.806658E+00  0.836570E+00  0.878923E+00  0.916105E+00  0.941667E+00
  0.957117E+00  0.965842E+00  0.970562E+00  0.972897E+00  0.973419E+00  0.971857E+00
  0.967152E+00  0.956650E+00  0.933549E+00  0.881905E+00  0.776484E+00  0.622113E+00
  0.504360E+00  0.504360E+00  0.622113E+00  0.776484E+00  0.881905E+00  0.933549E+00
  0.956650E+00  0.967152E+00  0.971857E+00  0.973419E+00  0.972897E+00  0.970562E+00
  0.965842E+00  0.957117E+00  0.957107E+00  0.937027E+00  0.902353E+00  0.851935E+00
  0.800604E+00  0.778058E+00  0.800604E+00  0.851935E+00  0.902353E+00  0.937027E+00
  0.957107E+00  0.967940E+00  0.973561E+00  0.976299E+00  0.977315E+00  0.976874E+00
  0.974481E+00  0.968789E+00  0.956650E+00  0.930672E+00  0.876382E+00  0.780845E+00
  0.671267E+00  0.621549E+00  0.671267E+00  0.780845E+00  0.876382E+00  0.930672E+00
  0.956650E+00  0.968789E+00  0.974481E+00  0.976874E+00  0.977315E+00  0.976299E+00
  0.973561E+00  0.967940E+00  0.957107E+00  0.952247E+00  0.922395E+00  0.867735E+00
  0.790939E+00  0.729236E+00  0.729236E+00  0.790939E+00  0.867735E+00  0.922395E+00
  0.952247E+00  0.967152E+00  0.974481E+00  0.977951E+00  0.979310E+00  0.979310E+00
  0.977951E+00  0.974481E+00  0.967152E+00  0.952247E+00  0.922395E+00  0.867735E+00
  0.790939E+00  0.729236E+00  0.729236E+00  0.790939E+00  0.867735E+00  0.922395E+00
  0.952247E+00  0.967152E+00  0.974481E+00  0.977951E+00  0.979310E+00  0.979310E+00
  0.977951E+00  0.974481E+00  0.967152E+00  0.952247E+00  0.938496E+00  0.885164E+00
  0.784361E+00  0.662448E+00  0.606031E+00  0.662448E+00  0.784361E+00  0.885164E+00
  0.938496E+00  0.962435E+00  0.973107E+00  0.977953E+00  0.979933E+00  0.980246E+00
  0.979310E+00  0.976874E+00  0.971857E+00  0.962027E+00  0.943292E+00  0.909675E+00
  0.858674E+00  0.804888E+00  0.780815E+00  0.804888E+00  0.858674E+00  0.909675E+00
  0.943292E+00  0.962027E+00  0.971857E+00  0.976874E+00  0.979310E+00  0.980246E+00
  0.979933E+00  0.977953E+00  0.973107E+00  0.962435E+00  0.938496E+00  0.902628E+00
  0.789090E+00  0.596986E+00  0.443838E+00  0.443838E+00  0.596986E+00  0.789090E+00
  0.902628E+00  0.949711E+00  0.968205E+00  0.975858E+00  0.979037E+00  0.979933E+00
  0.979310E+00  0.977315E+00  0.973419E+00  0.966141E+00  0.952809E+00  0.929586E+00
  0.893656E+00  0.850245E+00  0.818302E+00  0.818302E+00  0.850245E+00  0.893656E+00
  0.929586E+00  0.952809E+00  0.966141E+00  0.973419E+00  0.977315E+00  0.979310E+00
  0.979933E+00  0.979037E+00  0.975858E+00  0.968205E+00  0.949711E+00  0.902628E+00
  0.805505E+00  0.562078E+00  0.304696E+00  0.216884E+00  0.304696E+00  0.562078E+00
  0.805505E+00  0.915868E+00  0.955406E+00  0.970060E+00  0.975858E+00  0.977953E+00
  0.977951E+00  0.976299E+00  0.972897E+00  0.966889E+00  0.956374E+00  0.938539E+00
  0.910882E+00  0.875029E+00  0.841684E+00  0.827691E+00  0.841684E+00  0.875029E+00
  0.910882E+00  0.938539E+00  0.956374E+00  0.966889E+00  0.972897E+00  0.976299E+00
  0.977951E+00  0.977953E+00  0.975858E+00  0.970060E+00  0.955406E+00  0.915868E+00
  0.805505E+00  0.564518E+00  0.233054E+00  0.915576E-01  0.915576E-01  0.233054E+00
  0.564518E+00  0.820760E+00  0.920791E+00  0.955406E+00  0.968205E+00  0.973107E+00
  0.974481E+00  0.973561E+00  0.970562E+00  0.965128E+00  0.956025E+00  0.941053E+00
  0.917925E+00  0.886724E+00  0.853612E+00  0.831330E+00  0.831330E+00  0.853612E+00
  0.886724E+00  0.917925E+00  0.941053E+00  0.956025E+00  0.965128E+00  0.970562E+00
  0.973561E+00  0.974481E+00  0.973107E+00  0.968205E+00  0.955406E+00  0.920791E+00
  0.820760E+00  0.564518E+00  0.214687E+00  0.482593E-01  0.219171E-01  0.482593E-01
  0.214687E+00  0.573444E+00  0.820760E+00  0.915868E+00  0.949711E+00  0.962435E+00
  0.967152E+00  0.967940E+00  0.965842E+00  0.960896E+00  0.952446E+00  0.938876E+00
  0.918080E+00  0.889340E+00  0.856271E+00  0.828396E+00  0.817315E+00  0.828396E+00
  0.856271E+00  0.889340E+00  0.918080E+00  0.938876E+00  0.952446E+00  0.960896E+00
  0.965842E+00  0.967940E+00  0.967152E+00  0.962435E+00  0.949711E+00  0.915868E+00
  0.820760E+00  0.573444E+00  0.214687E+00  0.390039E-01  0.778269E-02  0.778269E-02
  0.390039E-01  0.214687E+00  0.564518E+00  0.805505E+00  0.902628E+00  0.938496E+00
  0.952247E+00  0.957107E+00  0.957117E+00  0.953239E+00  0.945353E+00  0.932440E+00
  0.912663E+00  0.884808E+00  0.850949E+00  0.818380E+00  0.797929E+00  0.797929E+00
  0.818380E+00  0.850949E+00  0.884808E+00  0.912663E+00  0.932440E+00  0.945353E+00
  0.953239E+00  0.957117E+00  0.957107E+00  0.952247E+00  0.938496E+00  0.902628E+00
  0.805505E+00  0.564518E+00  0.214687E+00  0.390039E-01  0.280581E-02  0.627272E-03
  0.280581E-02  0.340784E-01  0.217212E+00  0.564518E+00  0.799822E+00  0.895241E+00
  0.930672E+00  0.944061E+00  0.948129E+00  0.946565E+00  0.940107E+00  0.928375E+00
  0.909997E+00  0.883345E+00  0.849008E+00  0.812443E+00  0.783640E+00  0.772632E+00
  0.783640E+00  0.812443E+00  0.849008E+00  0.883345E+00  0.909997E+00  0.928375E+00
  0.940107E+00  0.946565E+00  0.948129E+00  0.944061E+00  0.930672E+00  0.895241E+00
  0.799822E+00  0.564518E+00  0.217212E+00  0.340784E-01  0.280581E-02  0.627272E-03
  0.627272E-03  0.479589E-02  0.444108E-01  0.233054E+00  0.562588E+00  0.783687E+00
  0.876382E+00  0.912300E+00  0.925971E+00  0.929061E+00  0.924940E+00  0.914279E+00
  0.896443E+00  0.869890E+00  0.834202E+00  0.793306E+00  0.756335E+00  0.734199E+00
  0.734199E+00  0.756335E+00  0.793306E+00  0.834202E+00  0.869890E+00  0.896443E+00
  0.914279E+00  0.924940E+00  0.929061E+00  0.925971E+00  0.912300E+00  0.876382E+00
  0.783687E+00  0.562588E+00  0.233054E+00  0.444108E-01  0.479589E-02  0.627272E-03
  0.280581E-02  0.479589E-02  0.187832E-01  0.915576E-01  0.315231E+00  0.604698E+00
  0.780845E+00  0.858063E+00  0.889881E+00  0.901455E+00  0.901506E+00  0.892673E+00
  0.875418E+00  0.848811E+00  0.811875E+00  0.767015E+00  0.722272E+00  0.688982E+00
  0.676670E+00  0.688982E+00  0.722272E+00  0.767015E+00  0.811875E+00  0.848811E+00
  0.875418E+00  0.892673E+00  0.901506E+00  0.901455E+00  0.889881E+00  0.858063E+00
  0.780845E+00  0.604698E+00  0.315231E+00  0.915576E-01  0.187832E-01  0.479589E-02
  0.280581E-02  0.340784E-01  0.444108E-01  0.915576E-01  0.229521E+00  0.464263E+00
  0.671267E+00  0.786775E+00  0.840627E+00  0.863434E+00  0.869174E+00  0.862867E+00
  0.846161E+00  0.819070E+00  0.780730E+00  0.732368E+00  0.680650E+00  0.636737E+00
  0.611545E+00  0.611545E+00  0.636737E+00  0.680650E+00  0.732368E+00  0.780730E+00
  0.819070E+00  0.846161E+00  0.862867E+00  0.869174E+00  0.863434E+00  0.840627E+00
  0.786775E+00  0.671267E+00  0.464263E+00  0.229521E+00  0.915576E-01  0.444108E-01
  0.340784E-01  0.340784E-01  0.217212E+00  0.233054E+00  0.315231E+00  0.464263E+00
  0.621549E+00  0.731923E+00  0.793025E+00  0.822259E+00  0.831886E+00  0.827277E+00
  0.810442E+00  0.781976E+00  0.741465E+00  0.689542E+00  0.631625E+00  0.578216E+00
  0.540677E+00  0.527183E+00  0.540677E+00  0.578216E+00  0.631625E+00  0.689542E+00
  0.741465E+00  0.781976E+00  0.810442E+00  0.827277E+00  0.831886E+00  0.822259E+00
  0.793025E+00  0.731923E+00  0.621549E+00  0.464263E+00  0.315231E+00  0.233054E+00
  0.217212E+00  0.223792E+00  0.217212E+00  0.564518E+00  0.562588E+00  0.604698E+00
  0.671267E+00  0.731923E+00  0.772689E+00  0.794169E+00  0.800266E+00  0.793206E+00
  0.773732E+00  0.742102E+00  0.698049E+00  0.641901E+00  0.578122E+00  0.516486E+00
  0.468131E+00  0.441640E+00  0.441640E+00  0.468131E+00  0.516486E+00  0.578122E+00
  0.641901E+00  0.698049E+00  0.742102E+00  0.773732E+00  0.793206E+00  0.800266E+00
  0.794169E+00  0.772689E+00  0.731923E+00  0.671267E+00  0.604698E+00  0.562588E+00
  0.564518E+00  0.587777E+00  0.587777E+00  0.564518E+00  0.799822E+00  0.783687E+00
  0.780845E+00  0.786775E+00  0.793025E+00  0.794169E+00  0.787639E+00  0.771741E+00
  0.745125E+00  0.707087E+00  0.657192E+00  0.595540E+00  0.525774E+00  0.456937E+00
  0.399717E+00  0.362163E+00  0.349086E+00  0.362163E+00  0.399717E+00  0.456937E+00
  0.525774E+00  0.595540E+00  0.657192E+00  0.707087E+00  0.745125E+00  0.771741E+00
  0.787639E+00  0.794169E+00  0.793025E+00  0.786775E+00  0.780845E+00  0.783687E+00
  0.799822E+00  0.820760E+00  0.830327E+00  0.820760E+00  0.799822E+00  0.895241E+00
  0.876382E+00  0.858063E+00  0.840627E+00  0.822259E+00  0.800266E+00  0.771741E+00
  0.734179E+00  0.686171E+00  0.627275E+00  0.557842E+00  0.481145E+00  0.405504E+00
  0.341058E+00  0.294936E+00  0.270956E+00  0.270956E+00  0.294936E+00  0.341058E+00
  0.405504E+00  0.481145E+00  0.557842E+00  0.627275E+00  0.686171E+00  0.734179E+00
  0.771741E+00  0.800266E+00  0.822259E+00  0.840627E+00  0.858063E+00  0.876382E+00
  0.895241E+00  0.911439E+00  0.920791E+00  0.920791E+00  0.911439E+00  0.895241E+00
  0.930672E+00  0.912300E+00  0.889881E+00  0.863434E+00  0.831886E+00  0.793206E+00
  0.745125E+00  0.686171E+00  0.616176E+00  0.536362E+00  0.450686E+00  0.367405E+00
  0.296263E+00  0.243483E+00  0.211341E+00  0.200556E+00  0.211341E+00  0.243483E+00
  0.296263E+00  0.367405E+00  0.450686E+00  0.536362E+00  0.616176E+00  0.686171E+00
  0.745125E+00  0.793206E+00  0.831886E+00  0.863434E+00  0.889881E+00  0.912300E+00
  0.930672E+00  0.944323E+00  0.952636E+00  0.955406E+00  0.952636E+00  0.944323E+00
  0.930672E+00  0.944061E+00  0.925971E+00  0.901455E+00  0.869174E+00  0.827277E+00
  0.773732E+00  0.707087E+00  0.627275E+00  0.536362E+00  0.439792E+00  0.346987E+00
  0.268136E+00  0.209087E+00  0.170709E+00  0.151939E+00  0.151939E+00  0.170709E+00
  0.209087E+00  0.268136E+00  0.346987E+00  0.439792E+00  0.536362E+00  0.627275E+00
  0.707087E+00  0.773732E+00  0.827277E+00  0.869174E+00  0.901455E+00  0.925971E+00
  0.944061E+00  0.956650E+00  0.964485E+00  0.968205E+00  0.968205E+00  0.964485E+00
  0.956650E+00  0.944061E+00  0.948129E+00  0.929061E+00  0.901506E+00  0.862867E+00
  0.810442E+00  0.742102E+00  0.657192E+00  0.557842E+00  0.450686E+00  0.346987E+00
  0.258533E+00  0.191940E+00  0.147533E+00  0.122620E+00  0.114642E+00  0.122620E+00
  0.147533E+00  0.191940E+00  0.258533E+00  0.346987E+00  0.450686E+00  0.557842E+00
  0.657192E+00  0.742102E+00  0.810442E+00  0.862867E+00  0.901506E+00  0.929061E+00
  0.948129E+00  0.960838E+00  0.968789E+00  0.973107E+00  0.974471E+00  0.973107E+00
  0.968789E+00  0.960838E+00  0.948129E+00  0.946565E+00  0.924940E+00  0.892673E+00
  0.846161E+00  0.781976E+00  0.698049E+00  0.595540E+00  0.481145E+00  0.367405E+00
  0.268136E+00  0.191940E+00  0.140055E+00  0.109116E+00  0.949373E-01  0.949373E-01
  0.109116E+00  0.140055E+00  0.191940E+00  0.268136E+00  0.367405E+00  0.481145E+00
  0.595540E+00  0.698049E+00  0.781976E+00  0.846161E+00  0.892673E+00  0.924940E+00
  0.946565E+00  0.960622E+00  0.969408E+00  0.974481E+00  0.976792E+00  0.976792E+00
  0.974481E+00  0.969408E+00  0.960622E+00  0.946565E+00  0.940107E+00  0.914279E+00
  0.875418E+00  0.819070E+00  0.741465E+00  0.641901E+00  0.525774E+00  0.405504E+00
  0.296263E+00  0.209087E+00  0.147533E+00  0.109116E+00  0.888698E-01  0.826370E-01
  0.888698E-01  0.109116E+00  0.147533E+00  0.209087E+00  0.296263E+00  0.405504E+00
  0.525774E+00  0.641901E+00  0.741465E+00  0.819070E+00  0.875418E+00  0.914279E+00
  0.940107E+00  0.956802E+00  0.967287E+00  0.973561E+00  0.976874E+00  0.977906E+00
  0.976874E+00  0.973561E+00  0.967287E+00  0.956802E+00  0.940107E+00  0.928375E+00
  0.896443E+00  0.848811E+00  0.780730E+00  0.689542E+00  0.578122E+00  0.456937E+00
  0.341058E+00  0.243483E+00  0.170709E+00  0.122620E+00  0.949373E-01  0.826370E-01
  0.826370E-01  0.949373E-01  0.122620E+00  0.170709E+00  0.243483E+00  0.341058E+00
  0.456937E+00  0.578122E+00  0.689542E+00  0.780730E+00  0.848811E+00  0.896443E+00
  0.928375E+00  0.949183E+00  0.962421E+00  0.970562E+00  0.975211E+00  0.977315E+00
  0.977315E+00  0.975211E+00  0.970562E+00  0.962421E+00  0.949183E+00  0.928375E+00
  0.909997E+00  0.869890E+00  0.811875E+00  0.732368E+00  0.631625E+00  0.516486E+00
  0.399717E+00  0.294936E+00  0.211341E+00  0.151939E+00  0.114642E+00  0.949373E-01
  0.888698E-01  0.949373E-01  0.114642E+00  0.151939E+00  0.211341E+00  0.294936E+00
  0.399717E+00  0.516486E+00  0.631625E+00  0.732368E+00  0.811875E+00  0.869890E+00
  0.909997E+00  0.936757E+00  0.954147E+00  0.965128E+00  0.971722E+00  0.975211E+00
  0.976299E+00  0.975211E+00  0.971722E+00  0.965128E+00  0.954147E+00  0.936757E+00
  0.909997E+00  0.883345E+00  0.834202E+00  0.767015E+00  0.680650E+00  0.578216E+00
  0.468131E+00  0.362163E+00  0.270956E+00  0.200556E+00  0.151939E+00  0.122620E+00
  0.109116E+00  0.109116E+00  0.122620E+00  0.151939E+00  0.200556E+00  0.270956E+00
  0.362163E+00  0.468131E+00  0.578216E+00  0.680650E+00  0.767015E+00  0.834202E+00
  0.883345E+00  0.917684E+00  0.940864E+00  0.956025E+00  0.965541E+00  0.971048E+00
  0.973561E+00  0.973561E+00  0.971048E+00  0.965541E+00  0.956025E+00  0.940864E+00
  0.917684E+00  0.883345E+00  0.849008E+00  0.793306E+00  0.722272E+00  0.636737E+00
  0.540677E+00  0.441640E+00  0.349086E+00  0.270956E+00  0.211341E+00  0.170709E+00
  0.147533E+00  0.140055E+00  0.147533E+00  0.170709E+00  0.211341E+00  0.270956E+00
  0.349086E+00  0.441640E+00  0.540677E+00  0.636737E+00  0.722272E+00  0.793306E+00
  0.849008E+00  0.890613E+00  0.920437E+00  0.941053E+00  0.954747E+00  0.963297E+00
  0.967940E+00  0.969408E+00  0.967940E+00  0.963297E+00  0.954747E+00  0.941053E+00
  0.920437E+00  0.890613E+00  0.849008E+00  0.812443E+00  0.756335E+00  0.688982E+00
  0.611545E+00  0.527183E+00  0.441640E+00  0.362163E+00  0.294936E+00  0.243483E+00
  0.209087E+00  0.191940E+00  0.191940E+00  0.209087E+00  0.243483E+00  0.294936E+00
  0.362163E+00  0.441640E+00  0.527183E+00  0.611545E+00  0.688982E+00  0.756335E+00
  0.812443E+00  0.857373E+00  0.892051E+00  0.917925E+00  0.936544E+00  0.949255E+00
  0.957107E+00  0.960838E+00  0.960838E+00  0.957107E+00  0.949255E+00  0.936544E+00
  0.917925E+00  0.892051E+00  0.857373E+00  0.812443E+00  0.783640E+00  0.734199E+00
  0.676670E+00  0.611545E+00  0.540677E+00  0.468131E+00  0.399717E+00  0.341058E+00
  0.296263E+00  0.268136E+00  0.258533E+00  0.268136E+00  0.296263E+00  0.341058E+00
  0.399717E+00  0.468131E+00  0.540677E+00  0.611545E+00  0.676670E+00  0.734199E+00
  0.783640E+00  0.825123E+00  0.859200E+00  0.886724E+00  0.908541E+00  0.925222E+00
  0.937027E+00  0.944061E+00  0.946395E+00  0.944061E+00  0.937027E+00  0.925222E+00
  0.908541E+00  0.886724E+00  0.859200E+00  0.825123E+00  0.783640E+00  0.772632E+00
  0.734199E+00  0.688982E+00  0.636737E+00  0.578216E+00  0.516486E+00  0.456937E+00
  0.405504E+00  0.367405E+00  0.346987E+00  0.346987E+00  0.367405E+00  0.405504E+00
  0.456937E+00  0.516486E+00  0.578216E+00  0.636737E+00  0.688982E+00  0.734199E+00
  0.772632E+00  0.804767E+00  0.831390E+00  0.853612E+00  0.872543E+00  0.888829E+00
  0.902353E+00  0.912300E+00  0.917622E+00  0.917622E+00  0.912300E+00  0.902353E+00
  0.888829E+00  0.872543E+00  0.853612E+00  0.831390E+00  0.804767E+00  0.772632E+00
  0.783640E+00  0.756335E+00  0.722272E+00  0.680650E+00  0.631625E+00  0.578122E+00
  0.525774E+00  0.481145E+00  0.450686E+00  0.439792E+00  0.450686E+00  0.481145E+00
  0.525774E+00  0.578122E+00  0.631625E+00  0.680650E+00  0.722272E+00  0.756335E+00
  0.783640E+00  0.804767E+00  0.820310E+00  0.831330E+00  0.839294E+00  0.845759E+00
  0.851935E+00  0.858063E+00  0.863012E+00  0.864962E+00  0.863012E+00  0.858063E+00
  0.851935E+00  0.845759E+00  0.839294E+00  0.831330E+00  0.820310E+00  0.804767E+00
  0.783640E+00  0.812443E+00  0.793306E+00  0.767015E+00  0.732368E+00  0.689542E+00
  0.641901E+00  0.595540E+00  0.557842E+00  0.536362E+00  0.536362E+00  0.557842E+00
  0.595540E+00  0.641901E+00  0.689542E+00  0.732368E+00  0.767015E+00  0.793306E+00
  0.812443E+00  0.825123E+00  0.831390E+00  0.831330E+00  0.825394E+00  0.814523E+00
  0.800604E+00  0.786775E+00  0.776412E+00  0.771243E+00  0.771243E+00  0.776412E+00
  0.786775E+00  0.800604E+00  0.814523E+00  0.825394E+00  0.831330E+00  0.831390E+00
  0.825123E+00  0.812443E+00  0.849008E+00  0.834202E+00  0.811875E+00  0.780730E+00
  0.741465E+00  0.698049E+00  0.657192E+00  0.627275E+00  0.616176E+00  0.627275E+00
  0.657192E+00  0.698049E+00  0.741465E+00  0.780730E+00  0.811875E+00  0.834202E+00
  0.849008E+00  0.857373E+00  0.859200E+00  0.853612E+00  0.839294E+00  0.814523E+00
  0.778058E+00  0.731923E+00  0.684389E+00  0.648433E+00  0.635102E+00  0.648433E+00
  0.684389E+00  0.731923E+00  0.778058E+00  0.814523E+00  0.839294E+00  0.853612E+00
  0.859200E+00  0.857373E+00  0.849008E+00  0.883345E+00  0.869890E+00  0.848811E+00
  0.819070E+00  0.781976E+00  0.742102E+00  0.707087E+00  0.686171E+00  0.686171E+00
  0.707087E+00  0.742102E+00  0.781976E+00  0.819070E+00  0.848811E+00  0.869890E+00
  0.883345E+00  0.890613E+00  0.892051E+00  0.886724E+00  0.872543E+00  0.845759E+00
  0.800604E+00  0.731923E+00  0.643880E+00  0.558353E+00  0.505925E+00  0.505925E+00
  0.558353E+00  0.643880E+00  0.731923E+00  0.800604E+00  0.845759E+00  0.872543E+00
  0.886724E+00  0.892051E+00  0.890613E+00  0.883345E+00  0.909997E+00  0.896443E+00
  0.875418E+00  0.846161E+00  0.810442E+00  0.773732E+00  0.745125E+00  0.734179E+00
  0.745125E+00  0.773732E+00  0.810442E+00  0.846161E+00  0.875418E+00  0.896443E+00
  0.909997E+00  0.917684E+00  0.920437E+00  0.917925E+00  0.908541E+00  0.888829E+00
  0.851935E+00  0.786775E+00  0.684389E+00  0.558353E+00  0.454286E+00  0.415066E+00
  0.454286E+00  0.558353E+00  0.684389E+00  0.786775E+00  0.851935E+00  0.888829E+00
  0.908541E+00  0.917925E+00  0.920437E+00  0.917684E+00  0.909997E+00  0.928375E+00
  0.914279E+00  0.892673E+00  0.862867E+00  0.827277E+00  0.793206E+00  0.771741E+00
  0.771741E+00  0.793206E+00  0.827277E+00  0.862867E+00  0.892673E+00  0.914279E+00
  0.928375E+00  0.936757E+00  0.940864E+00  0.941053E+00  0.936544E+00  0.925222E+00
  0.902353E+00  0.858063E+00  0.776412E+00  0.648433E+00  0.505925E+00  0.415066E+00
  0.415066E+00  0.505925E+00  0.648433E+00  0.776412E+00  0.858063E+00  0.902353E+00
  0.925222E+00  0.936544E+00  0.941053E+00  0.940864E+00  0.936757E+00  0.928375E+00
  0.940107E+00  0.924940E+00  0.901506E+00  0.869174E+00  0.831886E+00  0.800266E+00
  0.787639E+00  0.800266E+00  0.831886E+00  0.869174E+00  0.901506E+00  0.924940E+00
  0.940107E+00  0.949183E+00  0.954147E+00  0.956025E+00  0.954747E+00  0.949255E+00
  0.937027E+00  0.912300E+00  0.863012E+00  0.771243E+00  0.635102E+00  0.505925E+00
  0.454286E+00  0.505925E+00  0.635102E+00  0.771243E+00  0.863012E+00  0.912300E+00
  0.937027E+00  0.949255E+00  0.954747E+00  0.956025E+00  0.954147E+00  0.949183E+00
  0.940107E+00  0.946565E+00  0.929061E+00  0.901455E+00  0.863434E+00  0.822259E+00
  0.794169E+00  0.794169E+00  0.822259E+00  0.863434E+00  0.901455E+00  0.929061E+00
  0.946565E+00  0.956802E+00  0.962421E+00  0.965128E+00  0.965541E+00  0.963297E+00
  0.957107E+00  0.944061E+00  0.917622E+00  0.864962E+00  0.771243E+00  0.648433E+00
  0.558353E+00  0.558353E+00  0.648433E+00  0.771243E+00  0.864962E+00  0.917622E+00
  0.944061E+00  0.957107E+00  0.963297E+00  0.965541E+00  0.965128E+00  0.962421E+00
  0.956802E+00  0.946565E+00  0.948129E+00  0.925971E+00  0.889881E+00  0.840627E+00
  0.793025E+00  0.772689E+00  0.793025E+00  0.840627E+00  0.889881E+00  0.925971E+00
  0.948129E+00  0.960622E+00  0.967287E+00  0.970562E+00  0.971722E+00  0.971048E+00
  0.967940E+00  0.960838E+00  0.946395E+00  0.917622E+00  0.863012E+00  0.776412E+00
  0.684389E+00  0.643880E+00  0.684389E+00  0.776412E+00  0.863012E+00  0.917622E+00
  0.946395E+00  0.960838E+00  0.967940E+00  0.971048E+00  0.971722E+00  0.970562E+00
  0.967287E+00  0.960622E+00  0.948129E+00  0.944061E+00  0.912300E+00  0.858063E+00
  0.786775E+00  0.731923E+00  0.731923E+00  0.786775E+00  0.858063E+00  0.912300E+00
  0.944061E+00  0.960838E+00  0.969408E+00  0.973561E+00  0.975211E+00  0.975211E+00
  0.973561E+00  0.969408E+00  0.960838E+00  0.944061E+00  0.912300E+00  0.858063E+00
  0.786775E+00  0.731923E+00  0.731923E+00  0.786775E+00  0.858063E+00  0.912300E+00
  0.944061E+00  0.960838E+00  0.969408E+00  0.973561E+00  0.975211E+00  0.975211E+00
  0.973561E+00  0.969408E+00  0.960838E+00  0.944061E+00  0.930672E+00  0.876382E+00
  0.780845E+00  0.671267E+00  0.621549E+00  0.671267E+00  0.780845E+00  0.876382E+00
  0.930672E+00  0.956650E+00  0.968789E+00  0.974481E+00  0.976874E+00  0.977315E+00
  0.976299E+00  0.973561E+00  0.967940E+00  0.957107E+00  0.937027E+00  0.902353E+00
  0.851935E+00  0.800604E+00  0.778058E+00  0.800604E+00  0.851935E+00  0.902353E+00
  0.937027E+00  0.957107E+00  0.967940E+00  0.973561E+00  0.976299E+00  0.977315E+00
  0.976874E+00  0.974481E+00  0.968789E+00  0.956650E+00  0.930672E+00  0.895241E+00
  0.783687E+00  0.604698E+00  0.464263E+00  0.464263E+00  0.604698E+00  0.783687E+00
  0.895241E+00  0.944323E+00  0.964485E+00  0.973107E+00  0.976792E+00  0.977906E+00
  0.977315E+00  0.975211E+00  0.971048E+00  0.963297E+00  0.949255E+00  0.925222E+00
  0.888829E+00  0.845759E+00  0.814523E+00  0.814523E+00  0.845759E+00  0.888829E+00
  0.925222E+00  0.949255E+00  0.963297E+00  0.971048E+00  0.975211E+00  0.977315E+00
  0.977906E+00  0.976792E+00  0.973107E+00  0.964485E+00  0.944323E+00  0.895241E+00
  0.799822E+00  0.562588E+00  0.315231E+00  0.229521E+00  0.315231E+00  0.562588E+00
  0.799822E+00  0.911439E+00  0.952636E+00  0.968205E+00  0.974471E+00  0.976792E+00
  0.976874E+00  0.975211E+00  0.971722E+00  0.965541E+00  0.954747E+00  0.936544E+00
  0.908541E+00  0.872543E+00  0.839294E+00  0.825394E+00  0.839294E+00  0.872543E+00
  0.908541E+00  0.936544E+00  0.954747E+00  0.965541E+00  0.971722E+00  0.975211E+00
  0.976874E+00  0.976792E+00  0.974471E+00  0.968205E+00  0.952636E+00  0.911439E+00
  0.799822E+00  0.564518E+00  0.233054E+00  0.915576E-01  0.915576E-01  0.233054E+00
  0.564518E+00  0.820760E+00  0.920791E+00  0.955406E+00  0.968205E+00  0.973107E+00
  0.974481E+00  0.973561E+00  0.970562E+00  0.965128E+00  0.956025E+00  0.941053E+00
  0.917925E+00  0.886724E+00  0.853612E+00  0.831330E+00  0.831330E+00  0.853612E+00
  0.886724E+00  0.917925E+00  0.941053E+00  0.956025E+00  0.965128E+00  0.970562E+00
  0.973561E+00  0.974481E+00  0.973107E+00  0.968205E+00  0.955406E+00  0.920791E+00
  0.820760E+00  0.564518E+00  0.217212E+00  0.444108E-01  0.187832E-01  0.444108E-01
  0.217212E+00  0.587777E+00  0.830327E+00  0.920791E+00  0.952636E+00  0.964485E+00
  0.968789E+00  0.969408E+00  0.967287E+00  0.962421E+00  0.954147E+00  0.940864E+00
  0.920437E+00  0.892051E+00  0.859200E+00  0.831390E+00  0.820310E+00  0.831390E+00
  0.859200E+00  0.892051E+00  0.920437E+00  0.940864E+00  0.954147E+00  0.962421E+00
  0.967287E+00  0.969408E+00  0.968789E+00  0.964485E+00  0.952636E+00  0.920791E+00
  0.830327E+00  0.587777E+00  0.217212E+00  0.340784E-01  0.479589E-02  0.479589E-02
  0.340784E-01  0.223792E+00  0.587777E+00  0.820760E+00  0.911439E+00  0.944323E+00
  0.956650E+00  0.960838E+00  0.960622E+00  0.956802E+00  0.949183E+00  0.936757E+00
  0.917684E+00  0.890613E+00  0.857373E+00  0.825123E+00  0.804767E+00  0.804767E+00
  0.825123E+00  0.857373E+00  0.890613E+00  0.917684E+00  0.936757E+00  0.949183E+00
  0.956802E+00  0.960622E+00  0.960838E+00  0.956650E+00  0.944323E+00  0.911439E+00
  0.820760E+00  0.587777E+00  0.223792E+00  0.340784E-01  0.280581E-02  0.627272E-03
  0.280581E-02  0.340784E-01  0.217212E+00  0.564518E+00  0.799822E+00  0.895241E+00
  0.930672E+00  0.944061E+00  0.948129E+00  0.946565E+00  0.940107E+00  0.928375E+00
  0.909997E+00  0.883345E+00  0.849008E+00  0.812443E+00  0.783640E+00  0.772632E+00
  0.783640E+00  0.812443E+00  0.849008E+00  0.883345E+00  0.909997E+00  0.928375E+00
  0.940107E+00  0.946565E+00  0.948129E+00  0.944061E+00  0.930672E+00  0.895241E+00
  0.799822E+00  0.564518E+00  0.217212E+00  0.340784E-01  0.280581E-02  0.836674E-04
  0.836674E-04  0.216387E-02  0.340784E-01  0.214687E+00  0.555109E+00  0.786933E+00
  0.881905E+00  0.917622E+00  0.930907E+00  0.933893E+00  0.929953E+00  0.919685E+00
  0.902446E+00  0.876685E+00  0.841820E+00  0.801535E+00  0.764890E+00  0.742887E+00
  0.742887E+00  0.764890E+00  0.801535E+00  0.841820E+00  0.876685E+00  0.902446E+00
  0.919685E+00  0.929953E+00  0.933893E+00  0.930907E+00  0.917622E+00  0.881905E+00
  0.786933E+00  0.555109E+00  0.214687E+00  0.340784E-01  0.216387E-02  0.836674E-04
  0.836674E-04  0.356834E-03  0.479589E-02  0.482593E-01  0.247506E+00  0.570338E+00
  0.776484E+00  0.863012E+00  0.896997E+00  0.909232E+00  0.909889E+00  0.901853E+00
  0.885603E+00  0.860241E+00  0.824639E+00  0.780827E+00  0.736650E+00  0.703605E+00
  0.691368E+00  0.703605E+00  0.736650E+00  0.780827E+00  0.824639E+00  0.860241E+00
  0.885603E+00  0.901853E+00  0.909889E+00  0.909232E+00  0.896997E+00  0.863012E+00
  0.776484E+00  0.570338E+00  0.247506E+00  0.482593E-01  0.479589E-02  0.356834E-03
  0.836674E-04  0.216387E-02  0.479589E-02  0.219171E-01  0.109806E+00  0.350933E+00
  0.622113E+00  0.776412E+00  0.844128E+00  0.871856E+00  0.880071E+00  0.875698E+00
  0.860867E+00  0.835769E+00  0.799498E+00  0.752806E+00  0.701939E+00  0.658266E+00
  0.633130E+00  0.633130E+00  0.658266E+00  0.701939E+00  0.752806E+00  0.799498E+00
  0.835769E+00  0.860867E+00  0.875698E+00  0.880071E+00  0.871856E+00  0.844128E+00
  0.776412E+00  0.622113E+00  0.350933E+00  0.109806E+00  0.219171E-01  0.479589E-02
  0.216387E-02  0.216387E-02  0.340784E-01  0.482593E-01  0.109806E+00  0.271466E+00
  0.504360E+00  0.684389E+00  0.780322E+00  0.824561E+00  0.841543E+00  0.841629E+00
  0.828502E+00  0.803384E+00  0.766087E+00  0.716829E+00  0.660301E+00  0.607066E+00
  0.569300E+00  0.555703E+00  0.569300E+00  0.607066E+00  0.660301E+00  0.716829E+00
  0.766087E+00  0.803384E+00  0.828502E+00  0.841629E+00  0.841543E+00  0.824561E+00
  0.780322E+00  0.684389E+00  0.504360E+00  0.271466E+00  0.109806E+00  0.482593E-01
  0.340784E-01  0.338326E-01  0.340784E-01  0.214687E+00  0.247506E+00  0.350933E+00
  0.504360E+00  0.643880E+00  0.733870E+00  0.781559E+00  0.802133E+00  0.804360E+00
  0.791772E+00  0.765762E+00  0.726635E+00  0.674555E+00  0.613096E+00  0.551750E+00
  0.502683E+00  0.475622E+00  0.475622E+00  0.502683E+00  0.551750E+00  0.613096E+00
  0.674555E+00  0.726635E+00  0.765762E+00  0.791772E+00  0.804360E+00  0.802133E+00
  0.781559E+00  0.733870E+00  0.643880E+00  0.504360E+00  0.350933E+00  0.247506E+00
  0.214687E+00  0.223792E+00  0.223792E+00  0.214687E+00  0.555109E+00  0.570338E+00
  0.622113E+00  0.684389E+00  0.733870E+00  0.763777E+00  0.776263E+00  0.773987E+00
  0.757992E+00  0.728638E+00  0.686054E+00  0.630305E+00  0.564139E+00  0.496028E+00
  0.437682E+00  0.398817E+00  0.385222E+00  0.398817E+00  0.437682E+00  0.496028E+00
  0.564139E+00  0.630305E+00  0.686054E+00  0.728638E+00  0.757992E+00  0.773987E+00
  0.776263E+00  0.763777E+00  0.733870E+00  0.684389E+00  0.622113E+00  0.570338E+00
  0.555109E+00  0.573444E+00  0.587777E+00  0.573444E+00  0.555109E+00  0.786933E+00
  0.776484E+00  0.776412E+00  0.780322E+00  0.781559E+00  0.776263E+00  0.762109E+00
  0.737237E+00  0.700498E+00  0.651514E+00  0.590259E+00  0.518853E+00  0.444766E+00
  0.379088E+00  0.330950E+00  0.305649E+00  0.305649E+00  0.330950E+00  0.379088E+00
  0.444766E+00  0.518853E+00  0.590259E+00  0.651514E+00  0.700498E+00  0.737237E+00
  0.762109E+00  0.776263E+00  0.781559E+00  0.780322E+00  0.776412E+00  0.776484E+00
  0.786933E+00  0.805754E+00  0.820760E+00  0.820760E+00  0.805754E+00  0.786933E+00
  0.881905E+00  0.863012E+00  0.844128E+00  0.824561E+00  0.802133E+00  0.773987E+00
  0.737237E+00  0.689879E+00  0.631262E+00  0.561693E+00  0.483344E+00  0.402996E+00
  0.331053E+00  0.275912E+00  0.241692E+00  0.230108E+00  0.241692E+00  0.275912E+00
  0.331053E+00  0.402996E+00  0.483344E+00  0.561693E+00  0.631262E+00  0.689879E+00
  0.737237E+00  0.773987E+00  0.802133E+00  0.824561E+00  0.844128E+00  0.863012E+00
  0.881905E+00  0.899163E+00  0.911439E+00  0.915868E+00  0.911439E+00  0.899163E+00
  0.881905E+00  0.917622E+00  0.896997E+00  0.871856E+00  0.841543E+00  0.804360E+00
  0.757992E+00  0.700498E+00  0.631262E+00  0.551240E+00  0.463594E+00  0.375446E+00
  0.296914E+00  0.235823E+00  0.195030E+00  0.174733E+00  0.174733E+00  0.195030E+00
  0.235823E+00  0.296914E+00  0.375446E+00  0.463594E+00  0.551240E+00  0.631262E+00
  0.700498E+00  0.757992E+00  0.804360E+00  0.841543E+00  0.871856E+00  0.896997E+00
  0.917622E+00  0.933549E+00  0.944323E+00  0.949711E+00  0.949711E+00  0.944323E+00
  0.933549E+00  0.917622E+00  0.930907E+00  0.909232E+00  0.880071E+00  0.841629E+00
  0.791772E+00  0.728638E+00  0.651514E+00  0.561693E+00  0.463594E+00  0.365787E+00
  0.279165E+00  0.211619E+00  0.165197E+00  0.138504E+00  0.129829E+00  0.138504E+00
  0.165197E+00  0.211619E+00  0.279165E+00  0.365787E+00  0.463594E+00  0.561693E+00
  0.651514E+00  0.728638E+00  0.791772E+00  0.841629E+00  0.880071E+00  0.909232E+00
  0.930907E+00  0.946395E+00  0.956650E+00  0.962435E+00  0.964296E+00  0.962435E+00
  0.956650E+00  0.946395E+00  0.930907E+00  0.933893E+00  0.909889E+00  0.875698E+00
  0.828502E+00  0.765762E+00  0.686054E+00  0.590259E+00  0.483344E+00  0.375446E+00
  0.279165E+00  0.203547E+00  0.150822E+00  0.118587E+00  0.103506E+00  0.103506E+00
  0.118587E+00  0.150822E+00  0.203547E+00  0.279165E+00  0.375446E+00  0.483344E+00
  0.590259E+00  0.686054E+00  0.765762E+00  0.828502E+00  0.875698E+00  0.909889E+00
  0.933893E+00  0.950221E+00  0.960838E+00  0.967152E+00  0.970080E+00  0.970080E+00
  0.967152E+00  0.960838E+00  0.950221E+00  0.933893E+00  0.929953E+00  0.901853E+00
  0.860867E+00  0.803384E+00  0.726635E+00  0.630305E+00  0.518853E+00  0.402996E+00
  0.296914E+00  0.211619E+00  0.150822E+00  0.112302E+00  0.916369E-01  0.851972E-01
  0.916369E-01  0.112302E+00  0.150822E+00  0.211619E+00  0.296914E+00  0.402996E+00
  0.518853E+00  0.630305E+00  0.726635E+00  0.803384E+00  0.860867E+00  0.901853E+00
  0.929953E+00  0.948619E+00  0.960622E+00  0.967940E+00  0.971857E+00  0.973086E+00
  0.971857E+00  0.967940E+00  0.960622E+00  0.948619E+00  0.929953E+00  0.919685E+00
  0.885603E+00  0.835769E+00  0.766087E+00  0.674555E+00  0.564139E+00  0.444766E+00
  0.331053E+00  0.235823E+00  0.165197E+00  0.118587E+00  0.916369E-01  0.795882E-01
  0.795882E-01  0.916369E-01  0.118587E+00  0.165197E+00  0.235823E+00  0.331053E+00
  0.444766E+00  0.564139E+00  0.674555E+00  0.766087E+00  0.835769E+00  0.885603E+00
  0.919685E+00  0.942256E+00  0.956802E+00  0.965842E+00  0.971048E+00  0.973419E+00
  0.973419E+00  0.971048E+00  0.965842E+00  0.956802E+00  0.942256E+00  0.919685E+00
  0.902446E+00  0.860241E+00  0.799498E+00  0.716829E+00  0.613096E+00  0.496028E+00
  0.379088E+00  0.275912E+00  0.195030E+00  0.138504E+00  0.103506E+00  0.851972E-01
  0.795882E-01  0.851972E-01  0.103506E+00  0.138504E+00  0.195030E+00  0.275912E+00
  0.379088E+00  0.496028E+00  0.613096E+00  0.716829E+00  0.799498E+00  0.860241E+00
  0.902446E+00  0.930725E+00  0.949183E+00  0.960896E+00  0.967966E+00  0.971722E+00
  0.972897E+00  0.971722E+00  0.967966E+00  0.960896E+00  0.949183E+00  0.930725E+00
  0.902446E+00  0.876685E+00  0.824639E+00  0.752806E+00  0.660301E+00  0.551750E+00
  0.437682E+00  0.330950E+00  0.241692E+00  0.174733E+00  0.129829E+00  0.103506E+00
  0.916369E-01  0.916369E-01  0.103506E+00  0.129829E+00  0.174733E+00  0.241692E+00
  0.330950E+00  0.437682E+00  0.551750E+00  0.660301E+00  0.752806E+00  0.824639E+00
  0.876685E+00  0.912665E+00  0.936757E+00  0.952446E+00  0.962277E+00  0.967966E+00
  0.970562E+00  0.970562E+00  0.967966E+00  0.962277E+00  0.952446E+00  0.936757E+00
  0.912665E+00  0.876685E+00  0.841820E+00  0.780827E+00  0.701939E+00  0.607066E+00
  0.502683E+00  0.398817E+00  0.305649E+00  0.230108E+00  0.174733E+00  0.138504E+00
  0.118587E+00  0.112302E+00  0.118587E+00  0.138504E+00  0.174733E+00  0.230108E+00
  0.305649E+00  0.398817E+00  0.502683E+00  0.607066E+00  0.701939E+00  0.780827E+00
  0.841820E+00  0.886415E+00  0.917684E+00  0.938876E+00  0.952720E+00  0.961250E+00
  0.965842E+00  0.967287E+00  0.965842E+00  0.961250E+00  0.952720E+00  0.938876E+00
  0.917684E+00  0.886415E+00  0.841820E+00  0.801535E+00  0.736650E+00  0.658266E+00
  0.569300E+00  0.475622E+00  0.385222E+00  0.305649E+00  0.241692E+00  0.195030E+00
  0.165197E+00  0.150822E+00  0.150822E+00  0.165197E+00  0.195030E+00  0.241692E+00
  0.305649E+00  0.385222E+00  0.475622E+00  0.569300E+00  0.658266E+00  0.736650E+00
  0.801535E+00  0.852456E+00  0.890613E+00  0.918080E+00  0.937093E+00  0.949607E+00
  0.957117E+00  0.960622E+00  0.960622E+00  0.957117E+00  0.949607E+00  0.937093E+00
  0.918080E+00  0.890613E+00  0.852456E+00  0.801535E+00  0.764890E+00  0.703605E+00
  0.633130E+00  0.555703E+00  0.475622E+00  0.398817E+00  0.330950E+00  0.275912E+00
  0.235823E+00  0.211619E+00  0.203547E+00  0.211619E+00  0.235823E+00  0.275912E+00
  0.330950E+00  0.398817E+00  0.475622E+00  0.555703E+00  0.633130E+00  0.703605E+00
  0.764890E+00  0.816137E+00  0.857373E+00  0.889340E+00  0.913231E+00  0.930310E+00
  0.941667E+00  0.948129E+00  0.950221E+00  0.948129E+00  0.941667E+00  0.930310E+00
  0.913231E+00  0.889340E+00  0.857373E+00  0.816137E+00  0.764890E+00  0.742887E+00
  0.691368E+00  0.633130E+00  0.569300E+00  0.502683E+00  0.437682E+00  0.379088E+00
  0.331053E+00  0.296914E+00  0.279165E+00  0.279165E+00  0.296914E+00  0.331053E+00
  0.379088E+00  0.437682E+00  0.502683E+00  0.569300E+00  0.633130E+00  0.691368E+00
  0.742887E+00  0.787445E+00  0.825123E+00  0.856271E+00  0.881476E+00  0.901307E+00
  0.916105E+00  0.925971E+00  0.930907E+00  0.930907E+00  0.925971E+00  0.916105E+00
  0.901307E+00  0.881476E+00  0.856271E+00  0.825123E+00  0.787445E+00  0.742887E+00
  0.742887E+00  0.703605E+00  0.658266E+00  0.607066E+00  0.551750E+00  0.496028E+00
  0.444766E+00  0.402996E+00  0.375446E+00  0.365787E+00  0.375446E+00  0.402996E+00
  0.444766E+00  0.496028E+00  0.551750E+00  0.607066E+00  0.658266E+00  0.703605E+00
  0.742887E+00  0.776465E+00  0.804767E+00  0.828396E+00  0.848185E+00  0.864917E+00
  0.878923E+00  0.889881E+00  0.896997E+00  0.899477E+00  0.896997E+00  0.889881E+00
  0.878923E+00  0.864917E+00  0.848185E+00  0.828396E+00  0.804767E+00  0.776465E+00
  0.742887E+00  0.764890E+00  0.736650E+00  0.701939E+00  0.660301E+00  0.613096E+00
  0.564139E+00  0.518853E+00  0.483344E+00  0.463594E+00  0.463594E+00  0.483344E+00
  0.518853E+00  0.564139E+00  0.613096E+00  0.660301E+00  0.701939E+00  0.736650E+00
  0.764890E+00  0.787445E+00  0.804767E+00  0.817315E+00  0.825964E+00  0.831960E+00
  0.836570E+00  0.840627E+00  0.844128E+00  0.846287E+00  0.846287E+00  0.844128E+00
  0.840627E+00  0.836570E+00  0.831960E+00  0.825964E+00  0.817315E+00  0.804767E+00
  0.787445E+00  0.764890E+00  0.801535E+00  0.780827E+00  0.752806E+00  0.716829E+00
  0.674555E+00  0.630305E+00  0.590259E+00  0.561693E+00  0.551240E+00  0.561693E+00
  0.590259E+00  0.630305E+00  0.674555E+00  0.716829E+00  0.752806E+00  0.780827E+00
  0.801535E+00  0.816137E+00  0.825123E+00  0.828396E+00  0.825964E+00  0.818328E+00
  0.806658E+00  0.793025E+00  0.780322E+00  0.771450E+00  0.768297E+00  0.771450E+00
  0.780322E+00  0.793025E+00  0.806658E+00  0.818328E+00  0.825964E+00  0.828396E+00
  0.825123E+00  0.816137E+00  0.801535E+00  0.841820E+00  0.824639E+00  0.799498E+00
  0.766087E+00  0.726635E+00  0.686054E+00  0.651514E+00  0.631262E+00  0.631262E+00
  0.651514E+00  0.686054E+00  0.726635E+00  0.766087E+00  0.799498E+00  0.824639E+00
  0.841820E+00  0.852456E+00  0.857373E+00  0.856271E+00  0.848185E+00  0.831960E+00
  0.806658E+00  0.772689E+00  0.733870E+00  0.698583E+00  0.677313E+00  0.677313E+00
  0.698583E+00  0.733870E+00  0.772689E+00  0.806658E+00  0.831960E+00  0.848185E+00
  0.856271E+00  0.857373E+00  0.852456E+00  0.841820E+00  0.876685E+00  0.860241E+00
  0.835769E+00  0.803384E+00  0.765762E+00  0.728638E+00  0.700498E+00  0.689879E+00
  0.700498E+00  0.728638E+00  0.765762E+00  0.803384E+00  0.835769E+00  0.860241E+00
  0.876685E+00  0.886415E+00  0.890613E+00  0.889340E+00  0.881476E+00  0.864917E+00
  0.836570E+00  0.793025E+00  0.733870E+00  0.667685E+00  0.613876E+00  0.593073E+00
  0.613876E+00  0.667685E+00  0.733870E+00  0.793025E+00  0.836570E+00  0.864917E+00
  0.881476E+00  0.889340E+00  0.890613E+00  0.886415E+00  0.876685E+00  0.902446E+00
  0.885603E+00  0.860867E+00  0.828502E+00  0.791772E+00  0.757992E+00  0.737237E+00
  0.737237E+00  0.757992E+00  0.791772E+00  0.828502E+00  0.860867E+00  0.885603E+00
  0.902446E+00  0.912665E+00  0.917684E+00  0.918080E+00  0.913231E+00  0.901307E+00
  0.878923E+00  0.840627E+00  0.780322E+00  0.698583E+00  0.613876E+00  0.559242E+00
  0.559242E+00  0.613876E+00  0.698583E+00  0.780322E+00  0.840627E+00  0.878923E+00
  0.901307E+00  0.913231E+00  0.918080E+00  0.917684E+00  0.912665E+00  0.902446E+00
  0.919685E+00  0.901853E+00  0.875698E+00  0.841629E+00  0.804360E+00  0.773987E+00
  0.762109E+00  0.773987E+00  0.804360E+00  0.841629E+00  0.875698E+00  0.901853E+00
  0.919685E+00  0.930725E+00  0.936757E+00  0.938876E+00  0.937093E+00  0.930310E+00
  0.916105E+00  0.889881E+00  0.844128E+00  0.771450E+00  0.677313E+00  0.593073E+00
  0.559242E+00  0.593073E+00  0.677313E+00  0.771450E+00  0.844128E+00  0.889881E+00
  0.916105E+00  0.930310E+00  0.937093E+00  0.938876E+00  0.936757E+00  0.930725E+00
  0.919685E+00  0.929953E+00  0.909889E+00  0.880071E+00  0.841543E+00  0.802133E+00
  0.776263E+00  0.776263E+00  0.802133E+00  0.841543E+00  0.880071E+00  0.909889E+00
  0.929953E+00  0.942256E+00  0.949183E+00  0.952446E+00  0.952720E+00  0.949607E+00
  0.941667E+00  0.925971E+00  0.896997E+00  0.846287E+00  0.768297E+00  0.677313E+00
  0.613876E+00  0.613876E+00  0.677313E+00  0.768297E+00  0.846287E+00  0.896997E+00
  0.925971E+00  0.941667E+00  0.949607E+00  0.952720E+00  0.952446E+00  0.949183E+00
  0.942256E+00  0.929953E+00  0.933893E+00  0.909232E+00  0.871856E+00  0.824561E+00
  0.781559E+00  0.763777E+00  0.781559E+00  0.824561E+00  0.871856E+00  0.909232E+00
  0.933893E+00  0.948619E+00  0.956802E+00  0.960896E+00  0.962277E+00  0.961250E+00
  0.957117E+00  0.948129E+00  0.930907E+00  0.899477E+00  0.846287E+00  0.771450E+00
  0.698583E+00  0.667685E+00  0.698583E+00  0.771450E+00  0.846287E+00  0.899477E+00
  0.930907E+00  0.948129E+00  0.957117E+00  0.961250E+00  0.962277E+00  0.960896E+00
  0.956802E+00  0.948619E+00  0.933893E+00  0.930907E+00  0.896997E+00  0.844128E+00
  0.780322E+00  0.733870E+00  0.733870E+00  0.780322E+00  0.844128E+00  0.896997E+00
  0.930907E+00  0.950221E+00  0.960622E+00  0.965842E+00  0.967966E+00  0.967966E+00
  0.965842E+00  0.960622E+00  0.950221E+00  0.930907E+00  0.896997E+00  0.844128E+00
  0.780322E+00  0.733870E+00  0.733870E+00  0.780322E+00  0.844128E+00  0.896997E+00
  0.930907E+00  0.950221E+00  0.960622E+00  0.965842E+00  0.967966E+00  0.967966E+00
  0.965842E+00  0.960622E+00  0.950221E+00  0.930907E+00  0.917622E+00  0.863012E+00
  0.776412E+00  0.684389E+00  0.643880E+00  0.684389E+00  0.776412E+00  0.863012E+00
  0.917622E+00  0.946395E+00  0.960838E+00  0.967940E+00  0.971048E+00  0.971722E+00
  0.970562E+00  0.967287E+00  0.960622E+00  0.948129E+00  0.925971E+00  0.889881E+00
  0.840627E+00  0.793025E+00  0.772689E+00  0.793025E+00  0.840627E+00  0.889881E+00
  0.925971E+00  0.948129E+00  0.960622E+00  0.967287E+00  0.970562E+00  0.971722E+00
  0.971048E+00  0.967940E+00  0.960838E+00  0.946395E+00  0.917622E+00  0.881905E+00
  0.776484E+00  0.622113E+00  0.504360E+00  0.504360E+00  0.622113E+00  0.776484E+00
  0.881905E+00  0.933549E+00  0.956650E+00  0.967152E+00  0.971857E+00  0.973419E+00
  0.972897E+00  0.970562E+00  0.965842E+00  0.957117E+00  0.941667E+00  0.916105E+00
  0.878923E+00  0.836570E+00  0.806658E+00  0.806658E+00  0.836570E+00  0.878923E+00
  0.916105E+00  0.941667E+00  0.957117E+00  0.965842E+00  0.970562E+00  0.972897E+00
  0.973419E+00  0.971857E+00  0.967152E+00  0.956650E+00  0.933549E+00  0.881905E+00
  0.786933E+00  0.570338E+00  0.350933E+00  0.271466E+00  0.350933E+00  0.570338E+00
  0.786933E+00  0.899163E+00  0.944323E+00  0.962435E+00  0.970080E+00  0.973086E+00
  0.973419E+00  0.971722E+00  0.967966E+00  0.961250E+00  0.949607E+00  0.930310E+00
  0.901307E+00  0.864917E+00  0.831960E+00  0.818328E+00  0.831960E+00  0.864917E+00
  0.901307E+00  0.930310E+00  0.949607E+00  0.961250E+00  0.967966E+00  0.971722E+00
  0.973419E+00  0.973086E+00  0.970080E+00  0.962435E+00  0.944323E+00  0.899163E+00
  0.786933E+00  0.555109E+00  0.247506E+00  0.109806E+00  0.109806E+00  0.247506E+00
  0.555109E+00  0.805754E+00  0.911439E+00  0.949711E+00  0.964296E+00  0.970080E+00
  0.971857E+00  0.971048E+00  0.967966E+00  0.962277E+00  0.952720E+00  0.937093E+00
  0.913231E+00  0.881476E+00  0.848185E+00  0.825964E+00  0.825964E+00  0.848185E+00
  0.881476E+00  0.913231E+00  0.937093E+00  0.952720E+00  0.962277E+00  0.967966E+00
  0.971048E+00  0.971857E+00  0.970080E+00  0.964296E+00  0.949711E+00  0.911439E+00
  0.805754E+00  0.555109E+00  0.214687E+00  0.482593E-01  0.219171E-01  0.482593E-01
  0.214687E+00  0.573444E+00  0.820760E+00  0.915868E+00  0.949711E+00  0.962435E+00
  0.967152E+00  0.967940E+00  0.965842E+00  0.960896E+00  0.952446E+00  0.938876E+00
  0.918080E+00  0.889340E+00  0.856271E+00  0.828396E+00  0.817315E+00  0.828396E+00
  0.856271E+00  0.889340E+00  0.918080E+00  0.938876E+00  0.952446E+00  0.960896E+00
  0.965842E+00  0.967940E+00  0.967152E+00  0.962435E+00  0.949711E+00  0.915868E+00
  0.820760E+00  0.573444E+00  0.214687E+00  0.340784E-01  0.479589E-02  0.479589E-02
  0.340784E-01  0.223792E+00  0.587777E+00  0.820760E+00  0.911439E+00  0.944323E+00
  0.956650E+00  0.960838E+00  0.960622E+00  0.956802E+00  0.949183E+00  0.936757E+00
  0.917684E+00  0.890613E+00  0.857373E+00  0.825123E+00  0.804767E+00  0.804767E+00
  0.825123E+00  0.857373E+00  0.890613E+00  0.917684E+00  0.936757E+00  0.949183E+00
  0.956802E+00  0.960622E+00  0.960838E+00  0.956650E+00  0.944323E+00  0.911439E+00
  0.820760E+00  0.587777E+00  0.223792E+00  0.340784E-01  0.216387E-02  0.356834E-03
  0.216387E-02  0.338326E-01  0.223792E+00  0.573444E+00  0.805754E+00  0.899163E+00
  0.933549E+00  0.946395E+00  0.950221E+00  0.948619E+00  0.942256E+00  0.930725E+00
  0.912665E+00  0.886415E+00  0.852456E+00  0.816137E+00  0.787445E+00  0.776465E+00
  0.787445E+00  0.816137E+00  0.852456E+00  0.886415E+00  0.912665E+00  0.930725E+00
  0.942256E+00  0.948619E+00  0.950221E+00  0.946395E+00  0.933549E+00  0.899163E+00
  0.805754E+00  0.573444E+00  0.223792E+00  0.338326E-01  0.216387E-02  0.836674E-04
  0.836674E-04  0.216387E-02  0.340784E-01  0.214687E+00  0.555109E+00  0.786933E+00
  0.881905E+00  0.917622E+00  0.930907E+00  0.933893E+00  0.929953E+00  0.919685E+00
  0.902446E+00  0.876685E+00  0.841820E+00  0.801535E+00  0.764890E+00  0.742887E+00
  0.742887E+00  0.764890E+00  0.801535E+00  0.841820E+00  0.876685E+00  0.902446E+00
  0.919685E+00  0.929953E+00  0.933893E+00  0.930907E+00  0.917622E+00  0.881905E+00
  0.786933E+00  0.555109E+00  0.214687E+00  0.340784E-01  0.216387E-02  0.836674E-04
  0.599485E-05  0.836674E-04  0.280581E-02  0.390039E-01  0.229049E+00  0.560227E+00
  0.775677E+00  0.864962E+00  0.899477E+00  0.911831E+00  0.912635E+00  0.904834E+00
  0.888901E+00  0.863941E+00  0.828782E+00  0.785330E+00  0.741358E+00  0.708408E+00
  0.696202E+00  0.708408E+00  0.741358E+00  0.785330E+00  0.828782E+00  0.863941E+00
  0.888901E+00  0.904834E+00  0.912635E+00  0.911831E+00  0.899477E+00  0.864962E+00
  0.775677E+00  0.560227E+00  0.229049E+00  0.390039E-01  0.280581E-02  0.836674E-04
  0.599485E-05  0.836674E-04  0.627272E-03  0.778269E-02  0.679346E-01  0.294237E+00
  0.595061E+00  0.771243E+00  0.846287E+00  0.876291E+00  0.885539E+00  0.882001E+00
  0.868026E+00  0.843871E+00  0.808606E+00  0.762760E+00  0.712363E+00  0.668868E+00
  0.643805E+00  0.643805E+00  0.668868E+00  0.712363E+00  0.762760E+00  0.808606E+00
  0.843871E+00  0.868026E+00  0.882001E+00  0.885539E+00  0.876291E+00  0.846287E+00
  0.771243E+00  0.595061E+00  0.294237E+00  0.679346E-01  0.778269E-02  0.627272E-03
  0.836674E-04  0.836674E-04  0.280581E-02  0.778269E-02  0.369830E-01  0.160773E+00
  0.417237E+00  0.648433E+00  0.771450E+00  0.826147E+00  0.847584E+00  0.850280E+00
  0.839203E+00  0.815975E+00  0.780540E+00  0.732884E+00  0.677257E+00  0.624232E+00
  0.586439E+00  0.572830E+00  0.586439E+00  0.624232E+00  0.677257E+00  0.732884E+00
  0.780540E+00  0.815975E+00  0.839203E+00  0.850280E+00  0.847584E+00  0.826147E+00
  0.771450E+00  0.648433E+00  0.417237E+00  0.160773E+00  0.369830E-01  0.778269E-02
  0.280581E-02  0.216387E-02  0.280581E-02  0.390039E-01  0.679346E-01  0.160773E+00
  0.348998E+00  0.558353E+00  0.698583E+00  0.770919E+00  0.803211E+00  0.811996E+00
  0.803921E+00  0.781519E+00  0.745591E+00  0.696261E+00  0.636494E+00  0.575505E+00
  0.526112E+00  0.498783E+00  0.498783E+00  0.526112E+00  0.575505E+00  0.636494E+00
  0.696261E+00  0.745591E+00  0.781519E+00  0.803921E+00  0.811996E+00  0.803211E+00
  0.770919E+00  0.698583E+00  0.558353E+00  0.348998E+00  0.160773E+00  0.679346E-01
  0.390039E-01  0.340784E-01  0.340784E-01  0.390039E-01  0.229049E+00  0.294237E+00
  0.417237E+00  0.558353E+00  0.667685E+00  0.733036E+00  0.765321E+00  0.775073E+00
  0.767405E+00  0.744410E+00  0.707044E+00  0.655630E+00  0.592350E+00  0.525078E+00
  0.466115E+00  0.426430E+00  0.412515E+00  0.426430E+00  0.466115E+00  0.525078E+00
  0.592350E+00  0.655630E+00  0.707044E+00  0.744410E+00  0.767405E+00  0.775073E+00
  0.765321E+00  0.733036E+00  0.667685E+00  0.558353E+00  0.417237E+00  0.294237E+00
  0.229049E+00  0.214687E+00  0.217212E+00  0.214687E+00  0.229049E+00  0.560227E+00
  0.595061E+00  0.648433E+00  0.698583E+00  0.733036E+00  0.750168E+00  0.751767E+00
  0.738850E+00  0.711682E+00  0.670570E+00  0.615745E+00  0.548807E+00  0.476436E+00
  0.410136E+00  0.360589E+00  0.334345E+00  0.334345E+00  0.360589E+00  0.410136E+00
  0.476436E+00  0.548807E+00  0.615745E+00  0.670570E+00  0.711682E+00  0.738850E+00
  0.751767E+00  0.750168E+00  0.733036E+00  0.698583E+00  0.648433E+00  0.595061E+00
  0.560227E+00  0.555109E+00  0.564518E+00  0.564518E+00  0.555109E+00  0.560227E+00
  0.775677E+00  0.771243E+00  0.771450E+00  0.770919E+00  0.765321E+00  0.751767E+00
  0.727923E+00  0.692111E+00  0.643764E+00  0.583001E+00  0.511129E+00  0.433817E+00
  0.361682E+00  0.304822E+00  0.269005E+00  0.256807E+00  0.269005E+00  0.304822E+00
  0.361682E+00  0.433817E+00  0.511129E+00  0.583001E+00  0.643764E+00  0.692111E+00
  0.727923E+00  0.751767E+00  0.765321E+00  0.770919E+00  0.771450E+00  0.771243E+00
  0.775677E+00  0.786933E+00  0.799822E+00  0.805505E+00  0.799822E+00  0.786933E+00
  0.775677E+00  0.864962E+00  0.846287E+00  0.826147E+00  0.803211E+00  0.775073E+00
  0.738850E+00  0.692111E+00  0.633817E+00  0.564277E+00  0.485189E+00  0.401859E+00
  0.324121E+00  0.261481E+00  0.218708E+00  0.197159E+00  0.197159E+00  0.218708E+00
  0.261481E+00  0.324121E+00  0.401859E+00  0.485189E+00  0.564277E+00  0.633817E+00
  0.692111E+00  0.738850E+00  0.775073E+00  0.803211E+00  0.826147E+00  0.846287E+00
  0.864962E+00  0.881905E+00  0.895241E+00  0.902628E+00  0.902628E+00  0.895241E+00
  0.881905E+00  0.864962E+00  0.899477E+00  0.876291E+00  0.847584E+00  0.811996E+00
  0.767405E+00  0.711682E+00  0.643764E+00  0.564277E+00  0.475896E+00  0.384674E+00
  0.300361E+00  0.232079E+00  0.183820E+00  0.155522E+00  0.146226E+00  0.155522E+00
  0.183820E+00  0.232079E+00  0.300361E+00  0.384674E+00  0.475896E+00  0.564277E+00
  0.643764E+00  0.711682E+00  0.767405E+00  0.811996E+00  0.847584E+00  0.876291E+00
  0.899477E+00  0.917622E+00  0.930672E+00  0.938496E+00  0.941094E+00  0.938496E+00
  0.930672E+00  0.917622E+00  0.899477E+00  0.911831E+00  0.885539E+00  0.850280E+00
  0.803921E+00  0.744410E+00  0.670570E+00  0.583001E+00  0.485189E+00  0.384674E+00
  0.292243E+00  0.217317E+00  0.163607E+00  0.129979E+00  0.113966E+00  0.113966E+00
  0.129979E+00  0.163607E+00  0.217317E+00  0.292243E+00  0.384674E+00  0.485189E+00
  0.583001E+00  0.670570E+00  0.744410E+00  0.803921E+00  0.850280E+00  0.885539E+00
  0.911831E+00  0.930907E+00  0.944061E+00  0.952247E+00  0.956151E+00  0.956151E+00
  0.952247E+00  0.944061E+00  0.930907E+00  0.911831E+00  0.912635E+00  0.882001E+00
  0.839203E+00  0.781519E+00  0.707044E+00  0.615745E+00  0.511129E+00  0.401859E+00
  0.300361E+00  0.217317E+00  0.157029E+00  0.118040E+00  0.966975E-01  0.899606E-01
  0.966975E-01  0.118040E+00  0.157029E+00  0.217317E+00  0.300361E+00  0.401859E+00
  0.511129E+00  0.615745E+00  0.707044E+00  0.781519E+00  0.839203E+00  0.882001E+00
  0.912635E+00  0.933893E+00  0.948129E+00  0.957107E+00  0.962027E+00  0.963591E+00
  0.962027E+00  0.957107E+00  0.948129E+00  0.933893E+00  0.912635E+00  0.904834E+00
  0.868026E+00  0.815975E+00  0.745591E+00  0.655630E+00  0.548807E+00  0.433817E+00
  0.324121E+00  0.232079E+00  0.163607E+00  0.118040E+00  0.913308E-01  0.792327E-01
  0.792327E-01  0.913308E-01  0.118040E+00  0.163607E+00  0.232079E+00  0.324121E+00
  0.433817E+00  0.548807E+00  0.655630E+00  0.745591E+00  0.815975E+00  0.868026E+00
  0.904834E+00  0.929953E+00  0.946565E+00  0.957117E+00  0.963297E+00  0.966141E+00
  0.966141E+00  0.963297E+00  0.957117E+00  0.946565E+00  0.929953E+00  0.904834E+00
  0.888901E+00  0.843871E+00  0.780540E+00  0.696261E+00  0.592350E+00  0.476436E+00
  0.361682E+00  0.261481E+00  0.183820E+00  0.129979E+00  0.966975E-01  0.792327E-01
  0.738643E-01  0.792327E-01  0.966975E-01  0.129979E+00  0.183820E+00  0.261481E+00
  0.361682E+00  0.476436E+00  0.592350E+00  0.696261E+00  0.780540E+00  0.843871E+00
  0.888901E+00  0.919685E+00  0.940107E+00  0.953239E+00  0.961250E+00  0.965541E+00
  0.966889E+00  0.965541E+00  0.961250E+00  0.953239E+00  0.940107E+00  0.919685E+00
  0.888901E+00  0.863941E+00  0.808606E+00  0.732884E+00  0.636494E+00  0.525078E+00
  0.410136E+00  0.304822E+00  0.218708E+00  0.155522E+00  0.113966E+00  0.899606E-01
  0.792327E-01  0.792327E-01  0.899606E-01  0.113966E+00  0.155522E+00  0.218708E+00
  0.304822E+00  0.410136E+00  0.525078E+00  0.636494E+00  0.732884E+00  0.808606E+00
  0.863941E+00  0.902446E+00  0.928375E+00  0.945353E+00  0.956052E+00  0.962277E+00
  0.965128E+00  0.965128E+00  0.962277E+00  0.956052E+00  0.945353E+00  0.928375E+00
  0.902446E+00  0.863941E+00  0.828782E+00  0.762760E+00  0.677257E+00  0.575505E+00
  0.466115E+00  0.360589E+00  0.269005E+00  0.197159E+00  0.146226E+00  0.113966E+00
  0.966975E-01  0.913308E-01  0.966975E-01  0.113966E+00  0.146226E+00  0.197159E+00
  0.269005E+00  0.360589E+00  0.466115E+00  0.575505E+00  0.677257E+00  0.762760E+00
  0.828782E+00  0.876685E+00  0.909997E+00  0.932440E+00  0.947056E+00  0.956052E+00
  0.960896E+00  0.962421E+00  0.960896E+00  0.956052E+00  0.947056E+00  0.932440E+00
  0.909997E+00  0.876685E+00  0.828782E+00  0.785330E+00  0.712363E+00  0.624232E+00
  0.526112E+00  0.426430E+00  0.334345E+00  0.256807E+00  0.197159E+00  0.155522E+00
  0.129979E+00  0.118040E+00  0.118040E+00  0.129979E+00  0.155522E+00  0.197159E+00
  0.256807E+00  0.334345E+00  0.426430E+00  0.526112E+00  0.624232E+00  0.712363E+00
  0.785330E+00  0.841820E+00  0.883345E+00  0.912663E+00  0.932611E+00  0.945554E+00
  0.953239E+00  0.956802E+00  0.956802E+00  0.953239E+00  0.945554E+00  0.932611E+00
  0.912663E+00  0.883345E+00  0.841820E+00  0.785330E+00  0.741358E+00  0.668868E+00
  0.586439E+00  0.498783E+00  0.412515E+00  0.334345E+00  0.269005E+00  0.218708E+00
  0.183820E+00  0.163607E+00  0.157029E+00  0.163607E+00  0.183820E+00  0.218708E+00
  0.269005E+00  0.334345E+00  0.412515E+00  0.498783E+00  0.586439E+00  0.668868E+00
  0.741358E+00  0.801535E+00  0.849008E+00  0.884808E+00  0.910708E+00  0.928605E+00
  0.940147E+00  0.946565E+00  0.948619E+00  0.946565E+00  0.940147E+00  0.928605E+00
  0.910708E+00  0.884808E+00  0.849008E+00  0.801535E+00  0.741358E+00  0.708408E+00
  0.643805E+00  0.572830E+00  0.498783E+00  0.426430E+00  0.360589E+00  0.304822E+00
  0.261481E+00  0.232079E+00  0.217317E+00  0.217317E+00  0.232079E+00  0.261481E+00
  0.304822E+00  0.360589E+00  0.426430E+00  0.498783E+00  0.572830E+00  0.643805E+00
  0.708408E+00  0.764890E+00  0.812443E+00  0.850949E+00  0.880931E+00  0.903309E+00
  0.919071E+00  0.929061E+00  0.933893E+00  0.933893E+00  0.929061E+00  0.919071E+00
  0.903309E+00  0.880931E+00  0.850949E+00  0.812443E+00  0.764890E+00  0.708408E+00
  0.696202E+00  0.643805E+00  0.586439E+00  0.526112E+00  0.466115E+00  0.410136E+00
  0.361682E+00  0.324121E+00  0.300361E+00  0.292243E+00  0.300361E+00  0.324121E+00
  0.361682E+00  0.410136E+00  0.466115E+00  0.526112E+00  0.586439E+00  0.643805E+00
  0.696202E+00  0.742887E+00  0.783640E+00  0.818380E+00  0.847231E+00  0.870516E+00
  0.888546E+00  0.901455E+00  0.909232E+00  0.911831E+00  0.909232E+00  0.901455E+00
  0.888546E+00  0.870516E+00  0.847231E+00  0.818380E+00  0.783640E+00  0.742887E+00
  0.696202E+00  0.708408E+00  0.668868E+00  0.624232E+00  0.575505E+00  0.525078E+00
  0.476436E+00  0.433817E+00  0.401859E+00  0.384674E+00  0.384674E+00  0.401859E+00
  0.433817E+00  0.476436E+00  0.525078E+00  0.575505E+00  0.624232E+00  0.668868E+00
  0.708408E+00  0.742887E+00  0.772632E+00  0.797929E+00  0.819169E+00  0.836916E+00
  0.851650E+00  0.863434E+00  0.871856E+00  0.876291E+00  0.876291E+00  0.871856E+00
  0.863434E+00  0.851650E+00  0.836916E+00  0.819169E+00  0.797929E+00  0.772632E+00
  0.742887E+00  0.708408E+00  0.741358E+00  0.712363E+00  0.677257E+00  0.636494E+00
  0.592350E+00  0.548807E+00  0.511129E+00  0.485189E+00  0.475896E+00  0.485189E+00
  0.511129E+00  0.548807E+00  0.592350E+00  0.636494E+00  0.677257E+00  0.712363E+00
  0.741358E+00  0.764890E+00  0.783640E+00  0.797929E+00  0.808082E+00  0.814823E+00
  0.819209E+00  0.822259E+00  0.824561E+00  0.826147E+00  0.826732E+00  0.826147E+00
  0.824561E+00  0.822259E+00  0.819209E+00  0.814823E+00  0.808082E+00  0.797929E+00
  0.783640E+00  0.764890E+00  0.741358E+00  0.785330E+00  0.762760E+00  0.732884E+00
  0.696261E+00  0.655630E+00  0.615745E+00  0.583001E+00  0.564277E+00  0.564277E+00
  0.583001E+00  0.615745E+00  0.655630E+00  0.696261E+00  0.732884E+00  0.762760E+00
  0.785330E+00  0.801535E+00  0.812443E+00  0.818380E+00  0.819169E+00  0.814823E+00
  0.806003E+00  0.794169E+00  0.781559E+00  0.770919E+00  0.764817E+00  0.764817E+00
  0.770919E+00  0.781559E+00  0.794169E+00  0.806003E+00  0.814823E+00  0.819169E+00
  0.818380E+00  0.812443E+00  0.801535E+00  0.785330E+00  0.828782E+00  0.808606E+00
  0.780540E+00  0.745591E+00  0.707044E+00  0.670570E+00  0.643764E+00  0.633817E+00
  0.643764E+00  0.670570E+00  0.707044E+00  0.745591E+00  0.780540E+00  0.808606E+00
  0.828782E+00  0.841820E+00  0.849008E+00  0.850949E+00  0.847231E+00  0.836916E+00
  0.819209E+00  0.794169E+00  0.763777E+00  0.733036E+00  0.709580E+00  0.700743E+00
  0.709580E+00  0.733036E+00  0.763777E+00  0.794169E+00  0.819209E+00  0.836916E+00
  0.847231E+00  0.850949E+00  0.849008E+00  0.841820E+00  0.828782E+00  0.863941E+00
  0.843871E+00  0.815975E+00  0.781519E+00  0.744410E+00  0.711682E+00  0.692111E+00
  0.692111E+00  0.711682E+00  0.744410E+00  0.781519E+00  0.815975E+00  0.843871E+00
  0.863941E+00  0.876685E+00  0.883345E+00  0.884808E+00  0.880931E+00  0.870516E+00
  0.851650E+00  0.822259E+00  0.781559E+00  0.733036E+00  0.687087E+00  0.658587E+00
  0.658587E+00  0.687087E+00  0.733036E+00  0.781559E+00  0.822259E+00  0.851650E+00
  0.870516E+00  0.880931E+00  0.884808E+00  0.883345E+00  0.876685E+00  0.863941E+00
  0.888901E+00  0.868026E+00  0.839203E+00  0.803921E+00  0.767405E+00  0.738850E+00
  0.727923E+00  0.738850E+00  0.767405E+00  0.803921E+00  0.839203E+00  0.868026E+00
  0.888901E+00  0.902446E+00  0.909997E+00  0.912663E+00  0.910708E+00  0.903309E+00
  0.888546E+00  0.863434E+00  0.824561E+00  0.770919E+00  0.709580E+00  0.658587E+00
  0.638588E+00  0.658587E+00  0.709580E+00  0.770919E+00  0.824561E+00  0.863434E+00
  0.888546E+00  0.903309E+00  0.910708E+00  0.912663E+00  0.909997E+00  0.902446E+00
  0.888901E+00  0.904834E+00  0.882001E+00  0.850280E+00  0.811996E+00  0.775073E+00
  0.751767E+00  0.751767E+00  0.775073E+00  0.811996E+00  0.850280E+00  0.882001E+00
  0.904834E+00  0.919685E+00  0.928375E+00  0.932440E+00  0.932611E+00  0.928605E+00
  0.919071E+00  0.901455E+00  0.871856E+00  0.826147E+00  0.764817E+00  0.700743E+00
  0.658587E+00  0.658587E+00  0.700743E+00  0.764817E+00  0.826147E+00  0.871856E+00
  0.901455E+00  0.919071E+00  0.928605E+00  0.932611E+00  0.932440E+00  0.928375E+00
  0.919685E+00  0.904834E+00  0.912635E+00  0.885539E+00  0.847584E+00  0.803211E+00
  0.765321E+00  0.750168E+00  0.765321E+00  0.803211E+00  0.847584E+00  0.885539E+00
  0.912635E+00  0.929953E+00  0.940107E+00  0.945353E+00  0.947056E+00  0.945554E+00
  0.940147E+00  0.929061E+00  0.909232E+00  0.876291E+00  0.826732E+00  0.764817E+00
  0.709580E+00  0.687087E+00  0.709580E+00  0.764817E+00  0.826732E+00  0.876291E+00
  0.909232E+00  0.929061E+00  0.940147E+00  0.945554E+00  0.947056E+00  0.945353E+00
  0.940107E+00  0.929953E+00  0.912635E+00  0.911831E+00  0.876291E+00  0.826147E+00
  0.770919E+00  0.733036E+00  0.733036E+00  0.770919E+00  0.826147E+00  0.876291E+00
  0.911831E+00  0.933893E+00  0.946565E+00  0.953239E+00  0.956052E+00  0.956052E+00
  0.953239E+00  0.946565E+00  0.933893E+00  0.911831E+00  0.876291E+00  0.826147E+00
  0.770919E+00  0.733036E+00  0.733036E+00  0.770919E+00  0.826147E+00  0.876291E+00
  0.911831E+00  0.933893E+00  0.946565E+00  0.953239E+00  0.956052E+00  0.956052E+00
  0.953239E+00  0.946565E+00  0.933893E+00  0.911831E+00  0.899477E+00  0.846287E+00
  0.771450E+00  0.698583E+00  0.667685E+00  0.698583E+00  0.771450E+00  0.846287E+00
  0.899477E+00  0.930907E+00  0.948129E+00  0.957117E+00  0.961250E+00  0.962277E+00
  0.960896E+00  0.956802E+00  0.948619E+00  0.933893E+00  0.909232E+00  0.871856E+00
  0.824561E+00  0.781559E+00  0.763777E+00  0.781559E+00  0.824561E+00  0.871856E+00
  0.909232E+00  0.933893E+00  0.948619E+00  0.956802E+00  0.960896E+00  0.962277E+00
  0.961250E+00  0.957117E+00  0.948129E+00  0.930907E+00  0.899477E+00  0.864962E+00
  0.771243E+00  0.648433E+00  0.558353E+00  0.558353E+00  0.648433E+00  0.771243E+00
  0.864962E+00  0.917622E+00  0.944061E+00  0.957107E+00  0.963297E+00  0.965541E+00
  0.965128E+00  0.962421E+00  0.956802E+00  0.946565E+00  0.929061E+00  0.901455E+00
  0.863434E+00  0.822259E+00  0.794169E+00  0.794169E+00  0.822259E+00  0.863434E+00
  0.901455E+00  0.929061E+00  0.946565E+00  0.956802E+00  0.962421E+00  0.965128E+00
  0.965541E+00  0.963297E+00  0.957107E+00  0.944061E+00  0.917622E+00  0.864962E+00
  0.775677E+00  0.595061E+00  0.417237E+00  0.348998E+00  0.417237E+00  0.595061E+00
  0.775677E+00  0.881905E+00  0.930672E+00  0.952247E+00  0.962027E+00  0.966141E+00
  0.966889E+00  0.965128E+00  0.960896E+00  0.953239E+00  0.940147E+00  0.919071E+00
  0.888546E+00  0.851650E+00  0.819209E+00  0.806003E+00  0.819209E+00  0.851650E+00
  0.888546E+00  0.919071E+00  0.940147E+00  0.953239E+00  0.960896E+00  0.965128E+00
  0.966889E+00  0.966141E+00  0.962027E+00  0.952247E+00  0.930672E+00  0.881905E+00
  0.775677E+00  0.560227E+00  0.294237E+00  0.160773E+00  0.160773E+00  0.294237E+00
  0.560227E+00  0.786933E+00  0.895241E+00  0.938496E+00  0.956151E+00  0.963591E+00
  0.966141E+00  0.965541E+00  0.962277E+00  0.956052E+00  0.945554E+00  0.928605E+00
  0.903309E+00  0.870516E+00  0.836916E+00  0.814823E+00  0.814823E+00  0.836916E+00
  0.870516E+00  0.903309E+00  0.928605E+00  0.945554E+00  0.956052E+00  0.962277E+00
  0.965541E+00  0.966141E+00  0.963591E+00  0.956151E+00  0.938496E+00  0.895241E+00
  0.786933E+00  0.560227E+00  0.229049E+00  0.679346E-01  0.369830E-01  0.679346E-01
  0.229049E+00  0.555109E+00  0.799822E+00  0.902628E+00  0.941094E+00  0.956151E+00
  0.962027E+00  0.963297E+00  0.961250E+00  0.956052E+00  0.947056E+00  0.932611E+00
  0.910708E+00  0.880931E+00  0.847231E+00  0.819169E+00  0.808082E+00  0.819169E+00
  0.847231E+00  0.880931E+00  0.910708E+00  0.932611E+00  0.947056E+00  0.956052E+00
  0.961250E+00  0.963297E+00  0.962027E+00  0.956151E+00  0.941094E+00  0.902628E+00
  0.799822E+00  0.555109E+00  0.229049E+00  0.390039E-01  0.778269E-02  0.778269E-02
  0.390039E-01  0.214687E+00  0.564518E+00  0.805505E+00  0.902628E+00  0.938496E+00
  0.952247E+00  0.957107E+00  0.957117E+00  0.953239E+00  0.945353E+00  0.932440E+00
  0.912663E+00  0.884808E+00  0.850949E+00  0.818380E+00  0.797929E+00  0.797929E+00
  0.818380E+00  0.850949E+00  0.884808E+00  0.912663E+00  0.932440E+00  0.945353E+00
  0.953239E+00  0.957117E+00  0.957107E+00  0.952247E+00  0.938496E+00  0.902628E+00
  0.805505E+00  0.564518E+00  0.214687E+00  0.390039E-01  0.280581E-02  0.627272E-03
  0.280581E-02  0.340784E-01  0.217212E+00  0.564518E+00  0.799822E+00  0.895241E+00
  0.930672E+00  0.944061E+00  0.948129E+00  0.946565E+00  0.940107E+00  0.928375E+00
  0.909997E+00  0.883345E+00  0.849008E+00  0.812443E+00  0.783640E+00  0.772632E+00
  0.783640E+00  0.812443E+00  0.849008E+00  0.883345E+00  0.909997E+00  0.928375E+00
  0.940107E+00  0.946565E+00  0.948129E+00  0.944061E+00  0.930672E+00  0.895241E+00
  0.799822E+00  0.564518E+00  0.217212E+00  0.340784E-01  0.280581E-02  0.836674E-04
  0.836674E-04  0.216387E-02  0.340784E-01  0.214687E+00  0.555109E+00  0.786933E+00
  0.881905E+00  0.917622E+00  0.930907E+00  0.933893E+00  0.929953E+00  0.919685E+00
  0.902446E+00  0.876685E+00  0.841820E+00  0.801535E+00  0.764890E+00  0.742887E+00
  0.742887E+00  0.764890E+00  0.801535E+00  0.841820E+00  0.876685E+00  0.902446E+00
  0.919685E+00  0.929953E+00  0.933893E+00  0.930907E+00  0.917622E+00  0.881905E+00
  0.786933E+00  0.555109E+00  0.214687E+00  0.340784E-01  0.216387E-02  0.836674E-04
  0.599485E-05  0.836674E-04  0.280581E-02  0.390039E-01  0.229049E+00  0.560227E+00
  0.775677E+00  0.864962E+00  0.899477E+00  0.911831E+00  0.912635E+00  0.904834E+00
  0.888901E+00  0.863941E+00  0.828782E+00  0.785330E+00  0.741358E+00  0.708408E+00
  0.696202E+00  0.708408E+00  0.741358E+00  0.785330E+00  0.828782E+00  0.863941E+00
  0.888901E+00  0.904834E+00  0.912635E+00  0.911831E+00  0.899477E+00  0.864962E+00
  0.775677E+00  0.560227E+00  0.229049E+00  0.390039E-01  0.280581E-02  0.836674E-04
  0.599485E-05
END_DATAGRID_3D
END_BLOCK_DATAGRID_3D
