 CRYSTAL
 PRIMVEC
   -2.698803776    0.000000000    2.698803776
    0.000000000    2.698803776    2.698803776
   -2.698803776    2.698803776    0.000000000
 PRIMCOORD
           2           1
Si        0.000000000    0.000000000    0.000000000
Si        1.349401888    1.349401888    1.349401888
BEGIN_BLOCK_DATAGRID_3D
3D_PWSCF
BEGIN_DATAGRID_3D_UNKNOWN
          37          37          37
  0.000000  0.000000  0.000000
   -2.698804    0.000000    2.698804
    0.000000    2.698804    2.698804
   -2.698804    2.698804    0.000000
  0.138655E-02  0.274797E-02  0.754337E-02  0.170378E-01  0.309426E-01  0.460107E-01
  0.575480E-01  0.627192E-01  0.619451E-01  0.574800E-01  0.515197E-01  0.454580E-01
  0.399896E-01  0.353829E-01  0.316852E-01  0.288622E-01  0.268728E-01  0.256898E-01
  0.252973E-01  0.256898E-01  0.268728E-01  0.288622E-01  0.316852E-01  0.353829E-01
  0.399896E-01  0.454580E-01  0.515197E-01  0.574800E-01  0.619451E-01  0.627192E-01
  0.575480E-01  0.460107E-01  0.309426E-01  0.170378E-01  0.754337E-02  0.274797E-02
  0.138655E-02  0.274797E-02  0.529640E-02  0.116080E-01  0.225160E-01  0.364118E-01
  0.491591E-01  0.568364E-01  0.583611E-01  0.552817E-01  0.498769E-01  0.438662E-01
  0.382080E-01  0.333289E-01  0.293520E-01  0.262592E-01  0.239957E-01  0.225144E-01
  0.217826E-01  0.217826E-01  0.225144E-01  0.239957E-01  0.262592E-01  0.293520E-01
  0.333289E-01  0.382080E-01  0.438662E-01  0.498769E-01  0.552817E-01  0.583611E-01
  0.568364E-01  0.491591E-01  0.364118E-01  0.225160E-01  0.116080E-01  0.529640E-02
  0.274797E-02  0.274797E-02  0.754337E-02  0.116080E-01  0.195777E-01  0.310013E-01
  0.429449E-01  0.515141E-01  0.546014E-01  0.528013E-01  0.480893E-01  0.423022E-01
  0.365948E-01  0.315413E-01  0.273512E-01  0.240400E-01  0.215508E-01  0.198220E-01
  0.188058E-01  0.184709E-01  0.188058E-01  0.198220E-01  0.215508E-01  0.240400E-01
  0.273512E-01  0.315413E-01  0.365948E-01  0.423022E-01  0.480893E-01  0.528013E-01
  0.546014E-01  0.515141E-01  0.429449E-01  0.310013E-01  0.195777E-01  0.116080E-01
  0.754337E-02  0.638750E-02  0.754337E-02  0.170378E-01  0.225160E-01  0.310013E-01
  0.406607E-01  0.483544E-01  0.517269E-01  0.506023E-01  0.464178E-01  0.408752E-01
  0.351910E-01  0.300334E-01  0.256847E-01  0.221988E-01  0.195261E-01  0.175953E-01
  0.163457E-01  0.157331E-01  0.157331E-01  0.163457E-01  0.175953E-01  0.195261E-01
  0.221988E-01  0.256847E-01  0.300334E-01  0.351910E-01  0.408752E-01  0.464178E-01
  0.506023E-01  0.517269E-01  0.483544E-01  0.406607E-01  0.310013E-01  0.225160E-01
  0.170378E-01  0.145923E-01  0.145923E-01  0.170378E-01  0.309426E-01  0.364118E-01
  0.429449E-01  0.483544E-01  0.506492E-01  0.493009E-01  0.452097E-01  0.397597E-01
  0.340757E-01  0.288360E-01  0.243589E-01  0.207273E-01  0.179012E-01  0.158036E-01
  0.143630E-01  0.135234E-01  0.132479E-01  0.135234E-01  0.143630E-01  0.158036E-01
  0.179012E-01  0.207273E-01  0.243589E-01  0.288360E-01  0.340757E-01  0.397597E-01
  0.452097E-01  0.493009E-01  0.506492E-01  0.483544E-01  0.429449E-01  0.364118E-01
  0.309426E-01  0.276550E-01  0.266057E-01  0.276550E-01  0.309426E-01  0.460107E-01
  0.491591E-01  0.515141E-01  0.517269E-01  0.493009E-01  0.447669E-01  0.391413E-01
  0.333482E-01  0.279945E-01  0.233881E-01  0.196203E-01  0.166561E-01  0.144142E-01
  0.128134E-01  0.117870E-01  0.112867E-01  0.112867E-01  0.117870E-01  0.128134E-01
  0.144142E-01  0.166561E-01  0.196203E-01  0.233881E-01  0.279945E-01  0.333482E-01
  0.391413E-01  0.447669E-01  0.493009E-01  0.517269E-01  0.515141E-01  0.491591E-01
  0.460107E-01  0.434075E-01  0.420342E-01  0.420342E-01  0.434075E-01  0.460107E-01
  0.575480E-01  0.568364E-01  0.546014E-01  0.506023E-01  0.452097E-01  0.391413E-01
  0.330943E-01  0.275575E-01  0.227923E-01  0.188777E-01  0.157751E-01  0.133973E-01
  0.116543E-01  0.104694E-01  0.978353E-02  0.955913E-02  0.978353E-02  0.104694E-01
  0.116543E-01  0.133973E-01  0.157751E-01  0.188777E-01  0.227923E-01  0.275575E-01
  0.330943E-01  0.391413E-01  0.452097E-01  0.506023E-01  0.546014E-01  0.568364E-01
  0.575480E-01  0.574207E-01  0.571157E-01  0.569845E-01  0.571157E-01  0.574207E-01
  0.575480E-01  0.627192E-01  0.583611E-01  0.528013E-01  0.464178E-01  0.397597E-01
  0.333482E-01  0.275575E-01  0.225910E-01  0.185039E-01  0.152485E-01  0.127303E-01
  0.108505E-01  0.952289E-02  0.867820E-02  0.826793E-02  0.826793E-02  0.867820E-02
  0.952289E-02  0.108505E-01  0.127303E-01  0.152485E-01  0.185039E-01  0.225910E-01
  0.275575E-01  0.333482E-01  0.397597E-01  0.464178E-01  0.528013E-01  0.583611E-01
  0.627192E-01  0.657915E-01  0.677088E-01  0.686281E-01  0.686281E-01  0.677088E-01
  0.657915E-01  0.627192E-01  0.619451E-01  0.552817E-01  0.480893E-01  0.408752E-01
  0.340757E-01  0.279945E-01  0.227923E-01  0.185039E-01  0.150732E-01  0.123997E-01
  0.103772E-01  0.891116E-02  0.792256E-02  0.735256E-02  0.716628E-02  0.735256E-02
  0.792256E-02  0.891116E-02  0.103772E-01  0.123997E-01  0.150732E-01  0.185039E-01
  0.227923E-01  0.279945E-01  0.340757E-01  0.408752E-01  0.480893E-01  0.552817E-01
  0.619451E-01  0.676030E-01  0.718885E-01  0.745563E-01  0.754621E-01  0.745563E-01
  0.718885E-01  0.676030E-01  0.619451E-01  0.574800E-01  0.498769E-01  0.423022E-01
  0.351910E-01  0.288360E-01  0.233881E-01  0.188777E-01  0.152485E-01  0.123997E-01
  0.102209E-01  0.861087E-02  0.748257E-02  0.676762E-02  0.642083E-02  0.642083E-02
  0.676762E-02  0.748257E-02  0.861087E-02  0.102209E-01  0.123997E-01  0.152485E-01
  0.188777E-01  0.233881E-01  0.288360E-01  0.351910E-01  0.423022E-01  0.498769E-01
  0.574800E-01  0.645673E-01  0.705538E-01  0.748986E-01  0.771851E-01  0.771851E-01
  0.748986E-01  0.705538E-01  0.645673E-01  0.574800E-01  0.515197E-01  0.438662E-01
  0.365948E-01  0.300334E-01  0.243589E-01  0.196203E-01  0.157751E-01  0.127303E-01
  0.103772E-01  0.861087E-02  0.733812E-02  0.648284E-02  0.599045E-02  0.582963E-02
  0.599045E-02  0.648284E-02  0.733812E-02  0.861087E-02  0.103772E-01  0.127303E-01
  0.157751E-01  0.196203E-01  0.243589E-01  0.300334E-01  0.365948E-01  0.438662E-01
  0.515197E-01  0.590754E-01  0.659339E-01  0.714496E-01  0.750361E-01  0.762812E-01
  0.750361E-01  0.714496E-01  0.659339E-01  0.590754E-01  0.515197E-01  0.454580E-01
  0.382080E-01  0.315413E-01  0.256847E-01  0.207273E-01  0.166561E-01  0.133973E-01
  0.108505E-01  0.891116E-02  0.748257E-02  0.648284E-02  0.584988E-02  0.554320E-02
  0.554320E-02  0.584988E-02  0.648284E-02  0.748257E-02  0.891116E-02  0.108505E-01
  0.133973E-01  0.166561E-01  0.207273E-01  0.256847E-01  0.315413E-01  0.382080E-01
  0.454580E-01  0.529079E-01  0.600270E-01  0.661851E-01  0.707429E-01  0.731719E-01
  0.731719E-01  0.707429E-01  0.661851E-01  0.600270E-01  0.529079E-01  0.454580E-01
  0.399896E-01  0.333289E-01  0.273512E-01  0.221988E-01  0.179012E-01  0.144142E-01
  0.116543E-01  0.952289E-02  0.792256E-02  0.676762E-02  0.599045E-02  0.554320E-02
  0.539729E-02  0.554320E-02  0.599045E-02  0.676762E-02  0.792256E-02  0.952289E-02
  0.116543E-01  0.144142E-01  0.179012E-01  0.221988E-01  0.273512E-01  0.333289E-01
  0.399896E-01  0.470481E-01  0.540673E-01  0.604839E-01  0.656757E-01  0.690668E-01
  0.702468E-01  0.690668E-01  0.656757E-01  0.604839E-01  0.540673E-01  0.470481E-01
  0.399896E-01  0.353829E-01  0.293520E-01  0.240400E-01  0.195261E-01  0.158036E-01
  0.128134E-01  0.104694E-01  0.867820E-02  0.735256E-02  0.642083E-02  0.582963E-02
  0.554320E-02  0.554320E-02  0.582963E-02  0.642083E-02  0.735256E-02  0.867820E-02
  0.104694E-01  0.128134E-01  0.158036E-01  0.195261E-01  0.240400E-01  0.293520E-01
  0.353829E-01  0.419329E-01  0.486604E-01  0.550879E-01  0.606462E-01  0.647584E-01
  0.669492E-01  0.669492E-01  0.647584E-01  0.606462E-01  0.550879E-01  0.486604E-01
  0.419329E-01  0.353829E-01  0.316852E-01  0.262592E-01  0.215508E-01  0.175953E-01
  0.143630E-01  0.117870E-01  0.978353E-02  0.826793E-02  0.716628E-02  0.642083E-02
  0.599045E-02  0.584988E-02  0.599045E-02  0.642083E-02  0.716628E-02  0.826793E-02
  0.978353E-02  0.117870E-01  0.143630E-01  0.175953E-01  0.215508E-01  0.262592E-01
  0.316852E-01  0.376963E-01  0.440356E-01  0.503138E-01  0.560327E-01  0.606462E-01
  0.636529E-01  0.646979E-01  0.636529E-01  0.606462E-01  0.560327E-01  0.503138E-01
  0.440356E-01  0.376963E-01  0.316852E-01  0.288622E-01  0.239957E-01  0.198220E-01
  0.163457E-01  0.135234E-01  0.112867E-01  0.955913E-02  0.826793E-02  0.735256E-02
  0.676762E-02  0.648284E-02  0.648284E-02  0.676762E-02  0.735256E-02  0.826793E-02
  0.955913E-02  0.112867E-01  0.135234E-01  0.163457E-01  0.198220E-01  0.239957E-01
  0.288622E-01  0.343394E-01  0.402392E-01  0.462530E-01  0.519600E-01  0.568679E-01
  0.604839E-01  0.624055E-01  0.624055E-01  0.604839E-01  0.568679E-01  0.519600E-01
  0.462530E-01  0.402392E-01  0.343394E-01  0.288622E-01  0.268728E-01  0.225144E-01
  0.188058E-01  0.157331E-01  0.132479E-01  0.112867E-01  0.978353E-02  0.867820E-02
  0.792256E-02  0.748257E-02  0.733812E-02  0.748257E-02  0.792256E-02  0.867820E-02
  0.978353E-02  0.112867E-01  0.132479E-01  0.157331E-01  0.188058E-01  0.225144E-01
  0.268728E-01  0.318344E-01  0.372637E-01  0.429191E-01  0.484545E-01  0.534452E-01
  0.574387E-01  0.600270E-01  0.609241E-01  0.600270E-01  0.574387E-01  0.534452E-01
  0.484545E-01  0.429191E-01  0.372637E-01  0.318344E-01  0.268728E-01  0.256898E-01
  0.217826E-01  0.184709E-01  0.157331E-01  0.135234E-01  0.117870E-01  0.104694E-01
  0.952289E-02  0.891116E-02  0.861087E-02  0.861087E-02  0.891116E-02  0.952289E-02
  0.104694E-01  0.117870E-01  0.135234E-01  0.157331E-01  0.184709E-01  0.217826E-01
  0.256898E-01  0.301662E-01  0.351117E-01  0.403349E-01  0.455524E-01  0.504091E-01
  0.545156E-01  0.575017E-01  0.590754E-01  0.590754E-01  0.575017E-01  0.545156E-01
  0.504091E-01  0.455524E-01  0.403349E-01  0.351117E-01  0.301662E-01  0.256898E-01
  0.252973E-01  0.217826E-01  0.188058E-01  0.163457E-01  0.143630E-01  0.128134E-01
  0.116543E-01  0.108505E-01  0.103772E-01  0.102209E-01  0.103772E-01  0.108505E-01
  0.116543E-01  0.128134E-01  0.143630E-01  0.163457E-01  0.188058E-01  0.217826E-01
  0.252973E-01  0.293317E-01  0.338044E-01  0.385542E-01  0.433411E-01  0.478670E-01
  0.518117E-01  0.548749E-01  0.568156E-01  0.574800E-01  0.568156E-01  0.548749E-01
  0.518117E-01  0.478670E-01  0.433411E-01  0.385542E-01  0.338044E-01  0.293317E-01
  0.252973E-01  0.256898E-01  0.225144E-01  0.198220E-01  0.175953E-01  0.158036E-01
  0.144142E-01  0.133973E-01  0.127303E-01  0.123997E-01  0.123997E-01  0.127303E-01
  0.133973E-01  0.144142E-01  0.158036E-01  0.175953E-01  0.198220E-01  0.225144E-01
  0.256898E-01  0.293317E-01  0.333654E-01  0.376421E-01  0.419419E-01  0.459997E-01
  0.495484E-01  0.523649E-01  0.543009E-01  0.552817E-01  0.552817E-01  0.543009E-01
  0.523649E-01  0.495484E-01  0.459997E-01  0.419419E-01  0.376421E-01  0.333654E-01
  0.293317E-01  0.256898E-01  0.268728E-01  0.239957E-01  0.215508E-01  0.195261E-01
  0.179012E-01  0.166561E-01  0.157751E-01  0.152485E-01  0.150732E-01  0.152485E-01
  0.157751E-01  0.166561E-01  0.179012E-01  0.195261E-01  0.215508E-01  0.239957E-01
  0.268728E-01  0.301662E-01  0.338044E-01  0.376421E-01  0.414614E-01  0.450023E-01
  0.480180E-01  0.503393E-01  0.519159E-01  0.528013E-01  0.530828E-01  0.528013E-01
  0.519159E-01  0.503393E-01  0.480180E-01  0.450023E-01  0.414614E-01  0.376421E-01
  0.338044E-01  0.301662E-01  0.268728E-01  0.288622E-01  0.262592E-01  0.240400E-01
  0.221988E-01  0.207273E-01  0.196203E-01  0.188777E-01  0.185039E-01  0.185039E-01
  0.188777E-01  0.196203E-01  0.207273E-01  0.221988E-01  0.240400E-01  0.262592E-01
  0.288622E-01  0.318344E-01  0.351117E-01  0.385542E-01  0.419419E-01  0.450023E-01
  0.474742E-01  0.491959E-01  0.501780E-01  0.506023E-01  0.507239E-01  0.507239E-01
  0.506023E-01  0.501780E-01  0.491959E-01  0.474742E-01  0.450023E-01  0.419419E-01
  0.385542E-01  0.351117E-01  0.318344E-01  0.288622E-01  0.316852E-01  0.293520E-01
  0.273512E-01  0.256847E-01  0.243589E-01  0.233881E-01  0.227923E-01  0.225910E-01
  0.227923E-01  0.233881E-01  0.243589E-01  0.256847E-01  0.273512E-01  0.293520E-01
  0.316852E-01  0.343394E-01  0.372637E-01  0.403349E-01  0.433411E-01  0.459997E-01
  0.480180E-01  0.491959E-01  0.495387E-01  0.493009E-01  0.488983E-01  0.487128E-01
  0.488983E-01  0.493009E-01  0.495387E-01  0.491959E-01  0.480180E-01  0.459997E-01
  0.433411E-01  0.403349E-01  0.372637E-01  0.343394E-01  0.316852E-01  0.353829E-01
  0.333289E-01  0.315413E-01  0.300334E-01  0.288360E-01  0.279945E-01  0.275575E-01
  0.275575E-01  0.279945E-01  0.288360E-01  0.300334E-01  0.315413E-01  0.333289E-01
  0.353829E-01  0.376963E-01  0.402392E-01  0.429191E-01  0.455524E-01  0.478670E-01
  0.495484E-01  0.503393E-01  0.501780E-01  0.493009E-01  0.482099E-01  0.474762E-01
  0.474762E-01  0.482099E-01  0.493009E-01  0.501780E-01  0.503393E-01  0.495484E-01
  0.478670E-01  0.455524E-01  0.429191E-01  0.402392E-01  0.376963E-01  0.353829E-01
  0.399896E-01  0.382080E-01  0.365948E-01  0.351910E-01  0.340757E-01  0.333482E-01
  0.330943E-01  0.333482E-01  0.340757E-01  0.351910E-01  0.365948E-01  0.382080E-01
  0.399896E-01  0.419329E-01  0.440356E-01  0.462530E-01  0.484545E-01  0.504091E-01
  0.518117E-01  0.523649E-01  0.519159E-01  0.506023E-01  0.488983E-01  0.474762E-01
  0.469246E-01  0.474762E-01  0.488983E-01  0.506023E-01  0.519159E-01  0.523649E-01
  0.518117E-01  0.504091E-01  0.484545E-01  0.462530E-01  0.440356E-01  0.419329E-01
  0.399896E-01  0.454580E-01  0.438662E-01  0.423022E-01  0.408752E-01  0.397597E-01
  0.391413E-01  0.391413E-01  0.397597E-01  0.408752E-01  0.423022E-01  0.438662E-01
  0.454580E-01  0.470481E-01  0.486604E-01  0.503138E-01  0.519600E-01  0.534452E-01
  0.545156E-01  0.548749E-01  0.543009E-01  0.528013E-01  0.507239E-01  0.487128E-01
  0.474762E-01  0.474762E-01  0.487128E-01  0.507239E-01  0.528013E-01  0.543009E-01
  0.548749E-01  0.545156E-01  0.534452E-01  0.519600E-01  0.503138E-01  0.486604E-01
  0.470481E-01  0.454580E-01  0.515197E-01  0.498769E-01  0.480893E-01  0.464178E-01
  0.452097E-01  0.447669E-01  0.452097E-01  0.464178E-01  0.480893E-01  0.498769E-01
  0.515197E-01  0.529079E-01  0.540673E-01  0.550879E-01  0.560327E-01  0.568679E-01
  0.574387E-01  0.575017E-01  0.568156E-01  0.552817E-01  0.530828E-01  0.507239E-01
  0.488983E-01  0.482099E-01  0.488983E-01  0.507239E-01  0.530828E-01  0.552817E-01
  0.568156E-01  0.575017E-01  0.574387E-01  0.568679E-01  0.560327E-01  0.550879E-01
  0.540673E-01  0.529079E-01  0.515197E-01  0.574800E-01  0.552817E-01  0.528013E-01
  0.506023E-01  0.493009E-01  0.493009E-01  0.506023E-01  0.528013E-01  0.552817E-01
  0.574800E-01  0.590754E-01  0.600270E-01  0.604839E-01  0.606462E-01  0.606462E-01
  0.604839E-01  0.600270E-01  0.590754E-01  0.574800E-01  0.552817E-01  0.528013E-01
  0.506023E-01  0.493009E-01  0.493009E-01  0.506023E-01  0.528013E-01  0.552817E-01
  0.574800E-01  0.590754E-01  0.600270E-01  0.604839E-01  0.606462E-01  0.606462E-01
  0.604839E-01  0.600270E-01  0.590754E-01  0.574800E-01  0.619451E-01  0.583611E-01
  0.546014E-01  0.517269E-01  0.506492E-01  0.517269E-01  0.546014E-01  0.583611E-01
  0.619451E-01  0.645673E-01  0.659339E-01  0.661851E-01  0.656757E-01  0.647584E-01
  0.636529E-01  0.624055E-01  0.609241E-01  0.590754E-01  0.568156E-01  0.543009E-01
  0.519159E-01  0.501780E-01  0.495387E-01  0.501780E-01  0.519159E-01  0.543009E-01
  0.568156E-01  0.590754E-01  0.609241E-01  0.624055E-01  0.636529E-01  0.647584E-01
  0.656757E-01  0.661851E-01  0.659339E-01  0.645673E-01  0.619451E-01  0.627192E-01
  0.568364E-01  0.515141E-01  0.483544E-01  0.483544E-01  0.515141E-01  0.568364E-01
  0.627192E-01  0.676030E-01  0.705538E-01  0.714496E-01  0.707429E-01  0.690668E-01
  0.669492E-01  0.646979E-01  0.624055E-01  0.600270E-01  0.575017E-01  0.548749E-01
  0.523649E-01  0.503393E-01  0.491959E-01  0.491959E-01  0.503393E-01  0.523649E-01
  0.548749E-01  0.575017E-01  0.600270E-01  0.624055E-01  0.646979E-01  0.669492E-01
  0.690668E-01  0.707429E-01  0.714496E-01  0.705538E-01  0.676030E-01  0.627192E-01
  0.575480E-01  0.491591E-01  0.429449E-01  0.406607E-01  0.429449E-01  0.491591E-01
  0.575480E-01  0.657915E-01  0.718885E-01  0.748986E-01  0.750361E-01  0.731719E-01
  0.702468E-01  0.669492E-01  0.636529E-01  0.604839E-01  0.574387E-01  0.545156E-01
  0.518117E-01  0.495484E-01  0.480180E-01  0.474742E-01  0.480180E-01  0.495484E-01
  0.518117E-01  0.545156E-01  0.574387E-01  0.604839E-01  0.636529E-01  0.669492E-01
  0.702468E-01  0.731719E-01  0.750361E-01  0.748986E-01  0.718885E-01  0.657915E-01
  0.575480E-01  0.460107E-01  0.364118E-01  0.310013E-01  0.310013E-01  0.364118E-01
  0.460107E-01  0.574207E-01  0.677088E-01  0.745563E-01  0.771851E-01  0.762812E-01
  0.731719E-01  0.690668E-01  0.647584E-01  0.606462E-01  0.568679E-01  0.534452E-01
  0.504091E-01  0.478670E-01  0.459997E-01  0.450023E-01  0.450023E-01  0.459997E-01
  0.478670E-01  0.504091E-01  0.534452E-01  0.568679E-01  0.606462E-01  0.647584E-01
  0.690668E-01  0.731719E-01  0.762812E-01  0.771851E-01  0.745563E-01  0.677088E-01
  0.574207E-01  0.460107E-01  0.309426E-01  0.225160E-01  0.195777E-01  0.225160E-01
  0.309426E-01  0.434075E-01  0.571157E-01  0.686281E-01  0.754621E-01  0.771851E-01
  0.750361E-01  0.707429E-01  0.656757E-01  0.606462E-01  0.560327E-01  0.519600E-01
  0.484545E-01  0.455524E-01  0.433411E-01  0.419419E-01  0.414614E-01  0.419419E-01
  0.433411E-01  0.455524E-01  0.484545E-01  0.519600E-01  0.560327E-01  0.606462E-01
  0.656757E-01  0.707429E-01  0.750361E-01  0.771851E-01  0.754621E-01  0.686281E-01
  0.571157E-01  0.434075E-01  0.309426E-01  0.170378E-01  0.116080E-01  0.116080E-01
  0.170378E-01  0.276550E-01  0.420342E-01  0.569845E-01  0.686281E-01  0.745563E-01
  0.748986E-01  0.714496E-01  0.661851E-01  0.604839E-01  0.550879E-01  0.503138E-01
  0.462530E-01  0.429191E-01  0.403349E-01  0.385542E-01  0.376421E-01  0.376421E-01
  0.385542E-01  0.403349E-01  0.429191E-01  0.462530E-01  0.503138E-01  0.550879E-01
  0.604839E-01  0.661851E-01  0.714496E-01  0.748986E-01  0.745563E-01  0.686281E-01
  0.569845E-01  0.420342E-01  0.276550E-01  0.170378E-01  0.754337E-02  0.529640E-02
  0.754337E-02  0.145923E-01  0.266057E-01  0.420342E-01  0.571157E-01  0.677088E-01
  0.718885E-01  0.705538E-01  0.659339E-01  0.600270E-01  0.540673E-01  0.486604E-01
  0.440356E-01  0.402392E-01  0.372637E-01  0.351117E-01  0.338044E-01  0.333654E-01
  0.338044E-01  0.351117E-01  0.372637E-01  0.402392E-01  0.440356E-01  0.486604E-01
  0.540673E-01  0.600270E-01  0.659339E-01  0.705538E-01  0.718885E-01  0.677088E-01
  0.571157E-01  0.420342E-01  0.266057E-01  0.145923E-01  0.754337E-02  0.274797E-02
  0.274797E-02  0.638750E-02  0.145923E-01  0.276550E-01  0.434075E-01  0.574207E-01
  0.657915E-01  0.676030E-01  0.645673E-01  0.590754E-01  0.529079E-01  0.470481E-01
  0.419329E-01  0.376963E-01  0.343394E-01  0.318344E-01  0.301662E-01  0.293317E-01
  0.293317E-01  0.301662E-01  0.318344E-01  0.343394E-01  0.376963E-01  0.419329E-01
  0.470481E-01  0.529079E-01  0.590754E-01  0.645673E-01  0.676030E-01  0.657915E-01
  0.574207E-01  0.434075E-01  0.276550E-01  0.145923E-01  0.638750E-02  0.274797E-02
  0.138655E-02  0.274797E-02  0.754337E-02  0.170378E-01  0.309426E-01  0.460107E-01
  0.575480E-01  0.627192E-01  0.619451E-01  0.574800E-01  0.515197E-01  0.454580E-01
  0.399896E-01  0.353829E-01  0.316852E-01  0.288622E-01  0.268728E-01  0.256898E-01
  0.252973E-01  0.256898E-01  0.268728E-01  0.288622E-01  0.316852E-01  0.353829E-01
  0.399896E-01  0.454580E-01  0.515197E-01  0.574800E-01  0.619451E-01  0.627192E-01
  0.575480E-01  0.460107E-01  0.309426E-01  0.170378E-01  0.754337E-02  0.274797E-02
  0.138655E-02  0.274797E-02  0.529640E-02  0.116080E-01  0.225160E-01  0.364118E-01
  0.491591E-01  0.568364E-01  0.583611E-01  0.552817E-01  0.498769E-01  0.438662E-01
  0.382080E-01  0.333289E-01  0.293520E-01  0.262592E-01  0.239957E-01  0.225144E-01
  0.217826E-01  0.217826E-01  0.225144E-01  0.239957E-01  0.262592E-01  0.293520E-01
  0.333289E-01  0.382080E-01  0.438662E-01  0.498769E-01  0.552817E-01  0.583611E-01
  0.568364E-01  0.491591E-01  0.364118E-01  0.225160E-01  0.116080E-01  0.529640E-02
  0.274797E-02  0.274797E-02  0.529640E-02  0.923557E-02  0.172038E-01  0.289467E-01
  0.415398E-01  0.508616E-01  0.545438E-01  0.530828E-01  0.485062E-01  0.427406E-01
  0.370047E-01  0.319068E-01  0.276727E-01  0.243241E-01  0.218059E-01  0.200566E-01
  0.190284E-01  0.186895E-01  0.190284E-01  0.200566E-01  0.218059E-01  0.243241E-01
  0.276727E-01  0.319068E-01  0.370047E-01  0.427406E-01  0.485062E-01  0.530828E-01
  0.545438E-01  0.508616E-01  0.415398E-01  0.289467E-01  0.172038E-01  0.923557E-02
  0.529640E-02  0.420452E-02  0.529640E-02  0.116080E-01  0.172038E-01  0.262896E-01
  0.371396E-01  0.463202E-01  0.509991E-01  0.507239E-01  0.469546E-01  0.415498E-01
  0.358647E-01  0.306499E-01  0.262302E-01  0.226788E-01  0.199527E-01  0.179819E-01
  0.167059E-01  0.160803E-01  0.160803E-01  0.167059E-01  0.179819E-01  0.199527E-01
  0.226788E-01  0.262302E-01  0.306499E-01  0.358647E-01  0.415498E-01  0.469546E-01
  0.507239E-01  0.509991E-01  0.463202E-01  0.371396E-01  0.262896E-01  0.172038E-01
  0.116080E-01  0.921424E-02  0.921424E-02  0.116080E-01  0.225160E-01  0.289467E-01
  0.371396E-01  0.446285E-01  0.488635E-01  0.488983E-01  0.455769E-01  0.404561E-01
  0.348551E-01  0.295832E-01  0.250321E-01  0.213214E-01  0.184265E-01  0.162747E-01
  0.147951E-01  0.139323E-01  0.136492E-01  0.139323E-01  0.147951E-01  0.162747E-01
  0.184265E-01  0.213214E-01  0.250321E-01  0.295832E-01  0.348551E-01  0.404561E-01
  0.455769E-01  0.488983E-01  0.488635E-01  0.446285E-01  0.371396E-01  0.289467E-01
  0.225160E-01  0.188380E-01  0.176997E-01  0.188380E-01  0.225160E-01  0.364118E-01
  0.415398E-01  0.463202E-01  0.488635E-01  0.482099E-01  0.447609E-01  0.396739E-01
  0.340824E-01  0.287539E-01  0.240952E-01  0.202523E-01  0.172157E-01  0.149131E-01
  0.132659E-01  0.122085E-01  0.116928E-01  0.116928E-01  0.122085E-01  0.132659E-01
  0.149131E-01  0.172157E-01  0.202523E-01  0.240952E-01  0.287539E-01  0.340824E-01
  0.396739E-01  0.447609E-01  0.482099E-01  0.488635E-01  0.463202E-01  0.415398E-01
  0.364118E-01  0.325515E-01  0.306089E-01  0.306089E-01  0.325515E-01  0.364118E-01
  0.491591E-01  0.508616E-01  0.509991E-01  0.488983E-01  0.447609E-01  0.393886E-01
  0.336592E-01  0.282213E-01  0.234453E-01  0.194764E-01  0.163108E-01  0.138755E-01
  0.120855E-01  0.108663E-01  0.101599E-01  0.992880E-02  0.101599E-01  0.108663E-01
  0.120855E-01  0.138755E-01  0.163108E-01  0.194764E-01  0.234453E-01  0.282213E-01
  0.336592E-01  0.393886E-01  0.447609E-01  0.488983E-01  0.509991E-01  0.508616E-01
  0.491591E-01  0.470574E-01  0.455148E-01  0.449698E-01  0.455148E-01  0.470574E-01
  0.491591E-01  0.568364E-01  0.545438E-01  0.507239E-01  0.455769E-01  0.396739E-01
  0.336592E-01  0.280370E-01  0.231108E-01  0.190037E-01  0.157070E-01  0.131445E-01
  0.112247E-01  0.986539E-02  0.899932E-02  0.857856E-02  0.857856E-02  0.899932E-02
  0.986539E-02  0.112247E-01  0.131445E-01  0.157070E-01  0.190037E-01  0.231108E-01
  0.280370E-01  0.336592E-01  0.396739E-01  0.455769E-01  0.507239E-01  0.545438E-01
  0.568364E-01  0.578827E-01  0.582153E-01  0.582775E-01  0.582775E-01  0.582153E-01
  0.578827E-01  0.568364E-01  0.583611E-01  0.530828E-01  0.469546E-01  0.404561E-01
  0.340824E-01  0.282213E-01  0.231108E-01  0.188446E-01  0.154043E-01  0.127092E-01
  0.106619E-01  0.917299E-02  0.816718E-02  0.758691E-02  0.739728E-02  0.758691E-02
  0.816718E-02  0.917299E-02  0.106619E-01  0.127092E-01  0.154043E-01  0.188446E-01
  0.231108E-01  0.282213E-01  0.340824E-01  0.404561E-01  0.469546E-01  0.530828E-01
  0.583611E-01  0.624783E-01  0.653482E-01  0.670240E-01  0.675742E-01  0.670240E-01
  0.653482E-01  0.624783E-01  0.583611E-01  0.552817E-01  0.485062E-01  0.415498E-01
  0.348551E-01  0.287539E-01  0.234453E-01  0.190037E-01  0.154043E-01  0.125645E-01
  0.103835E-01  0.876633E-02  0.763053E-02  0.691011E-02  0.656057E-02  0.656057E-02
  0.691011E-02  0.763053E-02  0.876633E-02  0.103835E-01  0.125645E-01  0.154043E-01
  0.190037E-01  0.234453E-01  0.287539E-01  0.348551E-01  0.415498E-01  0.485062E-01
  0.552817E-01  0.613872E-01  0.663732E-01  0.698908E-01  0.717080E-01  0.717080E-01
  0.698908E-01  0.663732E-01  0.613872E-01  0.552817E-01  0.498769E-01  0.427406E-01
  0.358647E-01  0.295832E-01  0.240952E-01  0.194764E-01  0.157070E-01  0.127092E-01
  0.103835E-01  0.863222E-02  0.736764E-02  0.651684E-02  0.602664E-02  0.586645E-02
  0.602664E-02  0.651684E-02  0.736764E-02  0.863222E-02  0.103835E-01  0.127092E-01
  0.157070E-01  0.194764E-01  0.240952E-01  0.295832E-01  0.358647E-01  0.427406E-01
  0.498769E-01  0.568156E-01  0.630182E-01  0.679382E-01  0.711044E-01  0.721976E-01
  0.711044E-01  0.679382E-01  0.630182E-01  0.568156E-01  0.498769E-01  0.438662E-01
  0.370047E-01  0.306499E-01  0.250321E-01  0.202523E-01  0.163108E-01  0.131445E-01
  0.106619E-01  0.876633E-02  0.736764E-02  0.638793E-02  0.576706E-02  0.546590E-02
  0.546590E-02  0.576706E-02  0.638793E-02  0.736764E-02  0.876633E-02  0.106619E-01
  0.131445E-01  0.163108E-01  0.202523E-01  0.250321E-01  0.306499E-01  0.370047E-01
  0.438662E-01  0.508640E-01  0.575017E-01  0.632050E-01  0.674035E-01  0.696333E-01
  0.696333E-01  0.674035E-01  0.632050E-01  0.575017E-01  0.508640E-01  0.438662E-01
  0.382080E-01  0.319068E-01  0.262302E-01  0.213214E-01  0.172157E-01  0.138755E-01
  0.112247E-01  0.917299E-02  0.763053E-02  0.651684E-02  0.576706E-02  0.533512E-02
  0.519406E-02  0.533512E-02  0.576706E-02  0.651684E-02  0.763053E-02  0.917299E-02
  0.112247E-01  0.138755E-01  0.172157E-01  0.213214E-01  0.262302E-01  0.319068E-01
  0.382080E-01  0.448574E-01  0.514420E-01  0.574387E-01  0.622761E-01  0.654290E-01
  0.665249E-01  0.654290E-01  0.622761E-01  0.574387E-01  0.514420E-01  0.448574E-01
  0.382080E-01  0.333289E-01  0.276727E-01  0.226788E-01  0.184265E-01  0.149131E-01
  0.120855E-01  0.986539E-02  0.816718E-02  0.691011E-02  0.602664E-02  0.546590E-02
  0.519406E-02  0.519406E-02  0.546590E-02  0.602664E-02  0.691011E-02  0.816718E-02
  0.986539E-02  0.120855E-01  0.149131E-01  0.184265E-01  0.226788E-01  0.276727E-01
  0.333289E-01  0.394554E-01  0.457300E-01  0.517090E-01  0.568679E-01  0.606783E-01
  0.627064E-01  0.627064E-01  0.606783E-01  0.568679E-01  0.517090E-01  0.457300E-01
  0.394554E-01  0.333289E-01  0.293520E-01  0.243241E-01  0.199527E-01  0.162747E-01
  0.132659E-01  0.108663E-01  0.899932E-02  0.758691E-02  0.656057E-02  0.586645E-02
  0.546590E-02  0.533512E-02  0.546590E-02  0.586645E-02  0.656057E-02  0.758691E-02
  0.899932E-02  0.108663E-01  0.132659E-01  0.162747E-01  0.199527E-01  0.243241E-01
  0.293520E-01  0.349104E-01  0.407596E-01  0.465409E-01  0.517979E-01  0.560327E-01
  0.587897E-01  0.597475E-01  0.587897E-01  0.560327E-01  0.517979E-01  0.465409E-01
  0.407596E-01  0.349104E-01  0.293520E-01  0.262592E-01  0.218059E-01  0.179819E-01
  0.147951E-01  0.122085E-01  0.101599E-01  0.857856E-02  0.739728E-02  0.656057E-02
  0.602664E-02  0.576706E-02  0.576706E-02  0.602664E-02  0.656057E-02  0.739728E-02
  0.857856E-02  0.101599E-01  0.122085E-01  0.147951E-01  0.179819E-01  0.218059E-01
  0.262592E-01  0.312640E-01  0.366480E-01  0.421307E-01  0.473298E-01  0.517979E-01
  0.550879E-01  0.568355E-01  0.568355E-01  0.550879E-01  0.517979E-01  0.473298E-01
  0.421307E-01  0.366480E-01  0.312640E-01  0.262592E-01  0.239957E-01  0.200566E-01
  0.167059E-01  0.139323E-01  0.116928E-01  0.992880E-02  0.857856E-02  0.758691E-02
  0.691011E-02  0.651684E-02  0.638793E-02  0.651684E-02  0.691011E-02  0.758691E-02
  0.857856E-02  0.992880E-02  0.116928E-01  0.139323E-01  0.167059E-01  0.200566E-01
  0.239957E-01  0.284806E-01  0.333917E-01  0.385143E-01  0.435371E-01  0.480737E-01
  0.517090E-01  0.540673E-01  0.548851E-01  0.540673E-01  0.517090E-01  0.480737E-01
  0.435371E-01  0.385143E-01  0.333917E-01  0.284806E-01  0.239957E-01  0.225144E-01
  0.190284E-01  0.160803E-01  0.136492E-01  0.116928E-01  0.101599E-01  0.899932E-02
  0.816718E-02  0.763053E-02  0.736764E-02  0.736764E-02  0.763053E-02  0.816718E-02
  0.899932E-02  0.101599E-01  0.116928E-01  0.136492E-01  0.160803E-01  0.190284E-01
  0.225144E-01  0.265194E-01  0.309628E-01  0.356826E-01  0.404300E-01  0.448813E-01
  0.486709E-01  0.514420E-01  0.529079E-01  0.529079E-01  0.514420E-01  0.486709E-01
  0.448813E-01  0.404300E-01  0.356826E-01  0.309628E-01  0.265194E-01  0.225144E-01
  0.217826E-01  0.186895E-01  0.160803E-01  0.139323E-01  0.122085E-01  0.108663E-01
  0.986539E-02  0.917299E-02  0.876633E-02  0.863222E-02  0.876633E-02  0.917299E-02
  0.986539E-02  0.108663E-01  0.122085E-01  0.139323E-01  0.160803E-01  0.186895E-01
  0.217826E-01  0.253532E-01  0.293458E-01  0.336372E-01  0.380281E-01  0.422523E-01
  0.460015E-01  0.489627E-01  0.508640E-01  0.515197E-01  0.508640E-01  0.489627E-01
  0.460015E-01  0.422523E-01  0.380281E-01  0.336372E-01  0.293458E-01  0.253532E-01
  0.217826E-01  0.217826E-01  0.190284E-01  0.167059E-01  0.147951E-01  0.132659E-01
  0.120855E-01  0.112247E-01  0.106619E-01  0.103835E-01  0.103835E-01  0.106619E-01
  0.112247E-01  0.120855E-01  0.132659E-01  0.147951E-01  0.167059E-01  0.190284E-01
  0.217826E-01  0.249662E-01  0.285372E-01  0.323960E-01  0.363776E-01  0.402604E-01
  0.437894E-01  0.467080E-01  0.487920E-01  0.498769E-01  0.498769E-01  0.487920E-01
  0.467080E-01  0.437894E-01  0.402604E-01  0.363776E-01  0.323960E-01  0.285372E-01
  0.249662E-01  0.217826E-01  0.225144E-01  0.200566E-01  0.179819E-01  0.162747E-01
  0.149131E-01  0.138755E-01  0.131445E-01  0.127092E-01  0.125645E-01  0.127092E-01
  0.131445E-01  0.138755E-01  0.149131E-01  0.162747E-01  0.179819E-01  0.200566E-01
  0.225144E-01  0.253532E-01  0.285372E-01  0.319794E-01  0.355338E-01  0.390057E-01
  0.421785E-01  0.448480E-01  0.468528E-01  0.480893E-01  0.485062E-01  0.480893E-01
  0.468528E-01  0.448480E-01  0.421785E-01  0.390057E-01  0.355338E-01  0.319794E-01
  0.285372E-01  0.253532E-01  0.225144E-01  0.239957E-01  0.218059E-01  0.199527E-01
  0.184265E-01  0.172157E-01  0.163108E-01  0.157070E-01  0.154043E-01  0.154043E-01
  0.157070E-01  0.163108E-01  0.172157E-01  0.184265E-01  0.199527E-01  0.218059E-01
  0.239957E-01  0.265194E-01  0.293458E-01  0.323960E-01  0.355338E-01  0.385758E-01
  0.413227E-01  0.436027E-01  0.453100E-01  0.464178E-01  0.469546E-01  0.469546E-01
  0.464178E-01  0.453100E-01  0.436027E-01  0.413227E-01  0.385758E-01  0.355338E-01
  0.323960E-01  0.293458E-01  0.265194E-01  0.239957E-01  0.262592E-01  0.243241E-01
  0.226788E-01  0.213214E-01  0.202523E-01  0.194764E-01  0.190037E-01  0.188446E-01
  0.190037E-01  0.194764E-01  0.202523E-01  0.213214E-01  0.226788E-01  0.243241E-01
  0.262592E-01  0.284806E-01  0.309628E-01  0.336372E-01  0.363776E-01  0.390057E-01
  0.413227E-01  0.431624E-01  0.444460E-01  0.452097E-01  0.455769E-01  0.456805E-01
  0.455769E-01  0.452097E-01  0.444460E-01  0.431624E-01  0.413227E-01  0.390057E-01
  0.363776E-01  0.336372E-01  0.309628E-01  0.284806E-01  0.262592E-01  0.293520E-01
  0.276727E-01  0.262302E-01  0.250321E-01  0.240952E-01  0.234453E-01  0.231108E-01
  0.231108E-01  0.234453E-01  0.240952E-01  0.250321E-01  0.262302E-01  0.276727E-01
  0.293520E-01  0.312640E-01  0.333917E-01  0.356826E-01  0.380281E-01  0.402604E-01
  0.421785E-01  0.436027E-01  0.444460E-01  0.447669E-01  0.447609E-01  0.446735E-01
  0.446735E-01  0.447609E-01  0.447669E-01  0.444460E-01  0.436027E-01  0.421785E-01
  0.402604E-01  0.380281E-01  0.356826E-01  0.333917E-01  0.312640E-01  0.293520E-01
  0.333289E-01  0.319068E-01  0.306499E-01  0.295832E-01  0.287539E-01  0.282213E-01
  0.280370E-01  0.282213E-01  0.287539E-01  0.295832E-01  0.306499E-01  0.319068E-01
  0.333289E-01  0.349104E-01  0.366480E-01  0.385143E-01  0.404300E-01  0.422523E-01
  0.437894E-01  0.448480E-01  0.453100E-01  0.452097E-01  0.447609E-01  0.442905E-01
  0.440942E-01  0.442905E-01  0.447609E-01  0.452097E-01  0.453100E-01  0.448480E-01
  0.437894E-01  0.422523E-01  0.404300E-01  0.385143E-01  0.366480E-01  0.349104E-01
  0.333289E-01  0.382080E-01  0.370047E-01  0.358647E-01  0.348551E-01  0.340824E-01
  0.336592E-01  0.336592E-01  0.340824E-01  0.348551E-01  0.358647E-01  0.370047E-01
  0.382080E-01  0.394554E-01  0.407596E-01  0.421307E-01  0.435371E-01  0.448813E-01
  0.460015E-01  0.467080E-01  0.468528E-01  0.464178E-01  0.455769E-01  0.446735E-01
  0.440942E-01  0.440942E-01  0.446735E-01  0.455769E-01  0.464178E-01  0.468528E-01
  0.467080E-01  0.460015E-01  0.448813E-01  0.435371E-01  0.421307E-01  0.407596E-01
  0.394554E-01  0.382080E-01  0.438662E-01  0.427406E-01  0.415498E-01  0.404561E-01
  0.396739E-01  0.393886E-01  0.396739E-01  0.404561E-01  0.415498E-01  0.427406E-01
  0.438662E-01  0.448574E-01  0.457300E-01  0.465409E-01  0.473298E-01  0.480737E-01
  0.486709E-01  0.489627E-01  0.487920E-01  0.480893E-01  0.469546E-01  0.456805E-01
  0.446735E-01  0.442905E-01  0.446735E-01  0.456805E-01  0.469546E-01  0.480893E-01
  0.487920E-01  0.489627E-01  0.486709E-01  0.480737E-01  0.473298E-01  0.465409E-01
  0.457300E-01  0.448574E-01  0.438662E-01  0.498769E-01  0.485062E-01  0.469546E-01
  0.455769E-01  0.447609E-01  0.447609E-01  0.455769E-01  0.469546E-01  0.485062E-01
  0.498769E-01  0.508640E-01  0.514420E-01  0.517090E-01  0.517979E-01  0.517979E-01
  0.517090E-01  0.514420E-01  0.508640E-01  0.498769E-01  0.485062E-01  0.469546E-01
  0.455769E-01  0.447609E-01  0.447609E-01  0.455769E-01  0.469546E-01  0.485062E-01
  0.498769E-01  0.508640E-01  0.514420E-01  0.517090E-01  0.517979E-01  0.517979E-01
  0.517090E-01  0.514420E-01  0.508640E-01  0.498769E-01  0.552817E-01  0.530828E-01
  0.507239E-01  0.488983E-01  0.482099E-01  0.488983E-01  0.507239E-01  0.530828E-01
  0.552817E-01  0.568156E-01  0.575017E-01  0.574387E-01  0.568679E-01  0.560327E-01
  0.550879E-01  0.540673E-01  0.529079E-01  0.515197E-01  0.498769E-01  0.480893E-01
  0.464178E-01  0.452097E-01  0.447669E-01  0.452097E-01  0.464178E-01  0.480893E-01
  0.498769E-01  0.515197E-01  0.529079E-01  0.540673E-01  0.550879E-01  0.560327E-01
  0.568679E-01  0.574387E-01  0.575017E-01  0.568156E-01  0.552817E-01  0.583611E-01
  0.545438E-01  0.509991E-01  0.488635E-01  0.488635E-01  0.509991E-01  0.545438E-01
  0.583611E-01  0.613872E-01  0.630182E-01  0.632050E-01  0.622761E-01  0.606783E-01
  0.587897E-01  0.568355E-01  0.548851E-01  0.529079E-01  0.508640E-01  0.487920E-01
  0.468528E-01  0.453100E-01  0.444460E-01  0.444460E-01  0.453100E-01  0.468528E-01
  0.487920E-01  0.508640E-01  0.529079E-01  0.548851E-01  0.568355E-01  0.587897E-01
  0.606783E-01  0.622761E-01  0.632050E-01  0.630182E-01  0.613872E-01  0.583611E-01
  0.568364E-01  0.508616E-01  0.463202E-01  0.446285E-01  0.463202E-01  0.508616E-01
  0.568364E-01  0.624783E-01  0.663732E-01  0.679382E-01  0.674035E-01  0.654290E-01
  0.627064E-01  0.597475E-01  0.568355E-01  0.540673E-01  0.514420E-01  0.489627E-01
  0.467080E-01  0.448480E-01  0.436027E-01  0.431624E-01  0.436027E-01  0.448480E-01
  0.467080E-01  0.489627E-01  0.514420E-01  0.540673E-01  0.568355E-01  0.597475E-01
  0.627064E-01  0.654290E-01  0.674035E-01  0.679382E-01  0.663732E-01  0.624783E-01
  0.568364E-01  0.491591E-01  0.415398E-01  0.371396E-01  0.371396E-01  0.415398E-01
  0.491591E-01  0.578827E-01  0.653482E-01  0.698908E-01  0.711044E-01  0.696333E-01
  0.665249E-01  0.627064E-01  0.587897E-01  0.550879E-01  0.517090E-01  0.486709E-01
  0.460015E-01  0.437894E-01  0.421785E-01  0.413227E-01  0.413227E-01  0.421785E-01
  0.437894E-01  0.460015E-01  0.486709E-01  0.517090E-01  0.550879E-01  0.587897E-01
  0.627064E-01  0.665249E-01  0.696333E-01  0.711044E-01  0.698908E-01  0.653482E-01
  0.578827E-01  0.491591E-01  0.364118E-01  0.289467E-01  0.262896E-01  0.289467E-01
  0.364118E-01  0.470574E-01  0.582153E-01  0.670240E-01  0.717080E-01  0.721976E-01
  0.696333E-01  0.654290E-01  0.606783E-01  0.560327E-01  0.517979E-01  0.480737E-01
  0.448813E-01  0.422523E-01  0.402604E-01  0.390057E-01  0.385758E-01  0.390057E-01
  0.402604E-01  0.422523E-01  0.448813E-01  0.480737E-01  0.517979E-01  0.560327E-01
  0.606783E-01  0.654290E-01  0.696333E-01  0.721976E-01  0.717080E-01  0.670240E-01
  0.582153E-01  0.470574E-01  0.364118E-01  0.225160E-01  0.172038E-01  0.172038E-01
  0.225160E-01  0.325515E-01  0.455148E-01  0.582775E-01  0.675742E-01  0.717080E-01
  0.711044E-01  0.674035E-01  0.622761E-01  0.568679E-01  0.517979E-01  0.473298E-01
  0.435371E-01  0.404300E-01  0.380281E-01  0.363776E-01  0.355338E-01  0.355338E-01
  0.363776E-01  0.380281E-01  0.404300E-01  0.435371E-01  0.473298E-01  0.517979E-01
  0.568679E-01  0.622761E-01  0.674035E-01  0.711044E-01  0.717080E-01  0.675742E-01
  0.582775E-01  0.455148E-01  0.325515E-01  0.225160E-01  0.116080E-01  0.923557E-02
  0.116080E-01  0.188380E-01  0.306089E-01  0.449698E-01  0.582775E-01  0.670240E-01
  0.698908E-01  0.679382E-01  0.632050E-01  0.574387E-01  0.517090E-01  0.465409E-01
  0.421307E-01  0.385143E-01  0.356826E-01  0.336372E-01  0.323960E-01  0.319794E-01
  0.323960E-01  0.336372E-01  0.356826E-01  0.385143E-01  0.421307E-01  0.465409E-01
  0.517090E-01  0.574387E-01  0.632050E-01  0.679382E-01  0.698908E-01  0.670240E-01
  0.582775E-01  0.449698E-01  0.306089E-01  0.188380E-01  0.116080E-01  0.529640E-02
  0.529640E-02  0.921424E-02  0.176997E-01  0.306089E-01  0.455148E-01  0.582153E-01
  0.653482E-01  0.663732E-01  0.630182E-01  0.575017E-01  0.514420E-01  0.457300E-01
  0.407596E-01  0.366480E-01  0.333917E-01  0.309628E-01  0.293458E-01  0.285372E-01
  0.285372E-01  0.293458E-01  0.309628E-01  0.333917E-01  0.366480E-01  0.407596E-01
  0.457300E-01  0.514420E-01  0.575017E-01  0.630182E-01  0.663732E-01  0.653482E-01
  0.582153E-01  0.455148E-01  0.306089E-01  0.176997E-01  0.921424E-02  0.529640E-02
  0.274797E-02  0.420452E-02  0.921424E-02  0.188380E-01  0.325515E-01  0.470574E-01
  0.578827E-01  0.624783E-01  0.613872E-01  0.568156E-01  0.508640E-01  0.448574E-01
  0.394554E-01  0.349104E-01  0.312640E-01  0.284806E-01  0.265194E-01  0.253532E-01
  0.249662E-01  0.253532E-01  0.265194E-01  0.284806E-01  0.312640E-01  0.349104E-01
  0.394554E-01  0.448574E-01  0.508640E-01  0.568156E-01  0.613872E-01  0.624783E-01
  0.578827E-01  0.470574E-01  0.325515E-01  0.188380E-01  0.921424E-02  0.420452E-02
  0.274797E-02  0.274797E-02  0.529640E-02  0.116080E-01  0.225160E-01  0.364118E-01
  0.491591E-01  0.568364E-01  0.583611E-01  0.552817E-01  0.498769E-01  0.438662E-01
  0.382080E-01  0.333289E-01  0.293520E-01  0.262592E-01  0.239957E-01  0.225144E-01
  0.217826E-01  0.217826E-01  0.225144E-01  0.239957E-01  0.262592E-01  0.293520E-01
  0.333289E-01  0.382080E-01  0.438662E-01  0.498769E-01  0.552817E-01  0.583611E-01
  0.568364E-01  0.491591E-01  0.364118E-01  0.225160E-01  0.116080E-01  0.529640E-02
  0.274797E-02  0.274797E-02  0.754337E-02  0.116080E-01  0.195777E-01  0.310013E-01
  0.429449E-01  0.515141E-01  0.546014E-01  0.528013E-01  0.480893E-01  0.423022E-01
  0.365948E-01  0.315413E-01  0.273512E-01  0.240400E-01  0.215508E-01  0.198220E-01
  0.188058E-01  0.184709E-01  0.188058E-01  0.198220E-01  0.215508E-01  0.240400E-01
  0.273512E-01  0.315413E-01  0.365948E-01  0.423022E-01  0.480893E-01  0.528013E-01
  0.546014E-01  0.515141E-01  0.429449E-01  0.310013E-01  0.195777E-01  0.116080E-01
  0.754337E-02  0.638750E-02  0.754337E-02  0.116080E-01  0.172038E-01  0.262896E-01
  0.371396E-01  0.463202E-01  0.509991E-01  0.507239E-01  0.469546E-01  0.415498E-01
  0.358647E-01  0.306499E-01  0.262302E-01  0.226788E-01  0.199527E-01  0.179819E-01
  0.167059E-01  0.160803E-01  0.160803E-01  0.167059E-01  0.179819E-01  0.199527E-01
  0.226788E-01  0.262302E-01  0.306499E-01  0.358647E-01  0.415498E-01  0.469546E-01
  0.507239E-01  0.509991E-01  0.463202E-01  0.371396E-01  0.262896E-01  0.172038E-01
  0.116080E-01  0.921424E-02  0.921424E-02  0.116080E-01  0.195777E-01  0.262896E-01
  0.350235E-01  0.432334E-01  0.481674E-01  0.487128E-01  0.456805E-01  0.406858E-01
  0.351194E-01  0.298390E-01  0.252633E-01  0.215258E-01  0.186073E-01  0.164367E-01
  0.149437E-01  0.140729E-01  0.137871E-01  0.140729E-01  0.149437E-01  0.164367E-01
  0.186073E-01  0.215258E-01  0.252633E-01  0.298390E-01  0.351194E-01  0.406858E-01
  0.456805E-01  0.487128E-01  0.481674E-01  0.432334E-01  0.350235E-01  0.262896E-01
  0.195777E-01  0.158065E-01  0.146527E-01  0.158065E-01  0.195777E-01  0.310013E-01
  0.371396E-01  0.432334E-01  0.470956E-01  0.474762E-01  0.446735E-01  0.399135E-01
  0.344498E-01  0.291449E-01  0.244631E-01  0.205826E-01  0.175087E-01  0.151745E-01
  0.135029E-01  0.124291E-01  0.119053E-01  0.119053E-01  0.124291E-01  0.135029E-01
  0.151745E-01  0.175087E-01  0.205826E-01  0.244631E-01  0.291449E-01  0.344498E-01
  0.399135E-01  0.446735E-01  0.474762E-01  0.470956E-01  0.432334E-01  0.371396E-01
  0.310013E-01  0.265440E-01  0.243488E-01  0.243488E-01  0.265440E-01  0.310013E-01
  0.429449E-01  0.463202E-01  0.481674E-01  0.474762E-01  0.442905E-01  0.394547E-01
  0.339771E-01  0.286265E-01  0.238546E-01  0.198556E-01  0.166517E-01  0.141805E-01
  0.123607E-01  0.111195E-01  0.103998E-01  0.101643E-01  0.103998E-01  0.111195E-01
  0.123607E-01  0.141805E-01  0.166517E-01  0.198556E-01  0.238546E-01  0.286265E-01
  0.339771E-01  0.394547E-01  0.442905E-01  0.474762E-01  0.481674E-01  0.463202E-01
  0.429449E-01  0.395345E-01  0.372044E-01  0.364025E-01  0.372044E-01  0.395345E-01
  0.429449E-01  0.515141E-01  0.509991E-01  0.487128E-01  0.446735E-01  0.394547E-01
  0.338058E-01  0.283469E-01  0.234704E-01  0.193578E-01  0.160351E-01  0.134424E-01
  0.114946E-01  0.101126E-01  0.923096E-02  0.880241E-02  0.880241E-02  0.923096E-02
  0.101126E-01  0.114946E-01  0.134424E-01  0.160351E-01  0.193578E-01  0.234704E-01
  0.283469E-01  0.338058E-01  0.394547E-01  0.446735E-01  0.487128E-01  0.509991E-01
  0.515141E-01  0.508663E-01  0.499110E-01  0.492912E-01  0.492912E-01  0.499110E-01
  0.508663E-01  0.515141E-01  0.546014E-01  0.507239E-01  0.456805E-01  0.399135E-01
  0.339771E-01  0.283469E-01  0.233385E-01  0.191039E-01  0.156623E-01  0.129527E-01
  0.108871E-01  0.938084E-02  0.836144E-02  0.777290E-02  0.758054E-02  0.777290E-02
  0.836144E-02  0.938084E-02  0.108871E-01  0.129527E-01  0.156623E-01  0.191039E-01
  0.233385E-01  0.283469E-01  0.339771E-01  0.399135E-01  0.456805E-01  0.507239E-01
  0.546014E-01  0.571817E-01  0.586632E-01  0.593806E-01  0.595902E-01  0.593806E-01
  0.586632E-01  0.571817E-01  0.546014E-01  0.528013E-01  0.469546E-01  0.406858E-01
  0.344498E-01  0.286265E-01  0.234704E-01  0.191039E-01  0.155373E-01  0.127084E-01
  0.105268E-01  0.890390E-02  0.776152E-02  0.703618E-02  0.668414E-02  0.668414E-02
  0.703618E-02  0.776152E-02  0.890390E-02  0.105268E-01  0.127084E-01  0.155373E-01
  0.191039E-01  0.234704E-01  0.286265E-01  0.344498E-01  0.406858E-01  0.469546E-01
  0.528013E-01  0.578006E-01  0.616615E-01  0.642536E-01  0.655482E-01  0.655482E-01
  0.642536E-01  0.616615E-01  0.578006E-01  0.528013E-01  0.480893E-01  0.415498E-01
  0.351194E-01  0.291449E-01  0.238546E-01  0.193578E-01  0.156623E-01  0.127084E-01
  0.104074E-01  0.866870E-02  0.741010E-02  0.656217E-02  0.607332E-02  0.591353E-02
  0.607332E-02  0.656217E-02  0.741010E-02  0.866870E-02  0.104074E-01  0.127084E-01
  0.156623E-01  0.193578E-01  0.238546E-01  0.291449E-01  0.351194E-01  0.415498E-01
  0.480893E-01  0.543009E-01  0.597184E-01  0.639181E-01  0.665736E-01  0.674816E-01
  0.665736E-01  0.639181E-01  0.597184E-01  0.543009E-01  0.480893E-01  0.423022E-01
  0.358647E-01  0.298390E-01  0.244631E-01  0.198556E-01  0.160351E-01  0.129527E-01
  0.105268E-01  0.866870E-02  0.729440E-02  0.633045E-02  0.571901E-02  0.542220E-02
  0.542220E-02  0.571901E-02  0.633045E-02  0.729440E-02  0.866870E-02  0.105268E-01
  0.129527E-01  0.160351E-01  0.198556E-01  0.244631E-01  0.298390E-01  0.358647E-01
  0.423022E-01  0.487920E-01  0.548749E-01  0.600428E-01  0.638116E-01  0.658007E-01
  0.658007E-01  0.638116E-01  0.600428E-01  0.548749E-01  0.487920E-01  0.423022E-01
  0.365948E-01  0.306499E-01  0.252633E-01  0.205826E-01  0.166517E-01  0.134424E-01
  0.108871E-01  0.890390E-02  0.741010E-02  0.633045E-02  0.560300E-02  0.518347E-02
  0.504635E-02  0.518347E-02  0.560300E-02  0.633045E-02  0.741010E-02  0.890390E-02
  0.108871E-01  0.134424E-01  0.166517E-01  0.205826E-01  0.252633E-01  0.306499E-01
  0.365948E-01  0.428288E-01  0.489627E-01  0.545156E-01  0.589724E-01  0.618667E-01
  0.628708E-01  0.618667E-01  0.589724E-01  0.545156E-01  0.489627E-01  0.428288E-01
  0.365948E-01  0.315413E-01  0.262302E-01  0.215258E-01  0.175087E-01  0.141805E-01
  0.114946E-01  0.938084E-02  0.776152E-02  0.656217E-02  0.571901E-02  0.518347E-02
  0.492358E-02  0.492358E-02  0.518347E-02  0.571901E-02  0.656217E-02  0.776152E-02
  0.938084E-02  0.114946E-01  0.141805E-01  0.175087E-01  0.215258E-01  0.262302E-01
  0.315413E-01  0.372727E-01  0.431200E-01  0.486709E-01  0.534452E-01  0.569632E-01
  0.588329E-01  0.588329E-01  0.569632E-01  0.534452E-01  0.486709E-01  0.431200E-01
  0.372727E-01  0.315413E-01  0.273512E-01  0.226788E-01  0.186073E-01  0.151745E-01
  0.123607E-01  0.101126E-01  0.836144E-02  0.703618E-02  0.607332E-02  0.542220E-02
  0.504635E-02  0.492358E-02  0.504635E-02  0.542220E-02  0.607332E-02  0.703618E-02
  0.836144E-02  0.101126E-01  0.123607E-01  0.151745E-01  0.186073E-01  0.226788E-01
  0.273512E-01  0.325035E-01  0.379104E-01  0.432397E-01  0.480737E-01  0.519600E-01
  0.544867E-01  0.553639E-01  0.544867E-01  0.519600E-01  0.480737E-01  0.432397E-01
  0.379104E-01  0.325035E-01  0.273512E-01  0.240400E-01  0.199527E-01  0.164367E-01
  0.135029E-01  0.111195E-01  0.923096E-02  0.777290E-02  0.668414E-02  0.591353E-02
  0.542220E-02  0.518347E-02  0.518347E-02  0.542220E-02  0.591353E-02  0.668414E-02
  0.777290E-02  0.923096E-02  0.111195E-01  0.135029E-01  0.164367E-01  0.199527E-01
  0.240400E-01  0.286236E-01  0.335432E-01  0.385417E-01  0.432718E-01  0.473298E-01
  0.503138E-01  0.518974E-01  0.518974E-01  0.503138E-01  0.473298E-01  0.432718E-01
  0.385417E-01  0.335432E-01  0.286236E-01  0.240400E-01  0.215508E-01  0.179819E-01
  0.149437E-01  0.124291E-01  0.103998E-01  0.880241E-02  0.758054E-02  0.668414E-02
  0.607332E-02  0.571901E-02  0.560300E-02  0.571901E-02  0.607332E-02  0.668414E-02
  0.758054E-02  0.880241E-02  0.103998E-01  0.124291E-01  0.149437E-01  0.179819E-01
  0.215508E-01  0.256084E-01  0.300442E-01  0.346643E-01  0.391891E-01  0.432718E-01
  0.465409E-01  0.486604E-01  0.493951E-01  0.486604E-01  0.465409E-01  0.432718E-01
  0.391891E-01  0.346643E-01  0.300442E-01  0.256084E-01  0.215508E-01  0.198220E-01
  0.167059E-01  0.140729E-01  0.119053E-01  0.101643E-01  0.880241E-02  0.777290E-02
  0.703618E-02  0.656217E-02  0.633045E-02  0.633045E-02  0.656217E-02  0.703618E-02
  0.777290E-02  0.880241E-02  0.101643E-01  0.119053E-01  0.140729E-01  0.167059E-01
  0.198220E-01  0.234026E-01  0.273750E-01  0.315966E-01  0.358470E-01  0.398377E-01
  0.432397E-01  0.457300E-01  0.470481E-01  0.470481E-01  0.457300E-01  0.432397E-01
  0.398377E-01  0.358470E-01  0.315966E-01  0.273750E-01  0.234026E-01  0.198220E-01
  0.188058E-01  0.160803E-01  0.137871E-01  0.119053E-01  0.103998E-01  0.923096E-02
  0.836144E-02  0.776152E-02  0.741010E-02  0.729440E-02  0.741010E-02  0.776152E-02
  0.836144E-02  0.923096E-02  0.103998E-01  0.119053E-01  0.137871E-01  0.160803E-01
  0.188058E-01  0.219592E-01  0.254951E-01  0.293104E-01  0.332346E-01  0.370331E-01
  0.404255E-01  0.431200E-01  0.448574E-01  0.454580E-01  0.448574E-01  0.431200E-01
  0.404255E-01  0.370331E-01  0.332346E-01  0.293104E-01  0.254951E-01  0.219592E-01
  0.188058E-01  0.184709E-01  0.160803E-01  0.140729E-01  0.124291E-01  0.111195E-01
  0.101126E-01  0.938084E-02  0.890390E-02  0.866870E-02  0.866870E-02  0.890390E-02
  0.938084E-02  0.101126E-01  0.111195E-01  0.124291E-01  0.140729E-01  0.160803E-01
  0.184709E-01  0.212463E-01  0.243775E-01  0.277898E-01  0.313514E-01  0.348735E-01
  0.381241E-01  0.408539E-01  0.428288E-01  0.438662E-01  0.438662E-01  0.428288E-01
  0.408539E-01  0.381241E-01  0.348735E-01  0.313514E-01  0.277898E-01  0.243775E-01
  0.212463E-01  0.184709E-01  0.188058E-01  0.167059E-01  0.149437E-01  0.135029E-01
  0.123607E-01  0.114946E-01  0.108871E-01  0.105268E-01  0.104074E-01  0.105268E-01
  0.108871E-01  0.114946E-01  0.123607E-01  0.135029E-01  0.149437E-01  0.167059E-01
  0.188058E-01  0.212463E-01  0.240067E-01  0.270299E-01  0.302106E-01  0.333951E-01
  0.363931E-01  0.389997E-01  0.410217E-01  0.423022E-01  0.427406E-01  0.423022E-01
  0.410217E-01  0.389997E-01  0.363931E-01  0.333951E-01  0.302106E-01  0.270299E-01
  0.240067E-01  0.212463E-01  0.188058E-01  0.198220E-01  0.179819E-01  0.164367E-01
  0.151745E-01  0.141805E-01  0.134424E-01  0.129527E-01  0.127084E-01  0.127084E-01
  0.129527E-01  0.134424E-01  0.141805E-01  0.151745E-01  0.164367E-01  0.179819E-01
  0.198220E-01  0.219592E-01  0.243775E-01  0.270299E-01  0.298281E-01  0.326412E-01
  0.353088E-01  0.376638E-01  0.395568E-01  0.408752E-01  0.415498E-01  0.415498E-01
  0.408752E-01  0.395568E-01  0.376638E-01  0.353088E-01  0.326412E-01  0.298281E-01
  0.270299E-01  0.243775E-01  0.219592E-01  0.198220E-01  0.215508E-01  0.199527E-01
  0.186073E-01  0.175087E-01  0.166517E-01  0.160351E-01  0.156623E-01  0.155373E-01
  0.156623E-01  0.160351E-01  0.166517E-01  0.175087E-01  0.186073E-01  0.199527E-01
  0.215508E-01  0.234026E-01  0.254951E-01  0.277898E-01  0.302106E-01  0.326412E-01
  0.349384E-01  0.369588E-01  0.385879E-01  0.397597E-01  0.404561E-01  0.406858E-01
  0.404561E-01  0.397597E-01  0.385879E-01  0.369588E-01  0.349384E-01  0.326412E-01
  0.302106E-01  0.277898E-01  0.254951E-01  0.234026E-01  0.215508E-01  0.240400E-01
  0.226788E-01  0.215258E-01  0.205826E-01  0.198556E-01  0.193578E-01  0.191039E-01
  0.191039E-01  0.193578E-01  0.198556E-01  0.205826E-01  0.215258E-01  0.226788E-01
  0.240400E-01  0.256084E-01  0.273750E-01  0.293104E-01  0.313514E-01  0.333951E-01
  0.353088E-01  0.369588E-01  0.382473E-01  0.391413E-01  0.396739E-01  0.399135E-01
  0.399135E-01  0.396739E-01  0.391413E-01  0.382473E-01  0.369588E-01  0.353088E-01
  0.333951E-01  0.313514E-01  0.293104E-01  0.273750E-01  0.256084E-01  0.240400E-01
  0.273512E-01  0.262302E-01  0.252633E-01  0.244631E-01  0.238546E-01  0.234704E-01
  0.233385E-01  0.234704E-01  0.238546E-01  0.244631E-01  0.252633E-01  0.262302E-01
  0.273512E-01  0.286236E-01  0.300442E-01  0.315966E-01  0.332346E-01  0.348735E-01
  0.363931E-01  0.376638E-01  0.385879E-01  0.391413E-01  0.393886E-01  0.394547E-01
  0.394602E-01  0.394547E-01  0.393886E-01  0.391413E-01  0.385879E-01  0.376638E-01
  0.363931E-01  0.348735E-01  0.332346E-01  0.315966E-01  0.300442E-01  0.286236E-01
  0.273512E-01  0.315413E-01  0.306499E-01  0.298390E-01  0.291449E-01  0.286265E-01
  0.283469E-01  0.283469E-01  0.286265E-01  0.291449E-01  0.298390E-01  0.306499E-01
  0.315413E-01  0.325035E-01  0.335432E-01  0.346643E-01  0.358470E-01  0.370331E-01
  0.381241E-01  0.389997E-01  0.395568E-01  0.397597E-01  0.396739E-01  0.394547E-01
  0.392841E-01  0.392841E-01  0.394547E-01  0.396739E-01  0.397597E-01  0.395568E-01
  0.389997E-01  0.381241E-01  0.370331E-01  0.358470E-01  0.346643E-01  0.335432E-01
  0.325035E-01  0.315413E-01  0.365948E-01  0.358647E-01  0.351194E-01  0.344498E-01
  0.339771E-01  0.338058E-01  0.339771E-01  0.344498E-01  0.351194E-01  0.358647E-01
  0.365948E-01  0.372727E-01  0.379104E-01  0.385417E-01  0.391891E-01  0.398377E-01
  0.404255E-01  0.408539E-01  0.410217E-01  0.408752E-01  0.404561E-01  0.399135E-01
  0.394602E-01  0.392841E-01  0.394602E-01  0.399135E-01  0.404561E-01  0.408752E-01
  0.410217E-01  0.408539E-01  0.404255E-01  0.398377E-01  0.391891E-01  0.385417E-01
  0.379104E-01  0.372727E-01  0.365948E-01  0.423022E-01  0.415498E-01  0.406858E-01
  0.399135E-01  0.394547E-01  0.394547E-01  0.399135E-01  0.406858E-01  0.415498E-01
  0.423022E-01  0.428288E-01  0.431200E-01  0.432397E-01  0.432718E-01  0.432718E-01
  0.432397E-01  0.431200E-01  0.428288E-01  0.423022E-01  0.415498E-01  0.406858E-01
  0.399135E-01  0.394547E-01  0.394547E-01  0.399135E-01  0.406858E-01  0.415498E-01
  0.423022E-01  0.428288E-01  0.431200E-01  0.432397E-01  0.432718E-01  0.432718E-01
  0.432397E-01  0.431200E-01  0.428288E-01  0.423022E-01  0.480893E-01  0.469546E-01
  0.456805E-01  0.446735E-01  0.442905E-01  0.446735E-01  0.456805E-01  0.469546E-01
  0.480893E-01  0.487920E-01  0.489627E-01  0.486709E-01  0.480737E-01  0.473298E-01
  0.465409E-01  0.457300E-01  0.448574E-01  0.438662E-01  0.427406E-01  0.415498E-01
  0.404561E-01  0.396739E-01  0.393886E-01  0.396739E-01  0.404561E-01  0.415498E-01
  0.427406E-01  0.438662E-01  0.448574E-01  0.457300E-01  0.465409E-01  0.473298E-01
  0.480737E-01  0.486709E-01  0.489627E-01  0.487920E-01  0.480893E-01  0.528013E-01
  0.507239E-01  0.487128E-01  0.474762E-01  0.474762E-01  0.487128E-01  0.507239E-01
  0.528013E-01  0.543009E-01  0.548749E-01  0.545156E-01  0.534452E-01  0.519600E-01
  0.503138E-01  0.486604E-01  0.470481E-01  0.454580E-01  0.438662E-01  0.423022E-01
  0.408752E-01  0.397597E-01  0.391413E-01  0.391413E-01  0.397597E-01  0.408752E-01
  0.423022E-01  0.438662E-01  0.454580E-01  0.470481E-01  0.486604E-01  0.503138E-01
  0.519600E-01  0.534452E-01  0.545156E-01  0.548749E-01  0.543009E-01  0.528013E-01
  0.546014E-01  0.509991E-01  0.481674E-01  0.470956E-01  0.481674E-01  0.509991E-01
  0.546014E-01  0.578006E-01  0.597184E-01  0.600428E-01  0.589724E-01  0.569632E-01
  0.544867E-01  0.518974E-01  0.493951E-01  0.470481E-01  0.448574E-01  0.428288E-01
  0.410217E-01  0.395568E-01  0.385879E-01  0.382473E-01  0.385879E-01  0.395568E-01
  0.410217E-01  0.428288E-01  0.448574E-01  0.470481E-01  0.493951E-01  0.518974E-01
  0.544867E-01  0.569632E-01  0.589724E-01  0.600428E-01  0.597184E-01  0.578006E-01
  0.546014E-01  0.515141E-01  0.463202E-01  0.432334E-01  0.432334E-01  0.463202E-01
  0.515141E-01  0.571817E-01  0.616615E-01  0.639181E-01  0.638116E-01  0.618667E-01
  0.588329E-01  0.553639E-01  0.518974E-01  0.486604E-01  0.457300E-01  0.431200E-01
  0.408539E-01  0.389997E-01  0.376638E-01  0.369588E-01  0.369588E-01  0.376638E-01
  0.389997E-01  0.408539E-01  0.431200E-01  0.457300E-01  0.486604E-01  0.518974E-01
  0.553639E-01  0.588329E-01  0.618667E-01  0.638116E-01  0.639181E-01  0.616615E-01
  0.571817E-01  0.515141E-01  0.429449E-01  0.371396E-01  0.350235E-01  0.371396E-01
  0.429449E-01  0.508663E-01  0.586632E-01  0.642536E-01  0.665736E-01  0.658007E-01
  0.628708E-01  0.588329E-01  0.544867E-01  0.503138E-01  0.465409E-01  0.432397E-01
  0.404255E-01  0.381241E-01  0.363931E-01  0.353088E-01  0.349384E-01  0.353088E-01
  0.363931E-01  0.381241E-01  0.404255E-01  0.432397E-01  0.465409E-01  0.503138E-01
  0.544867E-01  0.588329E-01  0.628708E-01  0.658007E-01  0.665736E-01  0.642536E-01
  0.586632E-01  0.508663E-01  0.429449E-01  0.310013E-01  0.262896E-01  0.262896E-01
  0.310013E-01  0.395345E-01  0.499110E-01  0.593806E-01  0.655482E-01  0.674816E-01
  0.658007E-01  0.618667E-01  0.569632E-01  0.519600E-01  0.473298E-01  0.432718E-01
  0.398377E-01  0.370331E-01  0.348735E-01  0.333951E-01  0.326412E-01  0.326412E-01
  0.333951E-01  0.348735E-01  0.370331E-01  0.398377E-01  0.432718E-01  0.473298E-01
  0.519600E-01  0.569632E-01  0.618667E-01  0.658007E-01  0.674816E-01  0.655482E-01
  0.593806E-01  0.499110E-01  0.395345E-01  0.310013E-01  0.195777E-01  0.172038E-01
  0.195777E-01  0.265440E-01  0.372044E-01  0.492912E-01  0.595902E-01  0.655482E-01
  0.665736E-01  0.638116E-01  0.589724E-01  0.534452E-01  0.480737E-01  0.432718E-01
  0.391891E-01  0.358470E-01  0.332346E-01  0.313514E-01  0.302106E-01  0.298281E-01
  0.302106E-01  0.313514E-01  0.332346E-01  0.358470E-01  0.391891E-01  0.432718E-01
  0.480737E-01  0.534452E-01  0.589724E-01  0.638116E-01  0.665736E-01  0.655482E-01
  0.595902E-01  0.492912E-01  0.372044E-01  0.265440E-01  0.195777E-01  0.116080E-01
  0.116080E-01  0.158065E-01  0.243488E-01  0.364025E-01  0.492912E-01  0.593806E-01
  0.642536E-01  0.639181E-01  0.600428E-01  0.545156E-01  0.486709E-01  0.432397E-01
  0.385417E-01  0.346643E-01  0.315966E-01  0.293104E-01  0.277898E-01  0.270299E-01
  0.270299E-01  0.277898E-01  0.293104E-01  0.315966E-01  0.346643E-01  0.385417E-01
  0.432397E-01  0.486709E-01  0.545156E-01  0.600428E-01  0.639181E-01  0.642536E-01
  0.593806E-01  0.492912E-01  0.364025E-01  0.243488E-01  0.158065E-01  0.116080E-01
  0.754337E-02  0.921424E-02  0.146527E-01  0.243488E-01  0.372044E-01  0.499110E-01
  0.586632E-01  0.616615E-01  0.597184E-01  0.548749E-01  0.489627E-01  0.431200E-01
  0.379104E-01  0.335432E-01  0.300442E-01  0.273750E-01  0.254951E-01  0.243775E-01
  0.240067E-01  0.243775E-01  0.254951E-01  0.273750E-01  0.300442E-01  0.335432E-01
  0.379104E-01  0.431200E-01  0.489627E-01  0.548749E-01  0.597184E-01  0.616615E-01
  0.586632E-01  0.499110E-01  0.372044E-01  0.243488E-01  0.146527E-01  0.921424E-02
  0.754337E-02  0.638750E-02  0.921424E-02  0.158065E-01  0.265440E-01  0.395345E-01
  0.508663E-01  0.571817E-01  0.578006E-01  0.543009E-01  0.487920E-01  0.428288E-01
  0.372727E-01  0.325035E-01  0.286236E-01  0.256084E-01  0.234026E-01  0.219592E-01
  0.212463E-01  0.212463E-01  0.219592E-01  0.234026E-01  0.256084E-01  0.286236E-01
  0.325035E-01  0.372727E-01  0.428288E-01  0.487920E-01  0.543009E-01  0.578006E-01
  0.571817E-01  0.508663E-01  0.395345E-01  0.265440E-01  0.158065E-01  0.921424E-02
  0.638750E-02  0.638750E-02  0.754337E-02  0.116080E-01  0.195777E-01  0.310013E-01
  0.429449E-01  0.515141E-01  0.546014E-01  0.528013E-01  0.480893E-01  0.423022E-01
  0.365948E-01  0.315413E-01  0.273512E-01  0.240400E-01  0.215508E-01  0.198220E-01
  0.188058E-01  0.184709E-01  0.188058E-01  0.198220E-01  0.215508E-01  0.240400E-01
  0.273512E-01  0.315413E-01  0.365948E-01  0.423022E-01  0.480893E-01  0.528013E-01
  0.546014E-01  0.515141E-01  0.429449E-01  0.310013E-01  0.195777E-01  0.116080E-01
  0.754337E-02  0.638750E-02  0.754337E-02  0.170378E-01  0.225160E-01  0.310013E-01
  0.406607E-01  0.483544E-01  0.517269E-01  0.506023E-01  0.464178E-01  0.408752E-01
  0.351910E-01  0.300334E-01  0.256847E-01  0.221988E-01  0.195261E-01  0.175953E-01
  0.163457E-01  0.157331E-01  0.157331E-01  0.163457E-01  0.175953E-01  0.195261E-01
  0.221988E-01  0.256847E-01  0.300334E-01  0.351910E-01  0.408752E-01  0.464178E-01
  0.506023E-01  0.517269E-01  0.483544E-01  0.406607E-01  0.310013E-01  0.225160E-01
  0.170378E-01  0.145923E-01  0.145923E-01  0.170378E-01  0.225160E-01  0.289467E-01
  0.371396E-01  0.446285E-01  0.488635E-01  0.488983E-01  0.455769E-01  0.404561E-01
  0.348551E-01  0.295832E-01  0.250321E-01  0.213214E-01  0.184265E-01  0.162747E-01
  0.147951E-01  0.139323E-01  0.136492E-01  0.139323E-01  0.147951E-01  0.162747E-01
  0.184265E-01  0.213214E-01  0.250321E-01  0.295832E-01  0.348551E-01  0.404561E-01
  0.455769E-01  0.488983E-01  0.488635E-01  0.446285E-01  0.371396E-01  0.289467E-01
  0.225160E-01  0.188380E-01  0.176997E-01  0.188380E-01  0.225160E-01  0.310013E-01
  0.371396E-01  0.432334E-01  0.470956E-01  0.474762E-01  0.446735E-01  0.399135E-01
  0.344498E-01  0.291449E-01  0.244631E-01  0.205826E-01  0.175087E-01  0.151745E-01
  0.135029E-01  0.124291E-01  0.119053E-01  0.119053E-01  0.124291E-01  0.135029E-01
  0.151745E-01  0.175087E-01  0.205826E-01  0.244631E-01  0.291449E-01  0.344498E-01
  0.399135E-01  0.446735E-01  0.474762E-01  0.470956E-01  0.432334E-01  0.371396E-01
  0.310013E-01  0.265440E-01  0.243488E-01  0.243488E-01  0.265440E-01  0.310013E-01
  0.406607E-01  0.446285E-01  0.470956E-01  0.469246E-01  0.440942E-01  0.394602E-01
  0.340785E-01  0.287624E-01  0.239940E-01  0.199855E-01  0.167687E-01  0.142854E-01
  0.124553E-01  0.112066E-01  0.104823E-01  0.102452E-01  0.104823E-01  0.112066E-01
  0.124553E-01  0.142854E-01  0.167687E-01  0.199855E-01  0.239940E-01  0.287624E-01
  0.340785E-01  0.394602E-01  0.440942E-01  0.469246E-01  0.470956E-01  0.446285E-01
  0.406607E-01  0.367990E-01  0.342040E-01  0.333170E-01  0.342040E-01  0.367990E-01
  0.406607E-01  0.483544E-01  0.488635E-01  0.474762E-01  0.440942E-01  0.392841E-01
  0.338554E-01  0.284969E-01  0.236534E-01  0.195412E-01  0.162062E-01  0.135983E-01
  0.116362E-01  0.102423E-01  0.935240E-02  0.891966E-02  0.891966E-02  0.935240E-02
  0.102423E-01  0.116362E-01  0.135983E-01  0.162062E-01  0.195412E-01  0.236534E-01
  0.284969E-01  0.338554E-01  0.392841E-01  0.440942E-01  0.474762E-01  0.488635E-01
  0.483544E-01  0.467514E-01  0.450848E-01  0.440942E-01  0.440942E-01  0.450848E-01
  0.467514E-01  0.483544E-01  0.517269E-01  0.488983E-01  0.446735E-01  0.394602E-01
  0.338554E-01  0.284014E-01  0.234730E-01  0.192653E-01  0.158257E-01  0.131083E-01
  0.110318E-01  0.951463E-02  0.848651E-02  0.789249E-02  0.769828E-02  0.789249E-02
  0.848651E-02  0.951463E-02  0.110318E-01  0.131083E-01  0.158257E-01  0.192653E-01
  0.234730E-01  0.284014E-01  0.338554E-01  0.394602E-01  0.446735E-01  0.488983E-01
  0.517269E-01  0.531711E-01  0.536415E-01  0.536700E-01  0.536367E-01  0.536700E-01
  0.536415E-01  0.531711E-01  0.517269E-01  0.506023E-01  0.455769E-01  0.399135E-01
  0.340785E-01  0.284969E-01  0.234730E-01  0.191715E-01  0.156334E-01  0.128142E-01
  0.106332E-01  0.900650E-02  0.785937E-02  0.713024E-02  0.677621E-02  0.677621E-02
  0.713024E-02  0.785937E-02  0.900650E-02  0.106332E-01  0.128142E-01  0.156334E-01
  0.191715E-01  0.234730E-01  0.284969E-01  0.340785E-01  0.399135E-01  0.455769E-01
  0.506023E-01  0.546239E-01  0.574956E-01  0.592793E-01  0.601203E-01  0.601203E-01
  0.592793E-01  0.574956E-01  0.546239E-01  0.506023E-01  0.464178E-01  0.404561E-01
  0.344498E-01  0.287624E-01  0.236534E-01  0.192653E-01  0.156334E-01  0.127161E-01
  0.104352E-01  0.870635E-02  0.745202E-02  0.660583E-02  0.611767E-02  0.595806E-02
  0.611767E-02  0.660583E-02  0.745202E-02  0.870635E-02  0.104352E-01  0.127161E-01
  0.156334E-01  0.192653E-01  0.236534E-01  0.287624E-01  0.344498E-01  0.404561E-01
  0.464178E-01  0.519159E-01  0.565560E-01  0.600398E-01  0.621872E-01  0.629112E-01
  0.621872E-01  0.600398E-01  0.565560E-01  0.519159E-01  0.464178E-01  0.408752E-01
  0.348551E-01  0.291449E-01  0.239940E-01  0.195412E-01  0.158257E-01  0.128142E-01
  0.104352E-01  0.860713E-02  0.725166E-02  0.629943E-02  0.569489E-02  0.540127E-02
  0.540127E-02  0.569489E-02  0.629943E-02  0.725166E-02  0.860713E-02  0.104352E-01
  0.128142E-01  0.158257E-01  0.195412E-01  0.239940E-01  0.291449E-01  0.348551E-01
  0.408752E-01  0.468528E-01  0.523649E-01  0.569731E-01  0.602877E-01  0.620209E-01
  0.620209E-01  0.602877E-01  0.569731E-01  0.523649E-01  0.468528E-01  0.408752E-01
  0.351910E-01  0.295832E-01  0.244631E-01  0.199855E-01  0.162062E-01  0.131083E-01
  0.106332E-01  0.870635E-02  0.725166E-02  0.619872E-02  0.548855E-02  0.507863E-02
  0.494456E-02  0.507863E-02  0.548855E-02  0.619872E-02  0.725166E-02  0.870635E-02
  0.106332E-01  0.131083E-01  0.162062E-01  0.199855E-01  0.244631E-01  0.295832E-01
  0.351910E-01  0.410217E-01  0.467080E-01  0.518117E-01  0.558770E-01  0.585020E-01
  0.594099E-01  0.585020E-01  0.558770E-01  0.518117E-01  0.467080E-01  0.410217E-01
  0.351910E-01  0.300334E-01  0.250321E-01  0.205826E-01  0.167687E-01  0.135983E-01
  0.110318E-01  0.900650E-02  0.745202E-02  0.629943E-02  0.548855E-02  0.497304E-02
  0.472262E-02  0.472262E-02  0.497304E-02  0.548855E-02  0.629943E-02  0.745202E-02
  0.900650E-02  0.110318E-01  0.135983E-01  0.167687E-01  0.205826E-01  0.250321E-01
  0.300334E-01  0.354038E-01  0.408539E-01  0.460015E-01  0.504091E-01  0.536455E-01
  0.553618E-01  0.553618E-01  0.536455E-01  0.504091E-01  0.460015E-01  0.408539E-01
  0.354038E-01  0.300334E-01  0.256847E-01  0.213214E-01  0.175087E-01  0.142854E-01
  0.116362E-01  0.951463E-02  0.785937E-02  0.660583E-02  0.569489E-02  0.507863E-02
  0.472262E-02  0.460624E-02  0.472262E-02  0.507863E-02  0.569489E-02  0.660583E-02
  0.785937E-02  0.951463E-02  0.116362E-01  0.142854E-01  0.175087E-01  0.213214E-01
  0.256847E-01  0.304811E-01  0.354977E-01  0.404255E-01  0.448813E-01  0.484545E-01
  0.507738E-01  0.515782E-01  0.507738E-01  0.484545E-01  0.448813E-01  0.404255E-01
  0.354977E-01  0.304811E-01  0.256847E-01  0.221988E-01  0.184265E-01  0.151745E-01
  0.124553E-01  0.102423E-01  0.848651E-02  0.713024E-02  0.611767E-02  0.540127E-02
  0.494456E-02  0.472262E-02  0.472262E-02  0.494456E-02  0.540127E-02  0.611767E-02
  0.713024E-02  0.848651E-02  0.102423E-01  0.124553E-01  0.151745E-01  0.184265E-01
  0.221988E-01  0.264192E-01  0.309374E-01  0.355160E-01  0.398377E-01  0.435371E-01
  0.462530E-01  0.476928E-01  0.476928E-01  0.462530E-01  0.435371E-01  0.398377E-01
  0.355160E-01  0.309374E-01  0.264192E-01  0.221988E-01  0.195261E-01  0.162747E-01
  0.135029E-01  0.112066E-01  0.935240E-02  0.789249E-02  0.677621E-02  0.595806E-02
  0.540127E-02  0.507863E-02  0.497304E-02  0.507863E-02  0.540127E-02  0.595806E-02
  0.677621E-02  0.789249E-02  0.935240E-02  0.112066E-01  0.135029E-01  0.162747E-01
  0.195261E-01  0.232158E-01  0.272404E-01  0.314224E-01  0.355091E-01  0.391891E-01
  0.421307E-01  0.440356E-01  0.446955E-01  0.440356E-01  0.421307E-01  0.391891E-01
  0.355091E-01  0.314224E-01  0.272404E-01  0.232158E-01  0.195261E-01  0.175953E-01
  0.147951E-01  0.124291E-01  0.104823E-01  0.891966E-02  0.769828E-02  0.677621E-02
  0.611767E-02  0.569489E-02  0.548855E-02  0.548855E-02  0.569489E-02  0.611767E-02
  0.677621E-02  0.769828E-02  0.891966E-02  0.104823E-01  0.124291E-01  0.147951E-01
  0.175953E-01  0.208102E-01  0.243716E-01  0.281497E-01  0.319478E-01  0.355091E-01
  0.385417E-01  0.407596E-01  0.419329E-01  0.419329E-01  0.407596E-01  0.385417E-01
  0.355091E-01  0.319478E-01  0.281497E-01  0.243716E-01  0.208102E-01  0.175953E-01
  0.163457E-01  0.139323E-01  0.119053E-01  0.102452E-01  0.891966E-02  0.789249E-02
  0.713024E-02  0.660583E-02  0.629943E-02  0.619872E-02  0.629943E-02  0.660583E-02
  0.713024E-02  0.789249E-02  0.891966E-02  0.102452E-01  0.119053E-01  0.139323E-01
  0.163457E-01  0.191404E-01  0.222745E-01  0.256559E-01  0.291346E-01  0.325040E-01
  0.355160E-01  0.379104E-01  0.394554E-01  0.399896E-01  0.394554E-01  0.379104E-01
  0.355160E-01  0.325040E-01  0.291346E-01  0.256559E-01  0.222745E-01  0.191404E-01
  0.163457E-01  0.157331E-01  0.136492E-01  0.119053E-01  0.104823E-01  0.935240E-02
  0.848651E-02  0.785937E-02  0.745202E-02  0.725166E-02  0.725166E-02  0.745202E-02
  0.785937E-02  0.848651E-02  0.935240E-02  0.104823E-01  0.119053E-01  0.136492E-01
  0.157331E-01  0.181593E-01  0.209031E-01  0.239012E-01  0.270414E-01  0.301609E-01
  0.330549E-01  0.354977E-01  0.372727E-01  0.382080E-01  0.382080E-01  0.372727E-01
  0.354977E-01  0.330549E-01  0.301609E-01  0.270414E-01  0.239012E-01  0.209031E-01
  0.181593E-01  0.157331E-01  0.157331E-01  0.139323E-01  0.124291E-01  0.112066E-01
  0.102423E-01  0.951463E-02  0.900650E-02  0.870635E-02  0.860713E-02  0.870635E-02
  0.900650E-02  0.951463E-02  0.102423E-01  0.112066E-01  0.124291E-01  0.139323E-01
  0.157331E-01  0.178359E-01  0.202258E-01  0.228587E-01  0.256512E-01  0.284765E-01
  0.311693E-01  0.335413E-01  0.354038E-01  0.365948E-01  0.370047E-01  0.365948E-01
  0.354038E-01  0.335413E-01  0.311693E-01  0.284765E-01  0.256512E-01  0.228587E-01
  0.202258E-01  0.178359E-01  0.157331E-01  0.163457E-01  0.147951E-01  0.135029E-01
  0.124553E-01  0.116362E-01  0.110318E-01  0.106332E-01  0.104352E-01  0.104352E-01
  0.106332E-01  0.110318E-01  0.116362E-01  0.124553E-01  0.135029E-01  0.147951E-01
  0.163457E-01  0.181593E-01  0.202258E-01  0.225129E-01  0.249570E-01  0.274583E-01
  0.298843E-01  0.320820E-01  0.338965E-01  0.351910E-01  0.358647E-01  0.358647E-01
  0.351910E-01  0.338965E-01  0.320820E-01  0.298843E-01  0.274583E-01  0.249570E-01
  0.225129E-01  0.202258E-01  0.181593E-01  0.163457E-01  0.175953E-01  0.162747E-01
  0.151745E-01  0.142854E-01  0.135983E-01  0.131083E-01  0.128142E-01  0.127161E-01
  0.128142E-01  0.131083E-01  0.135983E-01  0.142854E-01  0.151745E-01  0.162747E-01
  0.175953E-01  0.191404E-01  0.209031E-01  0.228587E-01  0.249570E-01  0.271173E-01
  0.292309E-01  0.311738E-01  0.328235E-01  0.340757E-01  0.348551E-01  0.351194E-01
  0.348551E-01  0.340757E-01  0.328235E-01  0.311738E-01  0.292309E-01  0.271173E-01
  0.249570E-01  0.228587E-01  0.209031E-01  0.191404E-01  0.175953E-01  0.195261E-01
  0.184265E-01  0.175087E-01  0.167687E-01  0.162062E-01  0.158257E-01  0.156334E-01
  0.156334E-01  0.158257E-01  0.162062E-01  0.167687E-01  0.175087E-01  0.184265E-01
  0.195261E-01  0.208102E-01  0.222745E-01  0.239012E-01  0.256512E-01  0.274583E-01
  0.292309E-01  0.308645E-01  0.322616E-01  0.333482E-01  0.340824E-01  0.344498E-01
  0.344498E-01  0.340824E-01  0.333482E-01  0.322616E-01  0.308645E-01  0.292309E-01
  0.274583E-01  0.256512E-01  0.239012E-01  0.222745E-01  0.208102E-01  0.195261E-01
  0.221988E-01  0.213214E-01  0.205826E-01  0.199855E-01  0.195412E-01  0.192653E-01
  0.191715E-01  0.192653E-01  0.195412E-01  0.199855E-01  0.205826E-01  0.213214E-01
  0.221988E-01  0.232158E-01  0.243716E-01  0.256559E-01  0.270414E-01  0.284765E-01
  0.298843E-01  0.311738E-01  0.322616E-01  0.330943E-01  0.336592E-01  0.339771E-01
  0.340785E-01  0.339771E-01  0.336592E-01  0.330943E-01  0.322616E-01  0.311738E-01
  0.298843E-01  0.284765E-01  0.270414E-01  0.256559E-01  0.243716E-01  0.232158E-01
  0.221988E-01  0.256847E-01  0.250321E-01  0.244631E-01  0.239940E-01  0.236534E-01
  0.234730E-01  0.234730E-01  0.236534E-01  0.239940E-01  0.244631E-01  0.250321E-01
  0.256847E-01  0.264192E-01  0.272404E-01  0.281497E-01  0.291346E-01  0.301609E-01
  0.311693E-01  0.320820E-01  0.328235E-01  0.333482E-01  0.336592E-01  0.338058E-01
  0.338554E-01  0.338554E-01  0.338058E-01  0.336592E-01  0.333482E-01  0.328235E-01
  0.320820E-01  0.311693E-01  0.301609E-01  0.291346E-01  0.281497E-01  0.272404E-01
  0.264192E-01  0.256847E-01  0.300334E-01  0.295832E-01  0.291449E-01  0.287624E-01
  0.284969E-01  0.284014E-01  0.284969E-01  0.287624E-01  0.291449E-01  0.295832E-01
  0.300334E-01  0.304811E-01  0.309374E-01  0.314224E-01  0.319478E-01  0.325040E-01
  0.330549E-01  0.335413E-01  0.338965E-01  0.340757E-01  0.340824E-01  0.339771E-01
  0.338554E-01  0.338033E-01  0.338554E-01  0.339771E-01  0.340824E-01  0.340757E-01
  0.338965E-01  0.335413E-01  0.330549E-01  0.325040E-01  0.319478E-01  0.314224E-01
  0.309374E-01  0.304811E-01  0.300334E-01  0.351910E-01  0.348551E-01  0.344498E-01
  0.340785E-01  0.338554E-01  0.338554E-01  0.340785E-01  0.344498E-01  0.348551E-01
  0.351910E-01  0.354038E-01  0.354977E-01  0.355160E-01  0.355091E-01  0.355091E-01
  0.355160E-01  0.354977E-01  0.354038E-01  0.351910E-01  0.348551E-01  0.344498E-01
  0.340785E-01  0.338554E-01  0.338554E-01  0.340785E-01  0.344498E-01  0.348551E-01
  0.351910E-01  0.354038E-01  0.354977E-01  0.355160E-01  0.355091E-01  0.355091E-01
  0.355160E-01  0.354977E-01  0.354038E-01  0.351910E-01  0.408752E-01  0.404561E-01
  0.399135E-01  0.394602E-01  0.392841E-01  0.394602E-01  0.399135E-01  0.404561E-01
  0.408752E-01  0.410217E-01  0.408539E-01  0.404255E-01  0.398377E-01  0.391891E-01
  0.385417E-01  0.379104E-01  0.372727E-01  0.365948E-01  0.358647E-01  0.351194E-01
  0.344498E-01  0.339771E-01  0.338058E-01  0.339771E-01  0.344498E-01  0.351194E-01
  0.358647E-01  0.365948E-01  0.372727E-01  0.379104E-01  0.385417E-01  0.391891E-01
  0.398377E-01  0.404255E-01  0.408539E-01  0.410217E-01  0.408752E-01  0.464178E-01
  0.455769E-01  0.446735E-01  0.440942E-01  0.440942E-01  0.446735E-01  0.455769E-01
  0.464178E-01  0.468528E-01  0.467080E-01  0.460015E-01  0.448813E-01  0.435371E-01
  0.421307E-01  0.407596E-01  0.394554E-01  0.382080E-01  0.370047E-01  0.358647E-01
  0.348551E-01  0.340824E-01  0.336592E-01  0.336592E-01  0.340824E-01  0.348551E-01
  0.358647E-01  0.370047E-01  0.382080E-01  0.394554E-01  0.407596E-01  0.421307E-01
  0.435371E-01  0.448813E-01  0.460015E-01  0.467080E-01  0.468528E-01  0.464178E-01
  0.506023E-01  0.488983E-01  0.474762E-01  0.469246E-01  0.474762E-01  0.488983E-01
  0.506023E-01  0.519159E-01  0.523649E-01  0.518117E-01  0.504091E-01  0.484545E-01
  0.462530E-01  0.440356E-01  0.419329E-01  0.399896E-01  0.382080E-01  0.365948E-01
  0.351910E-01  0.340757E-01  0.333482E-01  0.330943E-01  0.333482E-01  0.340757E-01
  0.351910E-01  0.365948E-01  0.382080E-01  0.399896E-01  0.419329E-01  0.440356E-01
  0.462530E-01  0.484545E-01  0.504091E-01  0.518117E-01  0.523649E-01  0.519159E-01
  0.506023E-01  0.517269E-01  0.488635E-01  0.470956E-01  0.470956E-01  0.488635E-01
  0.517269E-01  0.546239E-01  0.565560E-01  0.569731E-01  0.558770E-01  0.536455E-01
  0.507738E-01  0.476928E-01  0.446955E-01  0.419329E-01  0.394554E-01  0.372727E-01
  0.354038E-01  0.338965E-01  0.328235E-01  0.322616E-01  0.322616E-01  0.328235E-01
  0.338965E-01  0.354038E-01  0.372727E-01  0.394554E-01  0.419329E-01  0.446955E-01
  0.476928E-01  0.507738E-01  0.536455E-01  0.558770E-01  0.569731E-01  0.565560E-01
  0.546239E-01  0.517269E-01  0.483544E-01  0.446285E-01  0.432334E-01  0.446285E-01
  0.483544E-01  0.531711E-01  0.574956E-01  0.600398E-01  0.602877E-01  0.585020E-01
  0.553618E-01  0.515782E-01  0.476928E-01  0.440356E-01  0.407596E-01  0.379104E-01
  0.354977E-01  0.335413E-01  0.320820E-01  0.311738E-01  0.308645E-01  0.311738E-01
  0.320820E-01  0.335413E-01  0.354977E-01  0.379104E-01  0.407596E-01  0.440356E-01
  0.476928E-01  0.515782E-01  0.553618E-01  0.585020E-01  0.602877E-01  0.600398E-01
  0.574956E-01  0.531711E-01  0.483544E-01  0.406607E-01  0.371396E-01  0.371396E-01
  0.406607E-01  0.467514E-01  0.536415E-01  0.592793E-01  0.621872E-01  0.620209E-01
  0.594099E-01  0.553618E-01  0.507738E-01  0.462530E-01  0.421307E-01  0.385417E-01
  0.355160E-01  0.330549E-01  0.311693E-01  0.298843E-01  0.292309E-01  0.292309E-01
  0.298843E-01  0.311693E-01  0.330549E-01  0.355160E-01  0.385417E-01  0.421307E-01
  0.462530E-01  0.507738E-01  0.553618E-01  0.594099E-01  0.620209E-01  0.621872E-01
  0.592793E-01  0.536415E-01  0.467514E-01  0.406607E-01  0.310013E-01  0.289467E-01
  0.310013E-01  0.367990E-01  0.450848E-01  0.536700E-01  0.601203E-01  0.629112E-01
  0.620209E-01  0.585020E-01  0.536455E-01  0.484545E-01  0.435371E-01  0.391891E-01
  0.355091E-01  0.325040E-01  0.301609E-01  0.284765E-01  0.274583E-01  0.271173E-01
  0.274583E-01  0.284765E-01  0.301609E-01  0.325040E-01  0.355091E-01  0.391891E-01
  0.435371E-01  0.484545E-01  0.536455E-01  0.585020E-01  0.620209E-01  0.629112E-01
  0.601203E-01  0.536700E-01  0.450848E-01  0.367990E-01  0.310013E-01  0.225160E-01
  0.225160E-01  0.265440E-01  0.342040E-01  0.440942E-01  0.536367E-01  0.601203E-01
  0.621872E-01  0.602877E-01  0.558770E-01  0.504091E-01  0.448813E-01  0.398377E-01
  0.355091E-01  0.319478E-01  0.291346E-01  0.270414E-01  0.256512E-01  0.249570E-01
  0.249570E-01  0.256512E-01  0.270414E-01  0.291346E-01  0.319478E-01  0.355091E-01
  0.398377E-01  0.448813E-01  0.504091E-01  0.558770E-01  0.602877E-01  0.621872E-01
  0.601203E-01  0.536367E-01  0.440942E-01  0.342040E-01  0.265440E-01  0.225160E-01
  0.170378E-01  0.188380E-01  0.243488E-01  0.333170E-01  0.440942E-01  0.536700E-01
  0.592793E-01  0.600398E-01  0.569731E-01  0.518117E-01  0.460015E-01  0.404255E-01
  0.355160E-01  0.314224E-01  0.281497E-01  0.256559E-01  0.239012E-01  0.228587E-01
  0.225129E-01  0.228587E-01  0.239012E-01  0.256559E-01  0.281497E-01  0.314224E-01
  0.355160E-01  0.404255E-01  0.460015E-01  0.518117E-01  0.569731E-01  0.600398E-01
  0.592793E-01  0.536700E-01  0.440942E-01  0.333170E-01  0.243488E-01  0.188380E-01
  0.170378E-01  0.145923E-01  0.176997E-01  0.243488E-01  0.342040E-01  0.450848E-01
  0.536415E-01  0.574956E-01  0.565560E-01  0.523649E-01  0.467080E-01  0.408539E-01
  0.354977E-01  0.309374E-01  0.272404E-01  0.243716E-01  0.222745E-01  0.209031E-01
  0.202258E-01  0.202258E-01  0.209031E-01  0.222745E-01  0.243716E-01  0.272404E-01
  0.309374E-01  0.354977E-01  0.408539E-01  0.467080E-01  0.523649E-01  0.565560E-01
  0.574956E-01  0.536415E-01  0.450848E-01  0.342040E-01  0.243488E-01  0.176997E-01
  0.145923E-01  0.145923E-01  0.145923E-01  0.188380E-01  0.265440E-01  0.367990E-01
  0.467514E-01  0.531711E-01  0.546239E-01  0.519159E-01  0.468528E-01  0.410217E-01
  0.354038E-01  0.304811E-01  0.264192E-01  0.232158E-01  0.208102E-01  0.191404E-01
  0.181593E-01  0.178359E-01  0.181593E-01  0.191404E-01  0.208102E-01  0.232158E-01
  0.264192E-01  0.304811E-01  0.354038E-01  0.410217E-01  0.468528E-01  0.519159E-01
  0.546239E-01  0.531711E-01  0.467514E-01  0.367990E-01  0.265440E-01  0.188380E-01
  0.145923E-01  0.133117E-01  0.145923E-01  0.170378E-01  0.225160E-01  0.310013E-01
  0.406607E-01  0.483544E-01  0.517269E-01  0.506023E-01  0.464178E-01  0.408752E-01
  0.351910E-01  0.300334E-01  0.256847E-01  0.221988E-01  0.195261E-01  0.175953E-01
  0.163457E-01  0.157331E-01  0.157331E-01  0.163457E-01  0.175953E-01  0.195261E-01
  0.221988E-01  0.256847E-01  0.300334E-01  0.351910E-01  0.408752E-01  0.464178E-01
  0.506023E-01  0.517269E-01  0.483544E-01  0.406607E-01  0.310013E-01  0.225160E-01
  0.170378E-01  0.145923E-01  0.145923E-01  0.170378E-01  0.309426E-01  0.364118E-01
  0.429449E-01  0.483544E-01  0.506492E-01  0.493009E-01  0.452097E-01  0.397597E-01
  0.340757E-01  0.288360E-01  0.243589E-01  0.207273E-01  0.179012E-01  0.158036E-01
  0.143630E-01  0.135234E-01  0.132479E-01  0.135234E-01  0.143630E-01  0.158036E-01
  0.179012E-01  0.207273E-01  0.243589E-01  0.288360E-01  0.340757E-01  0.397597E-01
  0.452097E-01  0.493009E-01  0.506492E-01  0.483544E-01  0.429449E-01  0.364118E-01
  0.309426E-01  0.276550E-01  0.266057E-01  0.276550E-01  0.309426E-01  0.364118E-01
  0.415398E-01  0.463202E-01  0.488635E-01  0.482099E-01  0.447609E-01  0.396739E-01
  0.340824E-01  0.287539E-01  0.240952E-01  0.202523E-01  0.172157E-01  0.149131E-01
  0.132659E-01  0.122085E-01  0.116928E-01  0.116928E-01  0.122085E-01  0.132659E-01
  0.149131E-01  0.172157E-01  0.202523E-01  0.240952E-01  0.287539E-01  0.340824E-01
  0.396739E-01  0.447609E-01  0.482099E-01  0.488635E-01  0.463202E-01  0.415398E-01
  0.364118E-01  0.325515E-01  0.306089E-01  0.306089E-01  0.325515E-01  0.364118E-01
  0.429449E-01  0.463202E-01  0.481674E-01  0.474762E-01  0.442905E-01  0.394547E-01
  0.339771E-01  0.286265E-01  0.238546E-01  0.198556E-01  0.166517E-01  0.141805E-01
  0.123607E-01  0.111195E-01  0.103998E-01  0.101643E-01  0.103998E-01  0.111195E-01
  0.123607E-01  0.141805E-01  0.166517E-01  0.198556E-01  0.238546E-01  0.286265E-01
  0.339771E-01  0.394547E-01  0.442905E-01  0.474762E-01  0.481674E-01  0.463202E-01
  0.429449E-01  0.395345E-01  0.372044E-01  0.364025E-01  0.372044E-01  0.395345E-01
  0.429449E-01  0.483544E-01  0.488635E-01  0.474762E-01  0.440942E-01  0.392841E-01
  0.338554E-01  0.284969E-01  0.236534E-01  0.195412E-01  0.162062E-01  0.135983E-01
  0.116362E-01  0.102423E-01  0.935240E-02  0.891966E-02  0.891966E-02  0.935240E-02
  0.102423E-01  0.116362E-01  0.135983E-01  0.162062E-01  0.195412E-01  0.236534E-01
  0.284969E-01  0.338554E-01  0.392841E-01  0.440942E-01  0.474762E-01  0.488635E-01
  0.483544E-01  0.467514E-01  0.450848E-01  0.440942E-01  0.440942E-01  0.450848E-01
  0.467514E-01  0.483544E-01  0.506492E-01  0.482099E-01  0.442905E-01  0.392841E-01
  0.338033E-01  0.284154E-01  0.235171E-01  0.193200E-01  0.158816E-01  0.131618E-01
  0.110816E-01  0.956083E-02  0.852969E-02  0.793374E-02  0.773888E-02  0.793374E-02
  0.852969E-02  0.956083E-02  0.110816E-01  0.131618E-01  0.158816E-01  0.193200E-01
  0.235171E-01  0.284154E-01  0.338033E-01  0.392841E-01  0.442905E-01  0.482099E-01
  0.506492E-01  0.516751E-01  0.517764E-01  0.515553E-01  0.514344E-01  0.515553E-01
  0.517764E-01  0.516751E-01  0.506492E-01  0.493009E-01  0.447609E-01  0.394547E-01
  0.338554E-01  0.284154E-01  0.234687E-01  0.192051E-01  0.156834E-01  0.128701E-01
  0.106897E-01  0.906127E-02  0.791169E-02  0.718048E-02  0.682529E-02  0.682529E-02
  0.718048E-02  0.791169E-02  0.906127E-02  0.106897E-01  0.128701E-01  0.156834E-01
  0.192051E-01  0.234687E-01  0.284154E-01  0.338554E-01  0.394547E-01  0.447609E-01
  0.493009E-01  0.527459E-01  0.550369E-01  0.563490E-01  0.569264E-01  0.569264E-01
  0.563490E-01  0.550369E-01  0.527459E-01  0.493009E-01  0.452097E-01  0.396739E-01
  0.339771E-01  0.284969E-01  0.235171E-01  0.192051E-01  0.156167E-01  0.127239E-01
  0.104562E-01  0.873380E-02  0.748219E-02  0.663695E-02  0.614902E-02  0.598944E-02
  0.614902E-02  0.663695E-02  0.748219E-02  0.873380E-02  0.104562E-01  0.127239E-01
  0.156167E-01  0.192051E-01  0.235171E-01  0.284969E-01  0.339771E-01  0.396739E-01
  0.452097E-01  0.501780E-01  0.542387E-01  0.571888E-01  0.589576E-01  0.595447E-01
  0.589576E-01  0.571888E-01  0.542387E-01  0.501780E-01  0.452097E-01  0.397597E-01
  0.340824E-01  0.286265E-01  0.236534E-01  0.193200E-01  0.156834E-01  0.127239E-01
  0.103787E-01  0.857185E-02  0.722943E-02  0.628509E-02  0.568506E-02  0.539348E-02
  0.539348E-02  0.568506E-02  0.628509E-02  0.722943E-02  0.857185E-02  0.103787E-01
  0.127239E-01  0.156834E-01  0.193200E-01  0.236534E-01  0.286265E-01  0.340824E-01
  0.397597E-01  0.453100E-01  0.503393E-01  0.544693E-01  0.573934E-01  0.589058E-01
  0.589058E-01  0.573934E-01  0.544693E-01  0.503393E-01  0.453100E-01  0.397597E-01
  0.340757E-01  0.287539E-01  0.238546E-01  0.195412E-01  0.158816E-01  0.128701E-01
  0.104562E-01  0.857185E-02  0.714603E-02  0.611240E-02  0.541457E-02  0.501147E-02
  0.487957E-02  0.501147E-02  0.541457E-02  0.611240E-02  0.714603E-02  0.857185E-02
  0.104562E-01  0.128701E-01  0.158816E-01  0.195412E-01  0.238546E-01  0.287539E-01
  0.340757E-01  0.395568E-01  0.448480E-01  0.495484E-01  0.532575E-01  0.556352E-01
  0.564543E-01  0.556352E-01  0.532575E-01  0.495484E-01  0.448480E-01  0.395568E-01
  0.340757E-01  0.288360E-01  0.240952E-01  0.198556E-01  0.162062E-01  0.131618E-01
  0.106897E-01  0.873380E-02  0.722943E-02  0.611240E-02  0.532575E-02  0.482520E-02
  0.458186E-02  0.458186E-02  0.482520E-02  0.532575E-02  0.611240E-02  0.722943E-02
  0.873380E-02  0.106897E-01  0.131618E-01  0.162062E-01  0.198556E-01  0.240952E-01
  0.288360E-01  0.338965E-01  0.389997E-01  0.437894E-01  0.478670E-01  0.508473E-01
  0.524229E-01  0.524229E-01  0.508473E-01  0.478670E-01  0.437894E-01  0.389997E-01
  0.338965E-01  0.288360E-01  0.243589E-01  0.202523E-01  0.166517E-01  0.135983E-01
  0.110816E-01  0.906127E-02  0.748219E-02  0.628509E-02  0.541457E-02  0.482520E-02
  0.448443E-02  0.437297E-02  0.448443E-02  0.482520E-02  0.541457E-02  0.628509E-02
  0.748219E-02  0.906127E-02  0.110816E-01  0.135983E-01  0.166517E-01  0.202523E-01
  0.243589E-01  0.288564E-01  0.335413E-01  0.381241E-01  0.422523E-01  0.455524E-01
  0.476896E-01  0.484300E-01  0.476896E-01  0.455524E-01  0.422523E-01  0.381241E-01
  0.335413E-01  0.288564E-01  0.243589E-01  0.207273E-01  0.172157E-01  0.141805E-01
  0.116362E-01  0.956083E-02  0.791169E-02  0.663695E-02  0.568506E-02  0.501147E-02
  0.458186E-02  0.437297E-02  0.437297E-02  0.458186E-02  0.501147E-02  0.568506E-02
  0.663695E-02  0.791169E-02  0.956083E-02  0.116362E-01  0.141805E-01  0.172157E-01
  0.207273E-01  0.246455E-01  0.288285E-01  0.330549E-01  0.370331E-01  0.404300E-01
  0.429191E-01  0.442373E-01  0.442373E-01  0.429191E-01  0.404300E-01  0.370331E-01
  0.330549E-01  0.288285E-01  0.246455E-01  0.207273E-01  0.179012E-01  0.149131E-01
  0.123607E-01  0.102423E-01  0.852969E-02  0.718048E-02  0.614902E-02  0.539348E-02
  0.487957E-02  0.458186E-02  0.448443E-02  0.458186E-02  0.487957E-02  0.539348E-02
  0.614902E-02  0.718048E-02  0.852969E-02  0.102423E-01  0.123607E-01  0.149131E-01
  0.179012E-01  0.212845E-01  0.249665E-01  0.287833E-01  0.325040E-01  0.358470E-01
  0.385143E-01  0.402392E-01  0.408364E-01  0.402392E-01  0.385143E-01  0.358470E-01
  0.325040E-01  0.287833E-01  0.249665E-01  0.212845E-01  0.179012E-01  0.158036E-01
  0.132659E-01  0.111195E-01  0.935240E-02  0.793374E-02  0.682529E-02  0.598944E-02
  0.539348E-02  0.501147E-02  0.482520E-02  0.482520E-02  0.501147E-02  0.539348E-02
  0.598944E-02  0.682529E-02  0.793374E-02  0.935240E-02  0.111195E-01  0.132659E-01
  0.158036E-01  0.187131E-01  0.219301E-01  0.253356E-01  0.287516E-01  0.319478E-01
  0.346643E-01  0.366480E-01  0.376963E-01  0.376963E-01  0.366480E-01  0.346643E-01
  0.319478E-01  0.287516E-01  0.253356E-01  0.219301E-01  0.187131E-01  0.158036E-01
  0.143630E-01  0.122085E-01  0.103998E-01  0.891966E-02  0.773888E-02  0.682529E-02
  0.614902E-02  0.568506E-02  0.541457E-02  0.532575E-02  0.541457E-02  0.568506E-02
  0.614902E-02  0.682529E-02  0.773888E-02  0.891966E-02  0.103998E-01  0.122085E-01
  0.143630E-01  0.168580E-01  0.196536E-01  0.226657E-01  0.257596E-01  0.287516E-01
  0.314224E-01  0.335432E-01  0.349104E-01  0.353829E-01  0.349104E-01  0.335432E-01
  0.314224E-01  0.287516E-01  0.257596E-01  0.226657E-01  0.196536E-01  0.168580E-01
  0.143630E-01  0.135234E-01  0.116928E-01  0.101643E-01  0.891966E-02  0.793374E-02
  0.718048E-02  0.663695E-02  0.628509E-02  0.611240E-02  0.611240E-02  0.628509E-02
  0.663695E-02  0.718048E-02  0.793374E-02  0.891966E-02  0.101643E-01  0.116928E-01
  0.135234E-01  0.156585E-01  0.180754E-01  0.207170E-01  0.234837E-01  0.262324E-01
  0.287833E-01  0.309374E-01  0.325035E-01  0.333289E-01  0.333289E-01  0.325035E-01
  0.309374E-01  0.287833E-01  0.262324E-01  0.234837E-01  0.207170E-01  0.180754E-01
  0.156585E-01  0.135234E-01  0.132479E-01  0.116928E-01  0.103998E-01  0.935240E-02
  0.852969E-02  0.791169E-02  0.748219E-02  0.722943E-02  0.714603E-02  0.722943E-02
  0.748219E-02  0.791169E-02  0.852969E-02  0.935240E-02  0.103998E-01  0.116928E-01
  0.132479E-01  0.150706E-01  0.171487E-01  0.194440E-01  0.218850E-01  0.243623E-01
  0.267323E-01  0.288285E-01  0.304811E-01  0.315413E-01  0.319068E-01  0.315413E-01
  0.304811E-01  0.288285E-01  0.267323E-01  0.243623E-01  0.218850E-01  0.194440E-01
  0.171487E-01  0.150706E-01  0.132479E-01  0.135234E-01  0.122085E-01  0.111195E-01
  0.102423E-01  0.956083E-02  0.906127E-02  0.873380E-02  0.857185E-02  0.857185E-02
  0.873380E-02  0.906127E-02  0.956083E-02  0.102423E-01  0.111195E-01  0.122085E-01
  0.135234E-01  0.150706E-01  0.168432E-01  0.188156E-01  0.209362E-01  0.231227E-01
  0.252629E-01  0.272219E-01  0.288564E-01  0.300334E-01  0.306499E-01  0.306499E-01
  0.300334E-01  0.288564E-01  0.272219E-01  0.252629E-01  0.231227E-01  0.209362E-01
  0.188156E-01  0.168432E-01  0.150706E-01  0.135234E-01  0.143630E-01  0.132659E-01
  0.123607E-01  0.116362E-01  0.110816E-01  0.106897E-01  0.104562E-01  0.103787E-01
  0.104562E-01  0.106897E-01  0.110816E-01  0.116362E-01  0.123607E-01  0.132659E-01
  0.143630E-01  0.156585E-01  0.171487E-01  0.188156E-01  0.206216E-01  0.225044E-01
  0.243769E-01  0.261325E-01  0.276556E-01  0.288360E-01  0.295832E-01  0.298390E-01
  0.295832E-01  0.288360E-01  0.276556E-01  0.261325E-01  0.243769E-01  0.225044E-01
  0.206216E-01  0.188156E-01  0.171487E-01  0.156585E-01  0.143630E-01  0.158036E-01
  0.149131E-01  0.141805E-01  0.135983E-01  0.131618E-01  0.128701E-01  0.127239E-01
  0.127239E-01  0.128701E-01  0.131618E-01  0.135983E-01  0.141805E-01  0.149131E-01
  0.158036E-01  0.168580E-01  0.180754E-01  0.194440E-01  0.209362E-01  0.225044E-01
  0.240805E-01  0.255803E-01  0.269134E-01  0.279945E-01  0.287539E-01  0.291449E-01
  0.291449E-01  0.287539E-01  0.279945E-01  0.269134E-01  0.255803E-01  0.240805E-01
  0.225044E-01  0.209362E-01  0.194440E-01  0.180754E-01  0.168580E-01  0.158036E-01
  0.179012E-01  0.172157E-01  0.166517E-01  0.162062E-01  0.158816E-01  0.156834E-01
  0.156167E-01  0.156834E-01  0.158816E-01  0.162062E-01  0.166517E-01  0.172157E-01
  0.179012E-01  0.187131E-01  0.196536E-01  0.207170E-01  0.218850E-01  0.231227E-01
  0.243769E-01  0.255803E-01  0.266616E-01  0.275575E-01  0.282213E-01  0.286265E-01
  0.287624E-01  0.286265E-01  0.282213E-01  0.275575E-01  0.266616E-01  0.255803E-01
  0.243769E-01  0.231227E-01  0.218850E-01  0.207170E-01  0.196536E-01  0.187131E-01
  0.179012E-01  0.207273E-01  0.202523E-01  0.198556E-01  0.195412E-01  0.193200E-01
  0.192051E-01  0.192051E-01  0.193200E-01  0.195412E-01  0.198556E-01  0.202523E-01
  0.207273E-01  0.212845E-01  0.219301E-01  0.226657E-01  0.234837E-01  0.243623E-01
  0.252629E-01  0.261325E-01  0.269134E-01  0.275575E-01  0.280370E-01  0.283469E-01
  0.284969E-01  0.284969E-01  0.283469E-01  0.280370E-01  0.275575E-01  0.269134E-01
  0.261325E-01  0.252629E-01  0.243623E-01  0.234837E-01  0.226657E-01  0.219301E-01
  0.212845E-01  0.207273E-01  0.243589E-01  0.240952E-01  0.238546E-01  0.236534E-01
  0.235171E-01  0.234687E-01  0.235171E-01  0.236534E-01  0.238546E-01  0.240952E-01
  0.243589E-01  0.246455E-01  0.249665E-01  0.253356E-01  0.257596E-01  0.262324E-01
  0.267323E-01  0.272219E-01  0.276556E-01  0.279945E-01  0.282213E-01  0.283469E-01
  0.284014E-01  0.284154E-01  0.284014E-01  0.283469E-01  0.282213E-01  0.279945E-01
  0.276556E-01  0.272219E-01  0.267323E-01  0.262324E-01  0.257596E-01  0.253356E-01
  0.249665E-01  0.246455E-01  0.243589E-01  0.288360E-01  0.287539E-01  0.286265E-01
  0.284969E-01  0.284154E-01  0.284154E-01  0.284969E-01  0.286265E-01  0.287539E-01
  0.288360E-01  0.288564E-01  0.288285E-01  0.287833E-01  0.287516E-01  0.287516E-01
  0.287833E-01  0.288285E-01  0.288564E-01  0.288360E-01  0.287539E-01  0.286265E-01
  0.284969E-01  0.284154E-01  0.284154E-01  0.284969E-01  0.286265E-01  0.287539E-01
  0.288360E-01  0.288564E-01  0.288285E-01  0.287833E-01  0.287516E-01  0.287516E-01
  0.287833E-01  0.288285E-01  0.288564E-01  0.288360E-01  0.340757E-01  0.340824E-01
  0.339771E-01  0.338554E-01  0.338033E-01  0.338554E-01  0.339771E-01  0.340824E-01
  0.340757E-01  0.338965E-01  0.335413E-01  0.330549E-01  0.325040E-01  0.319478E-01
  0.314224E-01  0.309374E-01  0.304811E-01  0.300334E-01  0.295832E-01  0.291449E-01
  0.287624E-01  0.284969E-01  0.284014E-01  0.284969E-01  0.287624E-01  0.291449E-01
  0.295832E-01  0.300334E-01  0.304811E-01  0.309374E-01  0.314224E-01  0.319478E-01
  0.325040E-01  0.330549E-01  0.335413E-01  0.338965E-01  0.340757E-01  0.397597E-01
  0.396739E-01  0.394547E-01  0.392841E-01  0.392841E-01  0.394547E-01  0.396739E-01
  0.397597E-01  0.395568E-01  0.389997E-01  0.381241E-01  0.370331E-01  0.358470E-01
  0.346643E-01  0.335432E-01  0.325035E-01  0.315413E-01  0.306499E-01  0.298390E-01
  0.291449E-01  0.286265E-01  0.283469E-01  0.283469E-01  0.286265E-01  0.291449E-01
  0.298390E-01  0.306499E-01  0.315413E-01  0.325035E-01  0.335432E-01  0.346643E-01
  0.358470E-01  0.370331E-01  0.381241E-01  0.389997E-01  0.395568E-01  0.397597E-01
  0.452097E-01  0.447609E-01  0.442905E-01  0.440942E-01  0.442905E-01  0.447609E-01
  0.452097E-01  0.453100E-01  0.448480E-01  0.437894E-01  0.422523E-01  0.404300E-01
  0.385143E-01  0.366480E-01  0.349104E-01  0.333289E-01  0.319068E-01  0.306499E-01
  0.295832E-01  0.287539E-01  0.282213E-01  0.280370E-01  0.282213E-01  0.287539E-01
  0.295832E-01  0.306499E-01  0.319068E-01  0.333289E-01  0.349104E-01  0.366480E-01
  0.385143E-01  0.404300E-01  0.422523E-01  0.437894E-01  0.448480E-01  0.453100E-01
  0.452097E-01  0.493009E-01  0.482099E-01  0.474762E-01  0.474762E-01  0.482099E-01
  0.493009E-01  0.501780E-01  0.503393E-01  0.495484E-01  0.478670E-01  0.455524E-01
  0.429191E-01  0.402392E-01  0.376963E-01  0.353829E-01  0.333289E-01  0.315413E-01
  0.300334E-01  0.288360E-01  0.279945E-01  0.275575E-01  0.275575E-01  0.279945E-01
  0.288360E-01  0.300334E-01  0.315413E-01  0.333289E-01  0.353829E-01  0.376963E-01
  0.402392E-01  0.429191E-01  0.455524E-01  0.478670E-01  0.495484E-01  0.503393E-01
  0.501780E-01  0.493009E-01  0.506492E-01  0.488635E-01  0.481674E-01  0.488635E-01
  0.506492E-01  0.527459E-01  0.542387E-01  0.544693E-01  0.532575E-01  0.508473E-01
  0.476896E-01  0.442373E-01  0.408364E-01  0.376963E-01  0.349104E-01  0.325035E-01
  0.304811E-01  0.288564E-01  0.276556E-01  0.269134E-01  0.266616E-01  0.269134E-01
  0.276556E-01  0.288564E-01  0.304811E-01  0.325035E-01  0.349104E-01  0.376963E-01
  0.408364E-01  0.442373E-01  0.476896E-01  0.508473E-01  0.532575E-01  0.544693E-01
  0.542387E-01  0.527459E-01  0.506492E-01  0.483544E-01  0.463202E-01  0.463202E-01
  0.483544E-01  0.516751E-01  0.550369E-01  0.571888E-01  0.573934E-01  0.556352E-01
  0.524229E-01  0.484300E-01  0.442373E-01  0.402392E-01  0.366480E-01  0.335432E-01
  0.309374E-01  0.288285E-01  0.272219E-01  0.261325E-01  0.255803E-01  0.255803E-01
  0.261325E-01  0.272219E-01  0.288285E-01  0.309374E-01  0.335432E-01  0.366480E-01
  0.402392E-01  0.442373E-01  0.484300E-01  0.524229E-01  0.556352E-01  0.573934E-01
  0.571888E-01  0.550369E-01  0.516751E-01  0.483544E-01  0.429449E-01  0.415398E-01
  0.429449E-01  0.467514E-01  0.517764E-01  0.563490E-01  0.589576E-01  0.589058E-01
  0.564543E-01  0.524229E-01  0.476896E-01  0.429191E-01  0.385143E-01  0.346643E-01
  0.314224E-01  0.287833E-01  0.267323E-01  0.252629E-01  0.243769E-01  0.240805E-01
  0.243769E-01  0.252629E-01  0.267323E-01  0.287833E-01  0.314224E-01  0.346643E-01
  0.385143E-01  0.429191E-01  0.476896E-01  0.524229E-01  0.564543E-01  0.589058E-01
  0.589576E-01  0.563490E-01  0.517764E-01  0.467514E-01  0.429449E-01  0.364118E-01
  0.364118E-01  0.395345E-01  0.450848E-01  0.515553E-01  0.569264E-01  0.595447E-01
  0.589058E-01  0.556352E-01  0.508473E-01  0.455524E-01  0.404300E-01  0.358470E-01
  0.319478E-01  0.287516E-01  0.262324E-01  0.243623E-01  0.231227E-01  0.225044E-01
  0.225044E-01  0.231227E-01  0.243623E-01  0.262324E-01  0.287516E-01  0.319478E-01
  0.358470E-01  0.404300E-01  0.455524E-01  0.508473E-01  0.556352E-01  0.589058E-01
  0.595447E-01  0.569264E-01  0.515553E-01  0.450848E-01  0.395345E-01  0.364118E-01
  0.309426E-01  0.325515E-01  0.372044E-01  0.440942E-01  0.514344E-01  0.569264E-01
  0.589576E-01  0.573934E-01  0.532575E-01  0.478670E-01  0.422523E-01  0.370331E-01
  0.325040E-01  0.287516E-01  0.257596E-01  0.234837E-01  0.218850E-01  0.209362E-01
  0.206216E-01  0.209362E-01  0.218850E-01  0.234837E-01  0.257596E-01  0.287516E-01
  0.325040E-01  0.370331E-01  0.422523E-01  0.478670E-01  0.532575E-01  0.573934E-01
  0.589576E-01  0.569264E-01  0.514344E-01  0.440942E-01  0.372044E-01  0.325515E-01
  0.309426E-01  0.276550E-01  0.306089E-01  0.364025E-01  0.440942E-01  0.515553E-01
  0.563490E-01  0.571888E-01  0.544693E-01  0.495484E-01  0.437894E-01  0.381241E-01
  0.330549E-01  0.287833E-01  0.253356E-01  0.226657E-01  0.207170E-01  0.194440E-01
  0.188156E-01  0.188156E-01  0.194440E-01  0.207170E-01  0.226657E-01  0.253356E-01
  0.287833E-01  0.330549E-01  0.381241E-01  0.437894E-01  0.495484E-01  0.544693E-01
  0.571888E-01  0.563490E-01  0.515553E-01  0.440942E-01  0.364025E-01  0.306089E-01
  0.276550E-01  0.276550E-01  0.266057E-01  0.306089E-01  0.372044E-01  0.450848E-01
  0.517764E-01  0.550369E-01  0.542387E-01  0.503393E-01  0.448480E-01  0.389997E-01
  0.335413E-01  0.288285E-01  0.249665E-01  0.219301E-01  0.196536E-01  0.180754E-01
  0.171487E-01  0.168432E-01  0.171487E-01  0.180754E-01  0.196536E-01  0.219301E-01
  0.249665E-01  0.288285E-01  0.335413E-01  0.389997E-01  0.448480E-01  0.503393E-01
  0.542387E-01  0.550369E-01  0.517764E-01  0.450848E-01  0.372044E-01  0.306089E-01
  0.266057E-01  0.253163E-01  0.266057E-01  0.276550E-01  0.325515E-01  0.395345E-01
  0.467514E-01  0.516751E-01  0.527459E-01  0.501780E-01  0.453100E-01  0.395568E-01
  0.338965E-01  0.288564E-01  0.246455E-01  0.212845E-01  0.187131E-01  0.168580E-01
  0.156585E-01  0.150706E-01  0.150706E-01  0.156585E-01  0.168580E-01  0.187131E-01
  0.212845E-01  0.246455E-01  0.288564E-01  0.338965E-01  0.395568E-01  0.453100E-01
  0.501780E-01  0.527459E-01  0.516751E-01  0.467514E-01  0.395345E-01  0.325515E-01
  0.276550E-01  0.253163E-01  0.253163E-01  0.276550E-01  0.309426E-01  0.364118E-01
  0.429449E-01  0.483544E-01  0.506492E-01  0.493009E-01  0.452097E-01  0.397597E-01
  0.340757E-01  0.288360E-01  0.243589E-01  0.207273E-01  0.179012E-01  0.158036E-01
  0.143630E-01  0.135234E-01  0.132479E-01  0.135234E-01  0.143630E-01  0.158036E-01
  0.179012E-01  0.207273E-01  0.243589E-01  0.288360E-01  0.340757E-01  0.397597E-01
  0.452097E-01  0.493009E-01  0.506492E-01  0.483544E-01  0.429449E-01  0.364118E-01
  0.309426E-01  0.276550E-01  0.266057E-01  0.276550E-01  0.309426E-01  0.460107E-01
  0.491591E-01  0.515141E-01  0.517269E-01  0.493009E-01  0.447669E-01  0.391413E-01
  0.333482E-01  0.279945E-01  0.233881E-01  0.196203E-01  0.166561E-01  0.144142E-01
  0.128134E-01  0.117870E-01  0.112867E-01  0.112867E-01  0.117870E-01  0.128134E-01
  0.144142E-01  0.166561E-01  0.196203E-01  0.233881E-01  0.279945E-01  0.333482E-01
  0.391413E-01  0.447669E-01  0.493009E-01  0.517269E-01  0.515141E-01  0.491591E-01
  0.460107E-01  0.434075E-01  0.420342E-01  0.420342E-01  0.434075E-01  0.460107E-01
  0.491591E-01  0.508616E-01  0.509991E-01  0.488983E-01  0.447609E-01  0.393886E-01
  0.336592E-01  0.282213E-01  0.234453E-01  0.194764E-01  0.163108E-01  0.138755E-01
  0.120855E-01  0.108663E-01  0.101599E-01  0.992880E-02  0.101599E-01  0.108663E-01
  0.120855E-01  0.138755E-01  0.163108E-01  0.194764E-01  0.234453E-01  0.282213E-01
  0.336592E-01  0.393886E-01  0.447609E-01  0.488983E-01  0.509991E-01  0.508616E-01
  0.491591E-01  0.470574E-01  0.455148E-01  0.449698E-01  0.455148E-01  0.470574E-01
  0.491591E-01  0.515141E-01  0.509991E-01  0.487128E-01  0.446735E-01  0.394547E-01
  0.338058E-01  0.283469E-01  0.234704E-01  0.193578E-01  0.160351E-01  0.134424E-01
  0.114946E-01  0.101126E-01  0.923096E-02  0.880241E-02  0.880241E-02  0.923096E-02
  0.101126E-01  0.114946E-01  0.134424E-01  0.160351E-01  0.193578E-01  0.234704E-01
  0.283469E-01  0.338058E-01  0.394547E-01  0.446735E-01  0.487128E-01  0.509991E-01
  0.515141E-01  0.508663E-01  0.499110E-01  0.492912E-01  0.492912E-01  0.499110E-01
  0.508663E-01  0.515141E-01  0.517269E-01  0.488983E-01  0.446735E-01  0.394602E-01
  0.338554E-01  0.284014E-01  0.234730E-01  0.192653E-01  0.158257E-01  0.131083E-01
  0.110318E-01  0.951463E-02  0.848651E-02  0.789249E-02  0.769828E-02  0.789249E-02
  0.848651E-02  0.951463E-02  0.110318E-01  0.131083E-01  0.158257E-01  0.192653E-01
  0.234730E-01  0.284014E-01  0.338554E-01  0.394602E-01  0.446735E-01  0.488983E-01
  0.517269E-01  0.531711E-01  0.536415E-01  0.536700E-01  0.536367E-01  0.536700E-01
  0.536415E-01  0.531711E-01  0.517269E-01  0.493009E-01  0.447609E-01  0.394547E-01
  0.338554E-01  0.284154E-01  0.234687E-01  0.192051E-01  0.156834E-01  0.128701E-01
  0.106897E-01  0.906127E-02  0.791169E-02  0.718048E-02  0.682529E-02  0.682529E-02
  0.718048E-02  0.791169E-02  0.906127E-02  0.106897E-01  0.128701E-01  0.156834E-01
  0.192051E-01  0.234687E-01  0.284154E-01  0.338554E-01  0.394547E-01  0.447609E-01
  0.493009E-01  0.527459E-01  0.550369E-01  0.563490E-01  0.569264E-01  0.569264E-01
  0.563490E-01  0.550369E-01  0.527459E-01  0.493009E-01  0.447669E-01  0.393886E-01
  0.338058E-01  0.284014E-01  0.234687E-01  0.191841E-01  0.156112E-01  0.127270E-01
  0.104639E-01  0.874378E-02  0.749313E-02  0.664819E-02  0.616030E-02  0.600070E-02
  0.616030E-02  0.664819E-02  0.749313E-02  0.874378E-02  0.104639E-01  0.127270E-01
  0.156112E-01  0.191841E-01  0.234687E-01  0.284014E-01  0.338058E-01  0.393886E-01
  0.447669E-01  0.495387E-01  0.533843E-01  0.561363E-01  0.577649E-01  0.583013E-01
  0.577649E-01  0.561363E-01  0.533843E-01  0.495387E-01  0.447669E-01  0.391413E-01
  0.336592E-01  0.283469E-01  0.234730E-01  0.192051E-01  0.156112E-01  0.126793E-01
  0.103518E-01  0.855595E-02  0.722027E-02  0.627995E-02  0.568215E-02  0.539155E-02
  0.539155E-02  0.568215E-02  0.627995E-02  0.722027E-02  0.855595E-02  0.103518E-01
  0.126793E-01  0.156112E-01  0.192051E-01  0.234730E-01  0.283469E-01  0.336592E-01
  0.391413E-01  0.444460E-01  0.491959E-01  0.530477E-01  0.557440E-01  0.571273E-01
  0.571273E-01  0.557440E-01  0.530477E-01  0.491959E-01  0.444460E-01  0.391413E-01
  0.333482E-01  0.282213E-01  0.234704E-01  0.192653E-01  0.156834E-01  0.127270E-01
  0.103518E-01  0.849382E-02  0.708578E-02  0.606393E-02  0.537354E-02  0.497451E-02
  0.484389E-02  0.497451E-02  0.537354E-02  0.606393E-02  0.708578E-02  0.849382E-02
  0.103518E-01  0.127270E-01  0.156834E-01  0.192653E-01  0.234704E-01  0.282213E-01
  0.333482E-01  0.385879E-01  0.436027E-01  0.480180E-01  0.514730E-01  0.536732E-01
  0.544285E-01  0.536732E-01  0.514730E-01  0.480180E-01  0.436027E-01  0.385879E-01
  0.333482E-01  0.279945E-01  0.234453E-01  0.193578E-01  0.158257E-01  0.128701E-01
  0.104639E-01  0.855595E-02  0.708578E-02  0.599274E-02  0.522231E-02  0.473173E-02
  0.449309E-02  0.449309E-02  0.473173E-02  0.522231E-02  0.599274E-02  0.708578E-02
  0.855595E-02  0.104639E-01  0.128701E-01  0.158257E-01  0.193578E-01  0.234453E-01
  0.279945E-01  0.328235E-01  0.376638E-01  0.421785E-01  0.459997E-01  0.487790E-01
  0.502435E-01  0.502435E-01  0.487790E-01  0.459997E-01  0.421785E-01  0.376638E-01
  0.328235E-01  0.279945E-01  0.233881E-01  0.194764E-01  0.160351E-01  0.131083E-01
  0.106897E-01  0.874378E-02  0.722027E-02  0.606393E-02  0.522231E-02  0.465206E-02
  0.432210E-02  0.421413E-02  0.432210E-02  0.465206E-02  0.522231E-02  0.606393E-02
  0.722027E-02  0.874378E-02  0.106897E-01  0.131083E-01  0.160351E-01  0.194764E-01
  0.233881E-01  0.276556E-01  0.320820E-01  0.363931E-01  0.402604E-01  0.433411E-01
  0.453310E-01  0.460194E-01  0.453310E-01  0.433411E-01  0.402604E-01  0.363931E-01
  0.320820E-01  0.276556E-01  0.233881E-01  0.196203E-01  0.163108E-01  0.134424E-01
  0.110318E-01  0.906127E-02  0.749313E-02  0.627995E-02  0.537354E-02  0.473173E-02
  0.432210E-02  0.412284E-02  0.412284E-02  0.432210E-02  0.473173E-02  0.537354E-02
  0.627995E-02  0.749313E-02  0.906127E-02  0.110318E-01  0.134424E-01  0.163108E-01
  0.196203E-01  0.233027E-01  0.272219E-01  0.311693E-01  0.348735E-01  0.380281E-01
  0.403349E-01  0.415549E-01  0.415549E-01  0.403349E-01  0.380281E-01  0.348735E-01
  0.311693E-01  0.272219E-01  0.233027E-01  0.196203E-01  0.166561E-01  0.138755E-01
  0.114946E-01  0.951463E-02  0.791169E-02  0.664819E-02  0.568215E-02  0.497451E-02
  0.449309E-02  0.421413E-02  0.412284E-02  0.421413E-02  0.449309E-02  0.497451E-02
  0.568215E-02  0.664819E-02  0.791169E-02  0.951463E-02  0.114946E-01  0.138755E-01
  0.166561E-01  0.197969E-01  0.232066E-01  0.267323E-01  0.301609E-01  0.332346E-01
  0.356826E-01  0.372637E-01  0.378107E-01  0.372637E-01  0.356826E-01  0.332346E-01
  0.301609E-01  0.267323E-01  0.232066E-01  0.197969E-01  0.166561E-01  0.144142E-01
  0.120855E-01  0.101126E-01  0.848651E-02  0.718048E-02  0.616030E-02  0.539155E-02
  0.484389E-02  0.449309E-02  0.432210E-02  0.432210E-02  0.449309E-02  0.484389E-02
  0.539155E-02  0.616030E-02  0.718048E-02  0.848651E-02  0.101126E-01  0.120855E-01
  0.144142E-01  0.170787E-01  0.200186E-01  0.231241E-01  0.262324E-01  0.291346E-01
  0.315966E-01  0.333917E-01  0.343394E-01  0.343394E-01  0.333917E-01  0.315966E-01
  0.291346E-01  0.262324E-01  0.231241E-01  0.200186E-01  0.170787E-01  0.144142E-01
  0.128134E-01  0.108663E-01  0.923096E-02  0.789249E-02  0.682529E-02  0.600070E-02
  0.539155E-02  0.497451E-02  0.473173E-02  0.465206E-02  0.473173E-02  0.497451E-02
  0.539155E-02  0.600070E-02  0.682529E-02  0.789249E-02  0.923096E-02  0.108663E-01
  0.128134E-01  0.150659E-01  0.175865E-01  0.202975E-01  0.230769E-01  0.257596E-01
  0.281497E-01  0.300442E-01  0.312640E-01  0.316852E-01  0.312640E-01  0.300442E-01
  0.281497E-01  0.257596E-01  0.230769E-01  0.202975E-01  0.175865E-01  0.150659E-01
  0.128134E-01  0.117870E-01  0.101599E-01  0.880241E-02  0.769828E-02  0.682529E-02
  0.616030E-02  0.568215E-02  0.537354E-02  0.522231E-02  0.522231E-02  0.537354E-02
  0.568215E-02  0.616030E-02  0.682529E-02  0.769828E-02  0.880241E-02  0.101599E-01
  0.117870E-01  0.136859E-01  0.158354E-01  0.181833E-01  0.206397E-01  0.230769E-01
  0.253356E-01  0.272404E-01  0.286236E-01  0.293520E-01  0.293520E-01  0.286236E-01
  0.272404E-01  0.253356E-01  0.230769E-01  0.206397E-01  0.181833E-01  0.158354E-01
  0.136859E-01  0.117870E-01  0.112867E-01  0.992880E-02  0.880241E-02  0.789249E-02
  0.718048E-02  0.664819E-02  0.627995E-02  0.606393E-02  0.599274E-02  0.606393E-02
  0.627995E-02  0.664819E-02  0.718048E-02  0.789249E-02  0.880241E-02  0.992880E-02
  0.112867E-01  0.128822E-01  0.147047E-01  0.167202E-01  0.188646E-01  0.210414E-01
  0.231241E-01  0.249665E-01  0.264192E-01  0.273512E-01  0.276727E-01  0.273512E-01
  0.264192E-01  0.249665E-01  0.231241E-01  0.210414E-01  0.188646E-01  0.167202E-01
  0.147047E-01  0.128822E-01  0.112867E-01  0.112867E-01  0.101599E-01  0.923096E-02
  0.848651E-02  0.791169E-02  0.749313E-02  0.722027E-02  0.708578E-02  0.708578E-02
  0.722027E-02  0.749313E-02  0.791169E-02  0.848651E-02  0.923096E-02  0.101599E-01
  0.112867E-01  0.126185E-01  0.141508E-01  0.158619E-01  0.177071E-01  0.196148E-01
  0.214873E-01  0.232066E-01  0.246455E-01  0.256847E-01  0.262302E-01  0.262302E-01
  0.256847E-01  0.246455E-01  0.232066E-01  0.214873E-01  0.196148E-01  0.177071E-01
  0.158619E-01  0.141508E-01  0.126185E-01  0.112867E-01  0.117870E-01  0.108663E-01
  0.101126E-01  0.951463E-02  0.906127E-02  0.874378E-02  0.855595E-02  0.849382E-02
  0.855595E-02  0.874378E-02  0.906127E-02  0.951463E-02  0.101126E-01  0.108663E-01
  0.117870E-01  0.128822E-01  0.141508E-01  0.155792E-01  0.171361E-01  0.187694E-01
  0.204050E-01  0.219505E-01  0.233027E-01  0.243589E-01  0.250321E-01  0.252633E-01
  0.250321E-01  0.243589E-01  0.233027E-01  0.219505E-01  0.204050E-01  0.187694E-01
  0.171361E-01  0.155792E-01  0.141508E-01  0.128822E-01  0.117870E-01  0.128134E-01
  0.120855E-01  0.114946E-01  0.110318E-01  0.106897E-01  0.104639E-01  0.103518E-01
  0.103518E-01  0.104639E-01  0.106897E-01  0.110318E-01  0.114946E-01  0.120855E-01
  0.128134E-01  0.136859E-01  0.147047E-01  0.158619E-01  0.171361E-01  0.184892E-01
  0.198659E-01  0.211953E-01  0.223969E-01  0.233881E-01  0.240952E-01  0.244631E-01
  0.244631E-01  0.240952E-01  0.233881E-01  0.223969E-01  0.211953E-01  0.198659E-01
  0.184892E-01  0.171361E-01  0.158619E-01  0.147047E-01  0.136859E-01  0.128134E-01
  0.144142E-01  0.138755E-01  0.134424E-01  0.131083E-01  0.128701E-01  0.127270E-01
  0.126793E-01  0.127270E-01  0.128701E-01  0.131083E-01  0.134424E-01  0.138755E-01
  0.144142E-01  0.150659E-01  0.158354E-01  0.167202E-01  0.177071E-01  0.187694E-01
  0.198659E-01  0.209429E-01  0.219393E-01  0.227923E-01  0.234453E-01  0.238546E-01
  0.239940E-01  0.238546E-01  0.234453E-01  0.227923E-01  0.219393E-01  0.209429E-01
  0.198659E-01  0.187694E-01  0.177071E-01  0.167202E-01  0.158354E-01  0.150659E-01
  0.144142E-01  0.166561E-01  0.163108E-01  0.160351E-01  0.158257E-01  0.156834E-01
  0.156112E-01  0.156112E-01  0.156834E-01  0.158257E-01  0.160351E-01  0.163108E-01
  0.166561E-01  0.170787E-01  0.175865E-01  0.181833E-01  0.188646E-01  0.196148E-01
  0.204050E-01  0.211953E-01  0.219393E-01  0.225910E-01  0.231108E-01  0.234704E-01
  0.236534E-01  0.236534E-01  0.234704E-01  0.231108E-01  0.225910E-01  0.219393E-01
  0.211953E-01  0.204050E-01  0.196148E-01  0.188646E-01  0.181833E-01  0.175865E-01
  0.170787E-01  0.166561E-01  0.196203E-01  0.194764E-01  0.193578E-01  0.192653E-01
  0.192051E-01  0.191841E-01  0.192051E-01  0.192653E-01  0.193578E-01  0.194764E-01
  0.196203E-01  0.197969E-01  0.200186E-01  0.202975E-01  0.206397E-01  0.210414E-01
  0.214873E-01  0.219505E-01  0.223969E-01  0.227923E-01  0.231108E-01  0.233385E-01
  0.234730E-01  0.235171E-01  0.234730E-01  0.233385E-01  0.231108E-01  0.227923E-01
  0.223969E-01  0.219505E-01  0.214873E-01  0.210414E-01  0.206397E-01  0.202975E-01
  0.200186E-01  0.197969E-01  0.196203E-01  0.233881E-01  0.234453E-01  0.234704E-01
  0.234730E-01  0.234687E-01  0.234687E-01  0.234730E-01  0.234704E-01  0.234453E-01
  0.233881E-01  0.233027E-01  0.232066E-01  0.231241E-01  0.230769E-01  0.230769E-01
  0.231241E-01  0.232066E-01  0.233027E-01  0.233881E-01  0.234453E-01  0.234704E-01
  0.234730E-01  0.234687E-01  0.234687E-01  0.234730E-01  0.234704E-01  0.234453E-01
  0.233881E-01  0.233027E-01  0.232066E-01  0.231241E-01  0.230769E-01  0.230769E-01
  0.231241E-01  0.232066E-01  0.233027E-01  0.233881E-01  0.279945E-01  0.282213E-01
  0.283469E-01  0.284014E-01  0.284154E-01  0.284014E-01  0.283469E-01  0.282213E-01
  0.279945E-01  0.276556E-01  0.272219E-01  0.267323E-01  0.262324E-01  0.257596E-01
  0.253356E-01  0.249665E-01  0.246455E-01  0.243589E-01  0.240952E-01  0.238546E-01
  0.236534E-01  0.235171E-01  0.234687E-01  0.235171E-01  0.236534E-01  0.238546E-01
  0.240952E-01  0.243589E-01  0.246455E-01  0.249665E-01  0.253356E-01  0.257596E-01
  0.262324E-01  0.267323E-01  0.272219E-01  0.276556E-01  0.279945E-01  0.333482E-01
  0.336592E-01  0.338058E-01  0.338554E-01  0.338554E-01  0.338058E-01  0.336592E-01
  0.333482E-01  0.328235E-01  0.320820E-01  0.311693E-01  0.301609E-01  0.291346E-01
  0.281497E-01  0.272404E-01  0.264192E-01  0.256847E-01  0.250321E-01  0.244631E-01
  0.239940E-01  0.236534E-01  0.234730E-01  0.234730E-01  0.236534E-01  0.239940E-01
  0.244631E-01  0.250321E-01  0.256847E-01  0.264192E-01  0.272404E-01  0.281497E-01
  0.291346E-01  0.301609E-01  0.311693E-01  0.320820E-01  0.328235E-01  0.333482E-01
  0.391413E-01  0.393886E-01  0.394547E-01  0.394602E-01  0.394547E-01  0.393886E-01
  0.391413E-01  0.385879E-01  0.376638E-01  0.363931E-01  0.348735E-01  0.332346E-01
  0.315966E-01  0.300442E-01  0.286236E-01  0.273512E-01  0.262302E-01  0.252633E-01
  0.244631E-01  0.238546E-01  0.234704E-01  0.233385E-01  0.234704E-01  0.238546E-01
  0.244631E-01  0.252633E-01  0.262302E-01  0.273512E-01  0.286236E-01  0.300442E-01
  0.315966E-01  0.332346E-01  0.348735E-01  0.363931E-01  0.376638E-01  0.385879E-01
  0.391413E-01  0.447669E-01  0.447609E-01  0.446735E-01  0.446735E-01  0.447609E-01
  0.447669E-01  0.444460E-01  0.436027E-01  0.421785E-01  0.402604E-01  0.380281E-01
  0.356826E-01  0.333917E-01  0.312640E-01  0.293520E-01  0.276727E-01  0.262302E-01
  0.250321E-01  0.240952E-01  0.234453E-01  0.231108E-01  0.231108E-01  0.234453E-01
  0.240952E-01  0.250321E-01  0.262302E-01  0.276727E-01  0.293520E-01  0.312640E-01
  0.333917E-01  0.356826E-01  0.380281E-01  0.402604E-01  0.421785E-01  0.436027E-01
  0.444460E-01  0.447669E-01  0.493009E-01  0.488983E-01  0.487128E-01  0.488983E-01
  0.493009E-01  0.495387E-01  0.491959E-01  0.480180E-01  0.459997E-01  0.433411E-01
  0.403349E-01  0.372637E-01  0.343394E-01  0.316852E-01  0.293520E-01  0.273512E-01
  0.256847E-01  0.243589E-01  0.233881E-01  0.227923E-01  0.225910E-01  0.227923E-01
  0.233881E-01  0.243589E-01  0.256847E-01  0.273512E-01  0.293520E-01  0.316852E-01
  0.343394E-01  0.372637E-01  0.403349E-01  0.433411E-01  0.459997E-01  0.480180E-01
  0.491959E-01  0.495387E-01  0.493009E-01  0.517269E-01  0.509991E-01  0.509991E-01
  0.517269E-01  0.527459E-01  0.533843E-01  0.530477E-01  0.514730E-01  0.487790E-01
  0.453310E-01  0.415549E-01  0.378107E-01  0.343394E-01  0.312640E-01  0.286236E-01
  0.264192E-01  0.246455E-01  0.233027E-01  0.223969E-01  0.219393E-01  0.219393E-01
  0.223969E-01  0.233027E-01  0.246455E-01  0.264192E-01  0.286236E-01  0.312640E-01
  0.343394E-01  0.378107E-01  0.415549E-01  0.453310E-01  0.487790E-01  0.514730E-01
  0.530477E-01  0.533843E-01  0.527459E-01  0.517269E-01  0.515141E-01  0.508616E-01
  0.515141E-01  0.531711E-01  0.550369E-01  0.561363E-01  0.557440E-01  0.536732E-01
  0.502435E-01  0.460194E-01  0.415549E-01  0.372637E-01  0.333917E-01  0.300442E-01
  0.272404E-01  0.249665E-01  0.232066E-01  0.219505E-01  0.211953E-01  0.209429E-01
  0.211953E-01  0.219505E-01  0.232066E-01  0.249665E-01  0.272404E-01  0.300442E-01
  0.333917E-01  0.372637E-01  0.415549E-01  0.460194E-01  0.502435E-01  0.536732E-01
  0.557440E-01  0.561363E-01  0.550369E-01  0.531711E-01  0.515141E-01  0.491591E-01
  0.491591E-01  0.508663E-01  0.536415E-01  0.563490E-01  0.577649E-01  0.571273E-01
  0.544285E-01  0.502435E-01  0.453310E-01  0.403349E-01  0.356826E-01  0.315966E-01
  0.281497E-01  0.253356E-01  0.231241E-01  0.214873E-01  0.204050E-01  0.198659E-01
  0.198659E-01  0.204050E-01  0.214873E-01  0.231241E-01  0.253356E-01  0.281497E-01
  0.315966E-01  0.356826E-01  0.403349E-01  0.453310E-01  0.502435E-01  0.544285E-01
  0.571273E-01  0.577649E-01  0.563490E-01  0.536415E-01  0.508663E-01  0.491591E-01
  0.460107E-01  0.470574E-01  0.499110E-01  0.536700E-01  0.569264E-01  0.583013E-01
  0.571273E-01  0.536732E-01  0.487790E-01  0.433411E-01  0.380281E-01  0.332346E-01
  0.291346E-01  0.257596E-01  0.230769E-01  0.210414E-01  0.196148E-01  0.187694E-01
  0.184892E-01  0.187694E-01  0.196148E-01  0.210414E-01  0.230769E-01  0.257596E-01
  0.291346E-01  0.332346E-01  0.380281E-01  0.433411E-01  0.487790E-01  0.536732E-01
  0.571273E-01  0.583013E-01  0.569264E-01  0.536700E-01  0.499110E-01  0.470574E-01
  0.460107E-01  0.434075E-01  0.455148E-01  0.492912E-01  0.536367E-01  0.569264E-01
  0.577649E-01  0.557440E-01  0.514730E-01  0.459997E-01  0.402604E-01  0.348735E-01
  0.301609E-01  0.262324E-01  0.230769E-01  0.206397E-01  0.188646E-01  0.177071E-01
  0.171361E-01  0.171361E-01  0.177071E-01  0.188646E-01  0.206397E-01  0.230769E-01
  0.262324E-01  0.301609E-01  0.348735E-01  0.402604E-01  0.459997E-01  0.514730E-01
  0.557440E-01  0.577649E-01  0.569264E-01  0.536367E-01  0.492912E-01  0.455148E-01
  0.434075E-01  0.434075E-01  0.420342E-01  0.449698E-01  0.492912E-01  0.536700E-01
  0.563490E-01  0.561363E-01  0.530477E-01  0.480180E-01  0.421785E-01  0.363931E-01
  0.311693E-01  0.267323E-01  0.231241E-01  0.202975E-01  0.181833E-01  0.167202E-01
  0.158619E-01  0.155792E-01  0.158619E-01  0.167202E-01  0.181833E-01  0.202975E-01
  0.231241E-01  0.267323E-01  0.311693E-01  0.363931E-01  0.421785E-01  0.480180E-01
  0.530477E-01  0.561363E-01  0.563490E-01  0.536700E-01  0.492912E-01  0.449698E-01
  0.420342E-01  0.410251E-01  0.420342E-01  0.420342E-01  0.455148E-01  0.499110E-01
  0.536415E-01  0.550369E-01  0.533843E-01  0.491959E-01  0.436027E-01  0.376638E-01
  0.320820E-01  0.272219E-01  0.232066E-01  0.200186E-01  0.175865E-01  0.158354E-01
  0.147047E-01  0.141508E-01  0.141508E-01  0.147047E-01  0.158354E-01  0.175865E-01
  0.200186E-01  0.232066E-01  0.272219E-01  0.320820E-01  0.376638E-01  0.436027E-01
  0.491959E-01  0.533843E-01  0.550369E-01  0.536415E-01  0.499110E-01  0.455148E-01
  0.420342E-01  0.402303E-01  0.402303E-01  0.420342E-01  0.434075E-01  0.470574E-01
  0.508663E-01  0.531711E-01  0.527459E-01  0.495387E-01  0.444460E-01  0.385879E-01
  0.328235E-01  0.276556E-01  0.233027E-01  0.197969E-01  0.170787E-01  0.150659E-01
  0.136859E-01  0.128822E-01  0.126185E-01  0.128822E-01  0.136859E-01  0.150659E-01
  0.170787E-01  0.197969E-01  0.233027E-01  0.276556E-01  0.328235E-01  0.385879E-01
  0.444460E-01  0.495387E-01  0.527459E-01  0.531711E-01  0.508663E-01  0.470574E-01
  0.434075E-01  0.410251E-01  0.402303E-01  0.410251E-01  0.434075E-01  0.460107E-01
  0.491591E-01  0.515141E-01  0.517269E-01  0.493009E-01  0.447669E-01  0.391413E-01
  0.333482E-01  0.279945E-01  0.233881E-01  0.196203E-01  0.166561E-01  0.144142E-01
  0.128134E-01  0.117870E-01  0.112867E-01  0.112867E-01  0.117870E-01  0.128134E-01
  0.144142E-01  0.166561E-01  0.196203E-01  0.233881E-01  0.279945E-01  0.333482E-01
  0.391413E-01  0.447669E-01  0.493009E-01  0.517269E-01  0.515141E-01  0.491591E-01
  0.460107E-01  0.434075E-01  0.420342E-01  0.420342E-01  0.434075E-01  0.460107E-01
  0.575480E-01  0.568364E-01  0.546014E-01  0.506023E-01  0.452097E-01  0.391413E-01
  0.330943E-01  0.275575E-01  0.227923E-01  0.188777E-01  0.157751E-01  0.133973E-01
  0.116543E-01  0.104694E-01  0.978353E-02  0.955913E-02  0.978353E-02  0.104694E-01
  0.116543E-01  0.133973E-01  0.157751E-01  0.188777E-01  0.227923E-01  0.275575E-01
  0.330943E-01  0.391413E-01  0.452097E-01  0.506023E-01  0.546014E-01  0.568364E-01
  0.575480E-01  0.574207E-01  0.571157E-01  0.569845E-01  0.571157E-01  0.574207E-01
  0.575480E-01  0.568364E-01  0.545438E-01  0.507239E-01  0.455769E-01  0.396739E-01
  0.336592E-01  0.280370E-01  0.231108E-01  0.190037E-01  0.157070E-01  0.131445E-01
  0.112247E-01  0.986539E-02  0.899932E-02  0.857856E-02  0.857856E-02  0.899932E-02
  0.986539E-02  0.112247E-01  0.131445E-01  0.157070E-01  0.190037E-01  0.231108E-01
  0.280370E-01  0.336592E-01  0.396739E-01  0.455769E-01  0.507239E-01  0.545438E-01
  0.568364E-01  0.578827E-01  0.582153E-01  0.582775E-01  0.582775E-01  0.582153E-01
  0.578827E-01  0.568364E-01  0.546014E-01  0.507239E-01  0.456805E-01  0.399135E-01
  0.339771E-01  0.283469E-01  0.233385E-01  0.191039E-01  0.156623E-01  0.129527E-01
  0.108871E-01  0.938084E-02  0.836144E-02  0.777290E-02  0.758054E-02  0.777290E-02
  0.836144E-02  0.938084E-02  0.108871E-01  0.129527E-01  0.156623E-01  0.191039E-01
  0.233385E-01  0.283469E-01  0.339771E-01  0.399135E-01  0.456805E-01  0.507239E-01
  0.546014E-01  0.571817E-01  0.586632E-01  0.593806E-01  0.595902E-01  0.593806E-01
  0.586632E-01  0.571817E-01  0.546014E-01  0.506023E-01  0.455769E-01  0.399135E-01
  0.340785E-01  0.284969E-01  0.234730E-01  0.191715E-01  0.156334E-01  0.128142E-01
  0.106332E-01  0.900650E-02  0.785937E-02  0.713024E-02  0.677621E-02  0.677621E-02
  0.713024E-02  0.785937E-02  0.900650E-02  0.106332E-01  0.128142E-01  0.156334E-01
  0.191715E-01  0.234730E-01  0.284969E-01  0.340785E-01  0.399135E-01  0.455769E-01
  0.506023E-01  0.546239E-01  0.574956E-01  0.592793E-01  0.601203E-01  0.601203E-01
  0.592793E-01  0.574956E-01  0.546239E-01  0.506023E-01  0.452097E-01  0.396739E-01
  0.339771E-01  0.284969E-01  0.235171E-01  0.192051E-01  0.156167E-01  0.127239E-01
  0.104562E-01  0.873380E-02  0.748219E-02  0.663695E-02  0.614902E-02  0.598944E-02
  0.614902E-02  0.663695E-02  0.748219E-02  0.873380E-02  0.104562E-01  0.127239E-01
  0.156167E-01  0.192051E-01  0.235171E-01  0.284969E-01  0.339771E-01  0.396739E-01
  0.452097E-01  0.501780E-01  0.542387E-01  0.571888E-01  0.589576E-01  0.595447E-01
  0.589576E-01  0.571888E-01  0.542387E-01  0.501780E-01  0.452097E-01  0.391413E-01
  0.336592E-01  0.283469E-01  0.234730E-01  0.192051E-01  0.156112E-01  0.126793E-01
  0.103518E-01  0.855595E-02  0.722027E-02  0.627995E-02  0.568215E-02  0.539155E-02
  0.539155E-02  0.568215E-02  0.627995E-02  0.722027E-02  0.855595E-02  0.103518E-01
  0.126793E-01  0.156112E-01  0.192051E-01  0.234730E-01  0.283469E-01  0.336592E-01
  0.391413E-01  0.444460E-01  0.491959E-01  0.530477E-01  0.557440E-01  0.571273E-01
  0.571273E-01  0.557440E-01  0.530477E-01  0.491959E-01  0.444460E-01  0.391413E-01
  0.330943E-01  0.280370E-01  0.233385E-01  0.191715E-01  0.156167E-01  0.126793E-01
  0.103172E-01  0.846825E-02  0.706623E-02  0.604834E-02  0.536045E-02  0.496277E-02
  0.483257E-02  0.496277E-02  0.536045E-02  0.604834E-02  0.706623E-02  0.846825E-02
  0.103172E-01  0.126793E-01  0.156167E-01  0.191715E-01  0.233385E-01  0.280370E-01
  0.330943E-01  0.382473E-01  0.431624E-01  0.474742E-01  0.508366E-01  0.529720E-01
  0.537038E-01  0.529720E-01  0.508366E-01  0.474742E-01  0.431624E-01  0.382473E-01
  0.330943E-01  0.275575E-01  0.231108E-01  0.191039E-01  0.156334E-01  0.127239E-01
  0.103518E-01  0.846825E-02  0.701541E-02  0.593446E-02  0.517217E-02  0.468658E-02
  0.445028E-02  0.445028E-02  0.468658E-02  0.517217E-02  0.593446E-02  0.701541E-02
  0.846825E-02  0.103518E-01  0.127239E-01  0.156334E-01  0.191039E-01  0.231108E-01
  0.275575E-01  0.322616E-01  0.369588E-01  0.413227E-01  0.450023E-01  0.476698E-01
  0.490722E-01  0.490722E-01  0.476698E-01  0.450023E-01  0.413227E-01  0.369588E-01
  0.322616E-01  0.275575E-01  0.227923E-01  0.190037E-01  0.156623E-01  0.128142E-01
  0.104562E-01  0.855595E-02  0.706623E-02  0.593446E-02  0.511019E-02  0.455139E-02
  0.422792E-02  0.412204E-02  0.422792E-02  0.455139E-02  0.511019E-02  0.593446E-02
  0.706623E-02  0.855595E-02  0.104562E-01  0.128142E-01  0.156623E-01  0.190037E-01
  0.227923E-01  0.269134E-01  0.311738E-01  0.353088E-01  0.390057E-01  0.419419E-01
  0.438342E-01  0.444881E-01  0.438342E-01  0.419419E-01  0.390057E-01  0.353088E-01
  0.311738E-01  0.269134E-01  0.227923E-01  0.188777E-01  0.157070E-01  0.129527E-01
  0.106332E-01  0.873380E-02  0.722027E-02  0.604834E-02  0.517217E-02  0.455139E-02
  0.415499E-02  0.396209E-02  0.396209E-02  0.415499E-02  0.455139E-02  0.517217E-02
  0.604834E-02  0.722027E-02  0.873380E-02  0.106332E-01  0.129527E-01  0.157070E-01
  0.188777E-01  0.223969E-01  0.261325E-01  0.298843E-01  0.333951E-01  0.363776E-01
  0.385542E-01  0.397039E-01  0.397039E-01  0.385542E-01  0.363776E-01  0.333951E-01
  0.298843E-01  0.261325E-01  0.223969E-01  0.188777E-01  0.157751E-01  0.131445E-01
  0.108871E-01  0.900650E-02  0.748219E-02  0.627995E-02  0.536045E-02  0.468658E-02
  0.422792E-02  0.396209E-02  0.387509E-02  0.396209E-02  0.422792E-02  0.468658E-02
  0.536045E-02  0.627995E-02  0.748219E-02  0.900650E-02  0.108871E-01  0.131445E-01
  0.157751E-01  0.187397E-01  0.219505E-01  0.252629E-01  0.284765E-01  0.313514E-01
  0.336372E-01  0.351117E-01  0.356215E-01  0.351117E-01  0.336372E-01  0.313514E-01
  0.284765E-01  0.252629E-01  0.219505E-01  0.187397E-01  0.157751E-01  0.133973E-01
  0.112247E-01  0.938084E-02  0.785937E-02  0.663695E-02  0.568215E-02  0.496277E-02
  0.445028E-02  0.412204E-02  0.396209E-02  0.396209E-02  0.412204E-02  0.445028E-02
  0.496277E-02  0.568215E-02  0.663695E-02  0.785937E-02  0.938084E-02  0.112247E-01
  0.133973E-01  0.158779E-01  0.186088E-01  0.214873E-01  0.243623E-01  0.270414E-01
  0.293104E-01  0.309628E-01  0.318344E-01  0.318344E-01  0.309628E-01  0.293104E-01
  0.270414E-01  0.243623E-01  0.214873E-01  0.186088E-01  0.158779E-01  0.133973E-01
  0.116543E-01  0.986539E-02  0.836144E-02  0.713024E-02  0.614902E-02  0.539155E-02
  0.483257E-02  0.445028E-02  0.422792E-02  0.415499E-02  0.422792E-02  0.445028E-02
  0.483257E-02  0.539155E-02  0.614902E-02  0.713024E-02  0.836144E-02  0.986539E-02
  0.116543E-01  0.137207E-01  0.160287E-01  0.185063E-01  0.210414E-01  0.234837E-01
  0.256559E-01  0.273750E-01  0.284806E-01  0.288622E-01  0.284806E-01  0.273750E-01
  0.256559E-01  0.234837E-01  0.210414E-01  0.185063E-01  0.160287E-01  0.137207E-01
  0.116543E-01  0.104694E-01  0.899932E-02  0.777290E-02  0.677621E-02  0.598944E-02
  0.539155E-02  0.496277E-02  0.468658E-02  0.455139E-02  0.455139E-02  0.468658E-02
  0.496277E-02  0.539155E-02  0.598944E-02  0.677621E-02  0.777290E-02  0.899932E-02
  0.104694E-01  0.121843E-01  0.141237E-01  0.162395E-01  0.184499E-01  0.206397E-01
  0.226657E-01  0.243716E-01  0.256084E-01  0.262592E-01  0.262592E-01  0.256084E-01
  0.243716E-01  0.226657E-01  0.206397E-01  0.184499E-01  0.162395E-01  0.141237E-01
  0.121843E-01  0.104694E-01  0.978353E-02  0.857856E-02  0.758054E-02  0.677621E-02
  0.614902E-02  0.568215E-02  0.536045E-02  0.517217E-02  0.511019E-02  0.517217E-02
  0.536045E-02  0.568215E-02  0.614902E-02  0.677621E-02  0.758054E-02  0.857856E-02
  0.978353E-02  0.112007E-01  0.128204E-01  0.146117E-01  0.165171E-01  0.184499E-01
  0.202975E-01  0.219301E-01  0.232158E-01  0.240400E-01  0.243241E-01  0.240400E-01
  0.232158E-01  0.219301E-01  0.202975E-01  0.184499E-01  0.165171E-01  0.146117E-01
  0.128204E-01  0.112007E-01  0.978353E-02  0.955913E-02  0.857856E-02  0.777290E-02
  0.713024E-02  0.663695E-02  0.627995E-02  0.604834E-02  0.593446E-02  0.593446E-02
  0.604834E-02  0.627995E-02  0.663695E-02  0.713024E-02  0.777290E-02  0.857856E-02
  0.955913E-02  0.107214E-01  0.120622E-01  0.135625E-01  0.151827E-01  0.168595E-01
  0.185063E-01  0.200186E-01  0.212845E-01  0.221988E-01  0.226788E-01  0.226788E-01
  0.221988E-01  0.212845E-01  0.200186E-01  0.185063E-01  0.168595E-01  0.151827E-01
  0.135625E-01  0.120622E-01  0.107214E-01  0.955913E-02  0.978353E-02  0.899932E-02
  0.836144E-02  0.785937E-02  0.748219E-02  0.722027E-02  0.706623E-02  0.701541E-02
  0.706623E-02  0.722027E-02  0.748219E-02  0.785937E-02  0.836144E-02  0.899932E-02
  0.978353E-02  0.107214E-01  0.118135E-01  0.130488E-01  0.144009E-01  0.158243E-01
  0.172542E-01  0.186088E-01  0.197969E-01  0.207273E-01  0.213214E-01  0.215258E-01
  0.213214E-01  0.207273E-01  0.197969E-01  0.186088E-01  0.172542E-01  0.158243E-01
  0.144009E-01  0.130488E-01  0.118135E-01  0.107214E-01  0.978353E-02  0.104694E-01
  0.986539E-02  0.938084E-02  0.900650E-02  0.873380E-02  0.855595E-02  0.846825E-02
  0.846825E-02  0.855595E-02  0.873380E-02  0.900650E-02  0.938084E-02  0.986539E-02
  0.104694E-01  0.112007E-01  0.120622E-01  0.130488E-01  0.141434E-01  0.153142E-01
  0.165133E-01  0.176791E-01  0.187397E-01  0.196203E-01  0.202523E-01  0.205826E-01
  0.205826E-01  0.202523E-01  0.196203E-01  0.187397E-01  0.176791E-01  0.165133E-01
  0.153142E-01  0.141434E-01  0.130488E-01  0.120622E-01  0.112007E-01  0.104694E-01
  0.116543E-01  0.112247E-01  0.108871E-01  0.106332E-01  0.104562E-01  0.103518E-01
  0.103172E-01  0.103518E-01  0.104562E-01  0.106332E-01  0.108871E-01  0.112247E-01
  0.116543E-01  0.121843E-01  0.128204E-01  0.135625E-01  0.144009E-01  0.153142E-01
  0.162680E-01  0.172165E-01  0.181058E-01  0.188777E-01  0.194764E-01  0.198556E-01
  0.199855E-01  0.198556E-01  0.194764E-01  0.188777E-01  0.181058E-01  0.172165E-01
  0.162680E-01  0.153142E-01  0.144009E-01  0.135625E-01  0.128204E-01  0.121843E-01
  0.116543E-01  0.133973E-01  0.131445E-01  0.129527E-01  0.128142E-01  0.127239E-01
  0.126793E-01  0.126793E-01  0.127239E-01  0.128142E-01  0.129527E-01  0.131445E-01
  0.133973E-01  0.137207E-01  0.141237E-01  0.146117E-01  0.151827E-01  0.158243E-01
  0.165133E-01  0.172165E-01  0.178943E-01  0.185039E-01  0.190037E-01  0.193578E-01
  0.195412E-01  0.195412E-01  0.193578E-01  0.190037E-01  0.185039E-01  0.178943E-01
  0.172165E-01  0.165133E-01  0.158243E-01  0.151827E-01  0.146117E-01  0.141237E-01
  0.137207E-01  0.133973E-01  0.157751E-01  0.157070E-01  0.156623E-01  0.156334E-01
  0.156167E-01  0.156112E-01  0.156167E-01  0.156334E-01  0.156623E-01  0.157070E-01
  0.157751E-01  0.158779E-01  0.160287E-01  0.162395E-01  0.165171E-01  0.168595E-01
  0.172542E-01  0.176791E-01  0.181058E-01  0.185039E-01  0.188446E-01  0.191039E-01
  0.192653E-01  0.193200E-01  0.192653E-01  0.191039E-01  0.188446E-01  0.185039E-01
  0.181058E-01  0.176791E-01  0.172542E-01  0.168595E-01  0.165171E-01  0.162395E-01
  0.160287E-01  0.158779E-01  0.157751E-01  0.188777E-01  0.190037E-01  0.191039E-01
  0.191715E-01  0.192051E-01  0.192051E-01  0.191715E-01  0.191039E-01  0.190037E-01
  0.188777E-01  0.187397E-01  0.186088E-01  0.185063E-01  0.184499E-01  0.184499E-01
  0.185063E-01  0.186088E-01  0.187397E-01  0.188777E-01  0.190037E-01  0.191039E-01
  0.191715E-01  0.192051E-01  0.192051E-01  0.191715E-01  0.191039E-01  0.190037E-01
  0.188777E-01  0.187397E-01  0.186088E-01  0.185063E-01  0.184499E-01  0.184499E-01
  0.185063E-01  0.186088E-01  0.187397E-01  0.188777E-01  0.227923E-01  0.231108E-01
  0.233385E-01  0.234730E-01  0.235171E-01  0.234730E-01  0.233385E-01  0.231108E-01
  0.227923E-01  0.223969E-01  0.219505E-01  0.214873E-01  0.210414E-01  0.206397E-01
  0.202975E-01  0.200186E-01  0.197969E-01  0.196203E-01  0.194764E-01  0.193578E-01
  0.192653E-01  0.192051E-01  0.191841E-01  0.192051E-01  0.192653E-01  0.193578E-01
  0.194764E-01  0.196203E-01  0.197969E-01  0.200186E-01  0.202975E-01  0.206397E-01
  0.210414E-01  0.214873E-01  0.219505E-01  0.223969E-01  0.227923E-01  0.275575E-01
  0.280370E-01  0.283469E-01  0.284969E-01  0.284969E-01  0.283469E-01  0.280370E-01
  0.275575E-01  0.269134E-01  0.261325E-01  0.252629E-01  0.243623E-01  0.234837E-01
  0.226657E-01  0.219301E-01  0.212845E-01  0.207273E-01  0.202523E-01  0.198556E-01
  0.195412E-01  0.193200E-01  0.192051E-01  0.192051E-01  0.193200E-01  0.195412E-01
  0.198556E-01  0.202523E-01  0.207273E-01  0.212845E-01  0.219301E-01  0.226657E-01
  0.234837E-01  0.243623E-01  0.252629E-01  0.261325E-01  0.269134E-01  0.275575E-01
  0.330943E-01  0.336592E-01  0.339771E-01  0.340785E-01  0.339771E-01  0.336592E-01
  0.330943E-01  0.322616E-01  0.311738E-01  0.298843E-01  0.284765E-01  0.270414E-01
  0.256559E-01  0.243716E-01  0.232158E-01  0.221988E-01  0.213214E-01  0.205826E-01
  0.199855E-01  0.195412E-01  0.192653E-01  0.191715E-01  0.192653E-01  0.195412E-01
  0.199855E-01  0.205826E-01  0.213214E-01  0.221988E-01  0.232158E-01  0.243716E-01
  0.256559E-01  0.270414E-01  0.284765E-01  0.298843E-01  0.311738E-01  0.322616E-01
  0.330943E-01  0.391413E-01  0.396739E-01  0.399135E-01  0.399135E-01  0.396739E-01
  0.391413E-01  0.382473E-01  0.369588E-01  0.353088E-01  0.333951E-01  0.313514E-01
  0.293104E-01  0.273750E-01  0.256084E-01  0.240400E-01  0.226788E-01  0.215258E-01
  0.205826E-01  0.198556E-01  0.193578E-01  0.191039E-01  0.191039E-01  0.193578E-01
  0.198556E-01  0.205826E-01  0.215258E-01  0.226788E-01  0.240400E-01  0.256084E-01
  0.273750E-01  0.293104E-01  0.313514E-01  0.333951E-01  0.353088E-01  0.369588E-01
  0.382473E-01  0.391413E-01  0.452097E-01  0.455769E-01  0.456805E-01  0.455769E-01
  0.452097E-01  0.444460E-01  0.431624E-01  0.413227E-01  0.390057E-01  0.363776E-01
  0.336372E-01  0.309628E-01  0.284806E-01  0.262592E-01  0.243241E-01  0.226788E-01
  0.213214E-01  0.202523E-01  0.194764E-01  0.190037E-01  0.188446E-01  0.190037E-01
  0.194764E-01  0.202523E-01  0.213214E-01  0.226788E-01  0.243241E-01  0.262592E-01
  0.284806E-01  0.309628E-01  0.336372E-01  0.363776E-01  0.390057E-01  0.413227E-01
  0.431624E-01  0.444460E-01  0.452097E-01  0.506023E-01  0.507239E-01  0.507239E-01
  0.506023E-01  0.501780E-01  0.491959E-01  0.474742E-01  0.450023E-01  0.419419E-01
  0.385542E-01  0.351117E-01  0.318344E-01  0.288622E-01  0.262592E-01  0.240400E-01
  0.221988E-01  0.207273E-01  0.196203E-01  0.188777E-01  0.185039E-01  0.185039E-01
  0.188777E-01  0.196203E-01  0.207273E-01  0.221988E-01  0.240400E-01  0.262592E-01
  0.288622E-01  0.318344E-01  0.351117E-01  0.385542E-01  0.419419E-01  0.450023E-01
  0.474742E-01  0.491959E-01  0.501780E-01  0.506023E-01  0.546014E-01  0.545438E-01
  0.546014E-01  0.546239E-01  0.542387E-01  0.530477E-01  0.508366E-01  0.476698E-01
  0.438342E-01  0.397039E-01  0.356215E-01  0.318344E-01  0.284806E-01  0.256084E-01
  0.232158E-01  0.212845E-01  0.197969E-01  0.187397E-01  0.181058E-01  0.178943E-01
  0.181058E-01  0.187397E-01  0.197969E-01  0.212845E-01  0.232158E-01  0.256084E-01
  0.284806E-01  0.318344E-01  0.356215E-01  0.397039E-01  0.438342E-01  0.476698E-01
  0.508366E-01  0.530477E-01  0.542387E-01  0.546239E-01  0.546014E-01  0.568364E-01
  0.568364E-01  0.571817E-01  0.574956E-01  0.571888E-01  0.557440E-01  0.529720E-01
  0.490722E-01  0.444881E-01  0.397039E-01  0.351117E-01  0.309628E-01  0.273750E-01
  0.243716E-01  0.219301E-01  0.200186E-01  0.186088E-01  0.176791E-01  0.172165E-01
  0.172165E-01  0.176791E-01  0.186088E-01  0.200186E-01  0.219301E-01  0.243716E-01
  0.273750E-01  0.309628E-01  0.351117E-01  0.397039E-01  0.444881E-01  0.490722E-01
  0.529720E-01  0.557440E-01  0.571888E-01  0.574956E-01  0.571817E-01  0.568364E-01
  0.575480E-01  0.578827E-01  0.586632E-01  0.592793E-01  0.589576E-01  0.571273E-01
  0.537038E-01  0.490722E-01  0.438342E-01  0.385542E-01  0.336372E-01  0.293104E-01
  0.256559E-01  0.226657E-01  0.202975E-01  0.185063E-01  0.172542E-01  0.165133E-01
  0.162680E-01  0.165133E-01  0.172542E-01  0.185063E-01  0.202975E-01  0.226657E-01
  0.256559E-01  0.293104E-01  0.336372E-01  0.385542E-01  0.438342E-01  0.490722E-01
  0.537038E-01  0.571273E-01  0.589576E-01  0.592793E-01  0.586632E-01  0.578827E-01
  0.575480E-01  0.574207E-01  0.582153E-01  0.593806E-01  0.601203E-01  0.595447E-01
  0.571273E-01  0.529720E-01  0.476698E-01  0.419419E-01  0.363776E-01  0.313514E-01
  0.270414E-01  0.234837E-01  0.206397E-01  0.184499E-01  0.168595E-01  0.158243E-01
  0.153142E-01  0.153142E-01  0.158243E-01  0.168595E-01  0.184499E-01  0.206397E-01
  0.234837E-01  0.270414E-01  0.313514E-01  0.363776E-01  0.419419E-01  0.476698E-01
  0.529720E-01  0.571273E-01  0.595447E-01  0.601203E-01  0.593806E-01  0.582153E-01
  0.574207E-01  0.574207E-01  0.571157E-01  0.582775E-01  0.595902E-01  0.601203E-01
  0.589576E-01  0.557440E-01  0.508366E-01  0.450023E-01  0.390057E-01  0.333951E-01
  0.284765E-01  0.243623E-01  0.210414E-01  0.184499E-01  0.165171E-01  0.151827E-01
  0.144009E-01  0.141434E-01  0.144009E-01  0.151827E-01  0.165171E-01  0.184499E-01
  0.210414E-01  0.243623E-01  0.284765E-01  0.333951E-01  0.390057E-01  0.450023E-01
  0.508366E-01  0.557440E-01  0.589576E-01  0.601203E-01  0.595902E-01  0.582775E-01
  0.571157E-01  0.566720E-01  0.571157E-01  0.569845E-01  0.582775E-01  0.593806E-01
  0.592793E-01  0.571888E-01  0.530477E-01  0.474742E-01  0.413227E-01  0.353088E-01
  0.298843E-01  0.252629E-01  0.214873E-01  0.185063E-01  0.162395E-01  0.146117E-01
  0.135625E-01  0.130488E-01  0.130488E-01  0.135625E-01  0.146117E-01  0.162395E-01
  0.185063E-01  0.214873E-01  0.252629E-01  0.298843E-01  0.353088E-01  0.413227E-01
  0.474742E-01  0.530477E-01  0.571888E-01  0.592793E-01  0.593806E-01  0.582775E-01
  0.569845E-01  0.562020E-01  0.562020E-01  0.569845E-01  0.571157E-01  0.582153E-01
  0.586632E-01  0.574956E-01  0.542387E-01  0.491959E-01  0.431624E-01  0.369588E-01
  0.311738E-01  0.261325E-01  0.219505E-01  0.186088E-01  0.160287E-01  0.141237E-01
  0.128204E-01  0.120622E-01  0.118135E-01  0.120622E-01  0.128204E-01  0.141237E-01
  0.160287E-01  0.186088E-01  0.219505E-01  0.261325E-01  0.311738E-01  0.369588E-01
  0.431624E-01  0.491959E-01  0.542387E-01  0.574956E-01  0.586632E-01  0.582153E-01
  0.571157E-01  0.562020E-01  0.558693E-01  0.562020E-01  0.571157E-01  0.574207E-01
  0.578827E-01  0.571817E-01  0.546239E-01  0.501780E-01  0.444460E-01  0.382473E-01
  0.322616E-01  0.269134E-01  0.223969E-01  0.187397E-01  0.158779E-01  0.137207E-01
  0.121843E-01  0.112007E-01  0.107214E-01  0.107214E-01  0.112007E-01  0.121843E-01
  0.137207E-01  0.158779E-01  0.187397E-01  0.223969E-01  0.269134E-01  0.322616E-01
  0.382473E-01  0.444460E-01  0.501780E-01  0.546239E-01  0.571817E-01  0.578827E-01
  0.574207E-01  0.566720E-01  0.562020E-01  0.562020E-01  0.566720E-01  0.574207E-01
  0.575480E-01  0.568364E-01  0.546014E-01  0.506023E-01  0.452097E-01  0.391413E-01
  0.330943E-01  0.275575E-01  0.227923E-01  0.188777E-01  0.157751E-01  0.133973E-01
  0.116543E-01  0.104694E-01  0.978353E-02  0.955913E-02  0.978353E-02  0.104694E-01
  0.116543E-01  0.133973E-01  0.157751E-01  0.188777E-01  0.227923E-01  0.275575E-01
  0.330943E-01  0.391413E-01  0.452097E-01  0.506023E-01  0.546014E-01  0.568364E-01
  0.575480E-01  0.574207E-01  0.571157E-01  0.569845E-01  0.571157E-01  0.574207E-01
  0.575480E-01  0.627192E-01  0.583611E-01  0.528013E-01  0.464178E-01  0.397597E-01
  0.333482E-01  0.275575E-01  0.225910E-01  0.185039E-01  0.152485E-01  0.127303E-01
  0.108505E-01  0.952289E-02  0.867820E-02  0.826793E-02  0.826793E-02  0.867820E-02
  0.952289E-02  0.108505E-01  0.127303E-01  0.152485E-01  0.185039E-01  0.225910E-01
  0.275575E-01  0.333482E-01  0.397597E-01  0.464178E-01  0.528013E-01  0.583611E-01
  0.627192E-01  0.657915E-01  0.677088E-01  0.686281E-01  0.686281E-01  0.677088E-01
  0.657915E-01  0.627192E-01  0.583611E-01  0.530828E-01  0.469546E-01  0.404561E-01
  0.340824E-01  0.282213E-01  0.231108E-01  0.188446E-01  0.154043E-01  0.127092E-01
  0.106619E-01  0.917299E-02  0.816718E-02  0.758691E-02  0.739728E-02  0.758691E-02
  0.816718E-02  0.917299E-02  0.106619E-01  0.127092E-01  0.154043E-01  0.188446E-01
  0.231108E-01  0.282213E-01  0.340824E-01  0.404561E-01  0.469546E-01  0.530828E-01
  0.583611E-01  0.624783E-01  0.653482E-01  0.670240E-01  0.675742E-01  0.670240E-01
  0.653482E-01  0.624783E-01  0.583611E-01  0.528013E-01  0.469546E-01  0.406858E-01
  0.344498E-01  0.286265E-01  0.234704E-01  0.191039E-01  0.155373E-01  0.127084E-01
  0.105268E-01  0.890390E-02  0.776152E-02  0.703618E-02  0.668414E-02  0.668414E-02
  0.703618E-02  0.776152E-02  0.890390E-02  0.105268E-01  0.127084E-01  0.155373E-01
  0.191039E-01  0.234704E-01  0.286265E-01  0.344498E-01  0.406858E-01  0.469546E-01
  0.528013E-01  0.578006E-01  0.616615E-01  0.642536E-01  0.655482E-01  0.655482E-01
  0.642536E-01  0.616615E-01  0.578006E-01  0.528013E-01  0.464178E-01  0.404561E-01
  0.344498E-01  0.287624E-01  0.236534E-01  0.192653E-01  0.156334E-01  0.127161E-01
  0.104352E-01  0.870635E-02  0.745202E-02  0.660583E-02  0.611767E-02  0.595806E-02
  0.611767E-02  0.660583E-02  0.745202E-02  0.870635E-02  0.104352E-01  0.127161E-01
  0.156334E-01  0.192653E-01  0.236534E-01  0.287624E-01  0.344498E-01  0.404561E-01
  0.464178E-01  0.519159E-01  0.565560E-01  0.600398E-01  0.621872E-01  0.629112E-01
  0.621872E-01  0.600398E-01  0.565560E-01  0.519159E-01  0.464178E-01  0.397597E-01
  0.340824E-01  0.286265E-01  0.236534E-01  0.193200E-01  0.156834E-01  0.127239E-01
  0.103787E-01  0.857185E-02  0.722943E-02  0.628509E-02  0.568506E-02  0.539348E-02
  0.539348E-02  0.568506E-02  0.628509E-02  0.722943E-02  0.857185E-02  0.103787E-01
  0.127239E-01  0.156834E-01  0.193200E-01  0.236534E-01  0.286265E-01  0.340824E-01
  0.397597E-01  0.453100E-01  0.503393E-01  0.544693E-01  0.573934E-01  0.589058E-01
  0.589058E-01  0.573934E-01  0.544693E-01  0.503393E-01  0.453100E-01  0.397597E-01
  0.333482E-01  0.282213E-01  0.234704E-01  0.192653E-01  0.156834E-01  0.127270E-01
  0.103518E-01  0.849382E-02  0.708578E-02  0.606393E-02  0.537354E-02  0.497451E-02
  0.484389E-02  0.497451E-02  0.537354E-02  0.606393E-02  0.708578E-02  0.849382E-02
  0.103518E-01  0.127270E-01  0.156834E-01  0.192653E-01  0.234704E-01  0.282213E-01
  0.333482E-01  0.385879E-01  0.436027E-01  0.480180E-01  0.514730E-01  0.536732E-01
  0.544285E-01  0.536732E-01  0.514730E-01  0.480180E-01  0.436027E-01  0.385879E-01
  0.333482E-01  0.275575E-01  0.231108E-01  0.191039E-01  0.156334E-01  0.127239E-01
  0.103518E-01  0.846825E-02  0.701541E-02  0.593446E-02  0.517217E-02  0.468658E-02
  0.445028E-02  0.445028E-02  0.468658E-02  0.517217E-02  0.593446E-02  0.701541E-02
  0.846825E-02  0.103518E-01  0.127239E-01  0.156334E-01  0.191039E-01  0.231108E-01
  0.275575E-01  0.322616E-01  0.369588E-01  0.413227E-01  0.450023E-01  0.476698E-01
  0.490722E-01  0.490722E-01  0.476698E-01  0.450023E-01  0.413227E-01  0.369588E-01
  0.322616E-01  0.275575E-01  0.225910E-01  0.188446E-01  0.155373E-01  0.127161E-01
  0.103787E-01  0.849382E-02  0.701541E-02  0.589185E-02  0.507335E-02  0.451838E-02
  0.419706E-02  0.409188E-02  0.419706E-02  0.451838E-02  0.507335E-02  0.589185E-02
  0.701541E-02  0.849382E-02  0.103787E-01  0.127161E-01  0.155373E-01  0.188446E-01
  0.225910E-01  0.266616E-01  0.308645E-01  0.349384E-01  0.385758E-01  0.414614E-01
  0.433193E-01  0.439610E-01  0.433193E-01  0.414614E-01  0.385758E-01  0.349384E-01
  0.308645E-01  0.266616E-01  0.225910E-01  0.185039E-01  0.154043E-01  0.127084E-01
  0.104352E-01  0.857185E-02  0.708578E-02  0.593446E-02  0.507335E-02  0.446305E-02
  0.407324E-02  0.388353E-02  0.388353E-02  0.407324E-02  0.446305E-02  0.507335E-02
  0.593446E-02  0.708578E-02  0.857185E-02  0.104352E-01  0.127084E-01  0.154043E-01
  0.185039E-01  0.219393E-01  0.255803E-01  0.292309E-01  0.326412E-01  0.355338E-01
  0.376421E-01  0.387548E-01  0.387548E-01  0.376421E-01  0.355338E-01  0.326412E-01
  0.292309E-01  0.255803E-01  0.219393E-01  0.185039E-01  0.152485E-01  0.127092E-01
  0.105268E-01  0.870635E-02  0.722943E-02  0.606393E-02  0.517217E-02  0.451838E-02
  0.407324E-02  0.381522E-02  0.373079E-02  0.381522E-02  0.407324E-02  0.451838E-02
  0.517217E-02  0.606393E-02  0.722943E-02  0.870635E-02  0.105268E-01  0.127092E-01
  0.152485E-01  0.181058E-01  0.211953E-01  0.243769E-01  0.274583E-01  0.302106E-01
  0.323960E-01  0.338044E-01  0.342911E-01  0.338044E-01  0.323960E-01  0.302106E-01
  0.274583E-01  0.243769E-01  0.211953E-01  0.181058E-01  0.152485E-01  0.127303E-01
  0.106619E-01  0.890390E-02  0.745202E-02  0.628509E-02  0.537354E-02  0.468658E-02
  0.419706E-02  0.388353E-02  0.373079E-02  0.373079E-02  0.388353E-02  0.419706E-02
  0.468658E-02  0.537354E-02  0.628509E-02  0.745202E-02  0.890390E-02  0.106619E-01
  0.127303E-01  0.150880E-01  0.176791E-01  0.204050E-01  0.231227E-01  0.256512E-01
  0.277898E-01  0.293458E-01  0.301662E-01  0.301662E-01  0.293458E-01  0.277898E-01
  0.256512E-01  0.231227E-01  0.204050E-01  0.176791E-01  0.150880E-01  0.127303E-01
  0.108505E-01  0.917299E-02  0.776152E-02  0.660583E-02  0.568506E-02  0.497451E-02
  0.445028E-02  0.409188E-02  0.388353E-02  0.381522E-02  0.388353E-02  0.409188E-02
  0.445028E-02  0.497451E-02  0.568506E-02  0.660583E-02  0.776152E-02  0.917299E-02
  0.108505E-01  0.127854E-01  0.149427E-01  0.172542E-01  0.196148E-01  0.218850E-01
  0.239012E-01  0.254951E-01  0.265194E-01  0.268728E-01  0.265194E-01  0.254951E-01
  0.239012E-01  0.218850E-01  0.196148E-01  0.172542E-01  0.149427E-01  0.127854E-01
  0.108505E-01  0.952289E-02  0.816718E-02  0.703618E-02  0.611767E-02  0.539348E-02
  0.484389E-02  0.445028E-02  0.419706E-02  0.407324E-02  0.407324E-02  0.419706E-02
  0.445028E-02  0.484389E-02  0.539348E-02  0.611767E-02  0.703618E-02  0.816718E-02
  0.952289E-02  0.111031E-01  0.128880E-01  0.148320E-01  0.168595E-01  0.188646E-01
  0.207170E-01  0.222745E-01  0.234026E-01  0.239957E-01  0.239957E-01  0.234026E-01
  0.222745E-01  0.207170E-01  0.188646E-01  0.168595E-01  0.148320E-01  0.128880E-01
  0.111031E-01  0.952289E-02  0.867820E-02  0.758691E-02  0.668414E-02  0.595806E-02
  0.539348E-02  0.497451E-02  0.468658E-02  0.451838E-02  0.446305E-02  0.451838E-02
  0.468658E-02  0.497451E-02  0.539348E-02  0.595806E-02  0.668414E-02  0.758691E-02
  0.867820E-02  0.996203E-02  0.114289E-01  0.130498E-01  0.147720E-01  0.165171E-01
  0.181833E-01  0.196536E-01  0.208102E-01  0.215508E-01  0.218059E-01  0.215508E-01
  0.208102E-01  0.196536E-01  0.181833E-01  0.165171E-01  0.147720E-01  0.130498E-01
  0.114289E-01  0.996203E-02  0.867820E-02  0.826793E-02  0.739728E-02  0.668414E-02
  0.611767E-02  0.568506E-02  0.537354E-02  0.517217E-02  0.507335E-02  0.507335E-02
  0.517217E-02  0.537354E-02  0.568506E-02  0.611767E-02  0.668414E-02  0.739728E-02
  0.826793E-02  0.930200E-02  0.104962E-01  0.118332E-01  0.132774E-01  0.147720E-01
  0.162395E-01  0.175865E-01  0.187131E-01  0.195261E-01  0.199527E-01  0.199527E-01
  0.195261E-01  0.187131E-01  0.175865E-01  0.162395E-01  0.147720E-01  0.132774E-01
  0.118332E-01  0.104962E-01  0.930200E-02  0.826793E-02  0.826793E-02  0.758691E-02
  0.703618E-02  0.660583E-02  0.628509E-02  0.606393E-02  0.593446E-02  0.589185E-02
  0.593446E-02  0.606393E-02  0.628509E-02  0.660583E-02  0.703618E-02  0.758691E-02
  0.826793E-02  0.908606E-02  0.100420E-01  0.111263E-01  0.123157E-01  0.135701E-01
  0.148320E-01  0.160287E-01  0.170787E-01  0.179012E-01  0.184265E-01  0.186073E-01
  0.184265E-01  0.179012E-01  0.170787E-01  0.160287E-01  0.148320E-01  0.135701E-01
  0.123157E-01  0.111263E-01  0.100420E-01  0.908606E-02  0.826793E-02  0.867820E-02
  0.816718E-02  0.776152E-02  0.745202E-02  0.722943E-02  0.708578E-02  0.701541E-02
  0.701541E-02  0.708578E-02  0.722943E-02  0.745202E-02  0.776152E-02  0.816718E-02
  0.867820E-02  0.930200E-02  0.100420E-01  0.108944E-01  0.118451E-01  0.128668E-01
  0.139177E-01  0.149427E-01  0.158779E-01  0.166561E-01  0.172157E-01  0.175087E-01
  0.175087E-01  0.172157E-01  0.166561E-01  0.158779E-01  0.149427E-01  0.139177E-01
  0.128668E-01  0.118451E-01  0.108944E-01  0.100420E-01  0.930200E-02  0.867820E-02
  0.952289E-02  0.917299E-02  0.890390E-02  0.870635E-02  0.857185E-02  0.849382E-02
  0.846825E-02  0.849382E-02  0.857185E-02  0.870635E-02  0.890390E-02  0.917299E-02
  0.952289E-02  0.996203E-02  0.104962E-01  0.111263E-01  0.118451E-01  0.126353E-01
  0.134674E-01  0.143012E-01  0.150880E-01  0.157751E-01  0.163108E-01  0.166517E-01
  0.167687E-01  0.166517E-01  0.163108E-01  0.157751E-01  0.150880E-01  0.143012E-01
  0.134674E-01  0.126353E-01  0.118451E-01  0.111263E-01  0.104962E-01  0.996203E-02
  0.952289E-02  0.108505E-01  0.106619E-01  0.105268E-01  0.104352E-01  0.103787E-01
  0.103518E-01  0.103518E-01  0.103787E-01  0.104352E-01  0.105268E-01  0.106619E-01
  0.108505E-01  0.111031E-01  0.114289E-01  0.118332E-01  0.123157E-01  0.128668E-01
  0.134674E-01  0.140888E-01  0.146957E-01  0.152485E-01  0.157070E-01  0.160351E-01
  0.162062E-01  0.162062E-01  0.160351E-01  0.157070E-01  0.152485E-01  0.146957E-01
  0.140888E-01  0.134674E-01  0.128668E-01  0.123157E-01  0.118332E-01  0.114289E-01
  0.111031E-01  0.108505E-01  0.127303E-01  0.127092E-01  0.127084E-01  0.127161E-01
  0.127239E-01  0.127270E-01  0.127239E-01  0.127161E-01  0.127084E-01  0.127092E-01
  0.127303E-01  0.127854E-01  0.128880E-01  0.130498E-01  0.132774E-01  0.135701E-01
  0.139177E-01  0.143012E-01  0.146957E-01  0.150732E-01  0.154043E-01  0.156623E-01
  0.158257E-01  0.158816E-01  0.158257E-01  0.156623E-01  0.154043E-01  0.150732E-01
  0.146957E-01  0.143012E-01  0.139177E-01  0.135701E-01  0.132774E-01  0.130498E-01
  0.128880E-01  0.127854E-01  0.127303E-01  0.152485E-01  0.154043E-01  0.155373E-01
  0.156334E-01  0.156834E-01  0.156834E-01  0.156334E-01  0.155373E-01  0.154043E-01
  0.152485E-01  0.150880E-01  0.149427E-01  0.148320E-01  0.147720E-01  0.147720E-01
  0.148320E-01  0.149427E-01  0.150880E-01  0.152485E-01  0.154043E-01  0.155373E-01
  0.156334E-01  0.156834E-01  0.156834E-01  0.156334E-01  0.155373E-01  0.154043E-01
  0.152485E-01  0.150880E-01  0.149427E-01  0.148320E-01  0.147720E-01  0.147720E-01
  0.148320E-01  0.149427E-01  0.150880E-01  0.152485E-01  0.185039E-01  0.188446E-01
  0.191039E-01  0.192653E-01  0.193200E-01  0.192653E-01  0.191039E-01  0.188446E-01
  0.185039E-01  0.181058E-01  0.176791E-01  0.172542E-01  0.168595E-01  0.165171E-01
  0.162395E-01  0.160287E-01  0.158779E-01  0.157751E-01  0.157070E-01  0.156623E-01
  0.156334E-01  0.156167E-01  0.156112E-01  0.156167E-01  0.156334E-01  0.156623E-01
  0.157070E-01  0.157751E-01  0.158779E-01  0.160287E-01  0.162395E-01  0.165171E-01
  0.168595E-01  0.172542E-01  0.176791E-01  0.181058E-01  0.185039E-01  0.225910E-01
  0.231108E-01  0.234704E-01  0.236534E-01  0.236534E-01  0.234704E-01  0.231108E-01
  0.225910E-01  0.219393E-01  0.211953E-01  0.204050E-01  0.196148E-01  0.188646E-01
  0.181833E-01  0.175865E-01  0.170787E-01  0.166561E-01  0.163108E-01  0.160351E-01
  0.158257E-01  0.156834E-01  0.156112E-01  0.156112E-01  0.156834E-01  0.158257E-01
  0.160351E-01  0.163108E-01  0.166561E-01  0.170787E-01  0.175865E-01  0.181833E-01
  0.188646E-01  0.196148E-01  0.204050E-01  0.211953E-01  0.219393E-01  0.225910E-01
  0.275575E-01  0.282213E-01  0.286265E-01  0.287624E-01  0.286265E-01  0.282213E-01
  0.275575E-01  0.266616E-01  0.255803E-01  0.243769E-01  0.231227E-01  0.218850E-01
  0.207170E-01  0.196536E-01  0.187131E-01  0.179012E-01  0.172157E-01  0.166517E-01
  0.162062E-01  0.158816E-01  0.156834E-01  0.156167E-01  0.156834E-01  0.158816E-01
  0.162062E-01  0.166517E-01  0.172157E-01  0.179012E-01  0.187131E-01  0.196536E-01
  0.207170E-01  0.218850E-01  0.231227E-01  0.243769E-01  0.255803E-01  0.266616E-01
  0.275575E-01  0.333482E-01  0.340824E-01  0.344498E-01  0.344498E-01  0.340824E-01
  0.333482E-01  0.322616E-01  0.308645E-01  0.292309E-01  0.274583E-01  0.256512E-01
  0.239012E-01  0.222745E-01  0.208102E-01  0.195261E-01  0.184265E-01  0.175087E-01
  0.167687E-01  0.162062E-01  0.158257E-01  0.156334E-01  0.156334E-01  0.158257E-01
  0.162062E-01  0.167687E-01  0.175087E-01  0.184265E-01  0.195261E-01  0.208102E-01
  0.222745E-01  0.239012E-01  0.256512E-01  0.274583E-01  0.292309E-01  0.308645E-01
  0.322616E-01  0.333482E-01  0.397597E-01  0.404561E-01  0.406858E-01  0.404561E-01
  0.397597E-01  0.385879E-01  0.369588E-01  0.349384E-01  0.326412E-01  0.302106E-01
  0.277898E-01  0.254951E-01  0.234026E-01  0.215508E-01  0.199527E-01  0.186073E-01
  0.175087E-01  0.166517E-01  0.160351E-01  0.156623E-01  0.155373E-01  0.156623E-01
  0.160351E-01  0.166517E-01  0.175087E-01  0.186073E-01  0.199527E-01  0.215508E-01
  0.234026E-01  0.254951E-01  0.277898E-01  0.302106E-01  0.326412E-01  0.349384E-01
  0.369588E-01  0.385879E-01  0.397597E-01  0.464178E-01  0.469546E-01  0.469546E-01
  0.464178E-01  0.453100E-01  0.436027E-01  0.413227E-01  0.385758E-01  0.355338E-01
  0.323960E-01  0.293458E-01  0.265194E-01  0.239957E-01  0.218059E-01  0.199527E-01
  0.184265E-01  0.172157E-01  0.163108E-01  0.157070E-01  0.154043E-01  0.154043E-01
  0.157070E-01  0.163108E-01  0.172157E-01  0.184265E-01  0.199527E-01  0.218059E-01
  0.239957E-01  0.265194E-01  0.293458E-01  0.323960E-01  0.355338E-01  0.385758E-01
  0.413227E-01  0.436027E-01  0.453100E-01  0.464178E-01  0.528013E-01  0.530828E-01
  0.528013E-01  0.519159E-01  0.503393E-01  0.480180E-01  0.450023E-01  0.414614E-01
  0.376421E-01  0.338044E-01  0.301662E-01  0.268728E-01  0.239957E-01  0.215508E-01
  0.195261E-01  0.179012E-01  0.166561E-01  0.157751E-01  0.152485E-01  0.150732E-01
  0.152485E-01  0.157751E-01  0.166561E-01  0.179012E-01  0.195261E-01  0.215508E-01
  0.239957E-01  0.268728E-01  0.301662E-01  0.338044E-01  0.376421E-01  0.414614E-01
  0.450023E-01  0.480180E-01  0.503393E-01  0.519159E-01  0.528013E-01  0.583611E-01
  0.583611E-01  0.578006E-01  0.565560E-01  0.544693E-01  0.514730E-01  0.476698E-01
  0.433193E-01  0.387548E-01  0.342911E-01  0.301662E-01  0.265194E-01  0.234026E-01
  0.208102E-01  0.187131E-01  0.170787E-01  0.158779E-01  0.150880E-01  0.146957E-01
  0.146957E-01  0.150880E-01  0.158779E-01  0.170787E-01  0.187131E-01  0.208102E-01
  0.234026E-01  0.265194E-01  0.301662E-01  0.342911E-01  0.387548E-01  0.433193E-01
  0.476698E-01  0.514730E-01  0.544693E-01  0.565560E-01  0.578006E-01  0.583611E-01
  0.627192E-01  0.624783E-01  0.616615E-01  0.600398E-01  0.573934E-01  0.536732E-01
  0.490722E-01  0.439610E-01  0.387548E-01  0.338044E-01  0.293458E-01  0.254951E-01
  0.222745E-01  0.196536E-01  0.175865E-01  0.160287E-01  0.149427E-01  0.143012E-01
  0.140888E-01  0.143012E-01  0.149427E-01  0.160287E-01  0.175865E-01  0.196536E-01
  0.222745E-01  0.254951E-01  0.293458E-01  0.338044E-01  0.387548E-01  0.439610E-01
  0.490722E-01  0.536732E-01  0.573934E-01  0.600398E-01  0.616615E-01  0.624783E-01
  0.627192E-01  0.657915E-01  0.653482E-01  0.642536E-01  0.621872E-01  0.589058E-01
  0.544285E-01  0.490722E-01  0.433193E-01  0.376421E-01  0.323960E-01  0.277898E-01
  0.239012E-01  0.207170E-01  0.181833E-01  0.162395E-01  0.148320E-01  0.139177E-01
  0.134674E-01  0.134674E-01  0.139177E-01  0.148320E-01  0.162395E-01  0.181833E-01
  0.207170E-01  0.239012E-01  0.277898E-01  0.323960E-01  0.376421E-01  0.433193E-01
  0.490722E-01  0.544285E-01  0.589058E-01  0.621872E-01  0.642536E-01  0.653482E-01
  0.657915E-01  0.657915E-01  0.677088E-01  0.670240E-01  0.655482E-01  0.629112E-01
  0.589058E-01  0.536732E-01  0.476698E-01  0.414614E-01  0.355338E-01  0.302106E-01
  0.256512E-01  0.218850E-01  0.188646E-01  0.165171E-01  0.147720E-01  0.135701E-01
  0.128668E-01  0.126353E-01  0.128668E-01  0.135701E-01  0.147720E-01  0.165171E-01
  0.188646E-01  0.218850E-01  0.256512E-01  0.302106E-01  0.355338E-01  0.414614E-01
  0.476698E-01  0.536732E-01  0.589058E-01  0.629112E-01  0.655482E-01  0.670240E-01
  0.677088E-01  0.679013E-01  0.677088E-01  0.686281E-01  0.675742E-01  0.655482E-01
  0.621872E-01  0.573934E-01  0.514730E-01  0.450023E-01  0.385758E-01  0.326412E-01
  0.274583E-01  0.231227E-01  0.196148E-01  0.168595E-01  0.147720E-01  0.132774E-01
  0.123157E-01  0.118451E-01  0.118451E-01  0.123157E-01  0.132774E-01  0.147720E-01
  0.168595E-01  0.196148E-01  0.231227E-01  0.274583E-01  0.326412E-01  0.385758E-01
  0.450023E-01  0.514730E-01  0.573934E-01  0.621872E-01  0.655482E-01  0.675742E-01
  0.686281E-01  0.690634E-01  0.690634E-01  0.686281E-01  0.686281E-01  0.670240E-01
  0.642536E-01  0.600398E-01  0.544693E-01  0.480180E-01  0.413227E-01  0.349384E-01
  0.292309E-01  0.243769E-01  0.204050E-01  0.172542E-01  0.148320E-01  0.130498E-01
  0.118332E-01  0.111263E-01  0.108944E-01  0.111263E-01  0.118332E-01  0.130498E-01
  0.148320E-01  0.172542E-01  0.204050E-01  0.243769E-01  0.292309E-01  0.349384E-01
  0.413227E-01  0.480180E-01  0.544693E-01  0.600398E-01  0.642536E-01  0.670240E-01
  0.686281E-01  0.694366E-01  0.696836E-01  0.694366E-01  0.686281E-01  0.677088E-01
  0.653482E-01  0.616615E-01  0.565560E-01  0.503393E-01  0.436027E-01  0.369588E-01
  0.308645E-01  0.255803E-01  0.211953E-01  0.176791E-01  0.149427E-01  0.128880E-01
  0.114289E-01  0.104962E-01  0.100420E-01  0.100420E-01  0.104962E-01  0.114289E-01
  0.128880E-01  0.149427E-01  0.176791E-01  0.211953E-01  0.255803E-01  0.308645E-01
  0.369588E-01  0.436027E-01  0.503393E-01  0.565560E-01  0.616615E-01  0.653482E-01
  0.677088E-01  0.690634E-01  0.696836E-01  0.696836E-01  0.690634E-01  0.677088E-01
  0.657915E-01  0.624783E-01  0.578006E-01  0.519159E-01  0.453100E-01  0.385879E-01
  0.322616E-01  0.266616E-01  0.219393E-01  0.181058E-01  0.150880E-01  0.127854E-01
  0.111031E-01  0.996203E-02  0.930200E-02  0.908606E-02  0.930200E-02  0.996203E-02
  0.111031E-01  0.127854E-01  0.150880E-01  0.181058E-01  0.219393E-01  0.266616E-01
  0.322616E-01  0.385879E-01  0.453100E-01  0.519159E-01  0.578006E-01  0.624783E-01
  0.657915E-01  0.679013E-01  0.690634E-01  0.694366E-01  0.690634E-01  0.679013E-01
  0.657915E-01  0.627192E-01  0.583611E-01  0.528013E-01  0.464178E-01  0.397597E-01
  0.333482E-01  0.275575E-01  0.225910E-01  0.185039E-01  0.152485E-01  0.127303E-01
  0.108505E-01  0.952289E-02  0.867820E-02  0.826793E-02  0.826793E-02  0.867820E-02
  0.952289E-02  0.108505E-01  0.127303E-01  0.152485E-01  0.185039E-01  0.225910E-01
  0.275575E-01  0.333482E-01  0.397597E-01  0.464178E-01  0.528013E-01  0.583611E-01
  0.627192E-01  0.657915E-01  0.677088E-01  0.686281E-01  0.686281E-01  0.677088E-01
  0.657915E-01  0.627192E-01  0.619451E-01  0.552817E-01  0.480893E-01  0.408752E-01
  0.340757E-01  0.279945E-01  0.227923E-01  0.185039E-01  0.150732E-01  0.123997E-01
  0.103772E-01  0.891116E-02  0.792256E-02  0.735256E-02  0.716628E-02  0.735256E-02
  0.792256E-02  0.891116E-02  0.103772E-01  0.123997E-01  0.150732E-01  0.185039E-01
  0.227923E-01  0.279945E-01  0.340757E-01  0.408752E-01  0.480893E-01  0.552817E-01
  0.619451E-01  0.676030E-01  0.718885E-01  0.745563E-01  0.754621E-01  0.745563E-01
  0.718885E-01  0.676030E-01  0.619451E-01  0.552817E-01  0.485062E-01  0.415498E-01
  0.348551E-01  0.287539E-01  0.234453E-01  0.190037E-01  0.154043E-01  0.125645E-01
  0.103835E-01  0.876633E-02  0.763053E-02  0.691011E-02  0.656057E-02  0.656057E-02
  0.691011E-02  0.763053E-02  0.876633E-02  0.103835E-01  0.125645E-01  0.154043E-01
  0.190037E-01  0.234453E-01  0.287539E-01  0.348551E-01  0.415498E-01  0.485062E-01
  0.552817E-01  0.613872E-01  0.663732E-01  0.698908E-01  0.717080E-01  0.717080E-01
  0.698908E-01  0.663732E-01  0.613872E-01  0.552817E-01  0.480893E-01  0.415498E-01
  0.351194E-01  0.291449E-01  0.238546E-01  0.193578E-01  0.156623E-01  0.127084E-01
  0.104074E-01  0.866870E-02  0.741010E-02  0.656217E-02  0.607332E-02  0.591353E-02
  0.607332E-02  0.656217E-02  0.741010E-02  0.866870E-02  0.104074E-01  0.127084E-01
  0.156623E-01  0.193578E-01  0.238546E-01  0.291449E-01  0.351194E-01  0.415498E-01
  0.480893E-01  0.543009E-01  0.597184E-01  0.639181E-01  0.665736E-01  0.674816E-01
  0.665736E-01  0.639181E-01  0.597184E-01  0.543009E-01  0.480893E-01  0.408752E-01
  0.348551E-01  0.291449E-01  0.239940E-01  0.195412E-01  0.158257E-01  0.128142E-01
  0.104352E-01  0.860713E-02  0.725166E-02  0.629943E-02  0.569489E-02  0.540127E-02
  0.540127E-02  0.569489E-02  0.629943E-02  0.725166E-02  0.860713E-02  0.104352E-01
  0.128142E-01  0.158257E-01  0.195412E-01  0.239940E-01  0.291449E-01  0.348551E-01
  0.408752E-01  0.468528E-01  0.523649E-01  0.569731E-01  0.602877E-01  0.620209E-01
  0.620209E-01  0.602877E-01  0.569731E-01  0.523649E-01  0.468528E-01  0.408752E-01
  0.340757E-01  0.287539E-01  0.238546E-01  0.195412E-01  0.158816E-01  0.128701E-01
  0.104562E-01  0.857185E-02  0.714603E-02  0.611240E-02  0.541457E-02  0.501147E-02
  0.487957E-02  0.501147E-02  0.541457E-02  0.611240E-02  0.714603E-02  0.857185E-02
  0.104562E-01  0.128701E-01  0.158816E-01  0.195412E-01  0.238546E-01  0.287539E-01
  0.340757E-01  0.395568E-01  0.448480E-01  0.495484E-01  0.532575E-01  0.556352E-01
  0.564543E-01  0.556352E-01  0.532575E-01  0.495484E-01  0.448480E-01  0.395568E-01
  0.340757E-01  0.279945E-01  0.234453E-01  0.193578E-01  0.158257E-01  0.128701E-01
  0.104639E-01  0.855595E-02  0.708578E-02  0.599274E-02  0.522231E-02  0.473173E-02
  0.449309E-02  0.449309E-02  0.473173E-02  0.522231E-02  0.599274E-02  0.708578E-02
  0.855595E-02  0.104639E-01  0.128701E-01  0.158257E-01  0.193578E-01  0.234453E-01
  0.279945E-01  0.328235E-01  0.376638E-01  0.421785E-01  0.459997E-01  0.487790E-01
  0.502435E-01  0.502435E-01  0.487790E-01  0.459997E-01  0.421785E-01  0.376638E-01
  0.328235E-01  0.279945E-01  0.227923E-01  0.190037E-01  0.156623E-01  0.128142E-01
  0.104562E-01  0.855595E-02  0.706623E-02  0.593446E-02  0.511019E-02  0.455139E-02
  0.422792E-02  0.412204E-02  0.422792E-02  0.455139E-02  0.511019E-02  0.593446E-02
  0.706623E-02  0.855595E-02  0.104562E-01  0.128142E-01  0.156623E-01  0.190037E-01
  0.227923E-01  0.269134E-01  0.311738E-01  0.353088E-01  0.390057E-01  0.419419E-01
  0.438342E-01  0.444881E-01  0.438342E-01  0.419419E-01  0.390057E-01  0.353088E-01
  0.311738E-01  0.269134E-01  0.227923E-01  0.185039E-01  0.154043E-01  0.127084E-01
  0.104352E-01  0.857185E-02  0.708578E-02  0.593446E-02  0.507335E-02  0.446305E-02
  0.407324E-02  0.388353E-02  0.388353E-02  0.407324E-02  0.446305E-02  0.507335E-02
  0.593446E-02  0.708578E-02  0.857185E-02  0.104352E-01  0.127084E-01  0.154043E-01
  0.185039E-01  0.219393E-01  0.255803E-01  0.292309E-01  0.326412E-01  0.355338E-01
  0.376421E-01  0.387548E-01  0.387548E-01  0.376421E-01  0.355338E-01  0.326412E-01
  0.292309E-01  0.255803E-01  0.219393E-01  0.185039E-01  0.150732E-01  0.125645E-01
  0.104074E-01  0.860713E-02  0.714603E-02  0.599274E-02  0.511019E-02  0.446305E-02
  0.402241E-02  0.376700E-02  0.368342E-02  0.376700E-02  0.402241E-02  0.446305E-02
  0.511019E-02  0.599274E-02  0.714603E-02  0.860713E-02  0.104074E-01  0.125645E-01
  0.150732E-01  0.178943E-01  0.209429E-01  0.240805E-01  0.271173E-01  0.298281E-01
  0.319794E-01  0.333654E-01  0.338443E-01  0.333654E-01  0.319794E-01  0.298281E-01
  0.271173E-01  0.240805E-01  0.209429E-01  0.178943E-01  0.150732E-01  0.123997E-01
  0.103835E-01  0.866870E-02  0.725166E-02  0.611240E-02  0.522231E-02  0.455139E-02
  0.407324E-02  0.376700E-02  0.361785E-02  0.361785E-02  0.376700E-02  0.407324E-02
  0.455139E-02  0.522231E-02  0.611240E-02  0.725166E-02  0.866870E-02  0.103835E-01
  0.123997E-01  0.146957E-01  0.172165E-01  0.198659E-01  0.225044E-01  0.249570E-01
  0.270299E-01  0.285372E-01  0.293317E-01  0.293317E-01  0.285372E-01  0.270299E-01
  0.249570E-01  0.225044E-01  0.198659E-01  0.172165E-01  0.146957E-01  0.123997E-01
  0.103772E-01  0.876633E-02  0.741010E-02  0.629943E-02  0.541457E-02  0.473173E-02
  0.422792E-02  0.388353E-02  0.368342E-02  0.361785E-02  0.368342E-02  0.388353E-02
  0.422792E-02  0.473173E-02  0.541457E-02  0.629943E-02  0.741010E-02  0.876633E-02
  0.103772E-01  0.122337E-01  0.143012E-01  0.165133E-01  0.187694E-01  0.209362E-01
  0.228587E-01  0.243775E-01  0.253532E-01  0.256898E-01  0.253532E-01  0.243775E-01
  0.228587E-01  0.209362E-01  0.187694E-01  0.165133E-01  0.143012E-01  0.122337E-01
  0.103772E-01  0.891116E-02  0.763053E-02  0.656217E-02  0.569489E-02  0.501147E-02
  0.449309E-02  0.412204E-02  0.388353E-02  0.376700E-02  0.376700E-02  0.388353E-02
  0.412204E-02  0.449309E-02  0.501147E-02  0.569489E-02  0.656217E-02  0.763053E-02
  0.891116E-02  0.104031E-01  0.120866E-01  0.139177E-01  0.158243E-01  0.177071E-01
  0.194440E-01  0.209031E-01  0.219592E-01  0.225144E-01  0.225144E-01  0.219592E-01
  0.209031E-01  0.194440E-01  0.177071E-01  0.158243E-01  0.139177E-01  0.120866E-01
  0.104031E-01  0.891116E-02  0.792256E-02  0.691011E-02  0.607332E-02  0.540127E-02
  0.487957E-02  0.449309E-02  0.422792E-02  0.407324E-02  0.402241E-02  0.407324E-02
  0.422792E-02  0.449309E-02  0.487957E-02  0.540127E-02  0.607332E-02  0.691011E-02
  0.792256E-02  0.911392E-02  0.104745E-01  0.119764E-01  0.135701E-01  0.151827E-01
  0.167202E-01  0.180754E-01  0.191404E-01  0.198220E-01  0.200566E-01  0.198220E-01
  0.191404E-01  0.180754E-01  0.167202E-01  0.151827E-01  0.135701E-01  0.119764E-01
  0.104745E-01  0.911392E-02  0.792256E-02  0.735256E-02  0.656057E-02  0.591353E-02
  0.540127E-02  0.501147E-02  0.473173E-02  0.455139E-02  0.446305E-02  0.446305E-02
  0.455139E-02  0.473173E-02  0.501147E-02  0.540127E-02  0.591353E-02  0.656057E-02
  0.735256E-02  0.829470E-02  0.938336E-02  0.106019E-01  0.119173E-01  0.132774E-01
  0.146117E-01  0.158354E-01  0.168580E-01  0.175953E-01  0.179819E-01  0.179819E-01
  0.175953E-01  0.168580E-01  0.158354E-01  0.146117E-01  0.132774E-01  0.119173E-01
  0.106019E-01  0.938336E-02  0.829470E-02  0.735256E-02  0.716628E-02  0.656057E-02
  0.607332E-02  0.569489E-02  0.541457E-02  0.522231E-02  0.511019E-02  0.507335E-02
  0.511019E-02  0.522231E-02  0.541457E-02  0.569489E-02  0.607332E-02  0.656057E-02
  0.716628E-02  0.789687E-02  0.875270E-02  0.972478E-02  0.107917E-01  0.119173E-01
  0.130498E-01  0.141237E-01  0.150659E-01  0.158036E-01  0.162747E-01  0.164367E-01
  0.162747E-01  0.158036E-01  0.150659E-01  0.141237E-01  0.130498E-01  0.119173E-01
  0.107917E-01  0.972478E-02  0.875270E-02  0.789687E-02  0.716628E-02  0.735256E-02
  0.691011E-02  0.656217E-02  0.629943E-02  0.611240E-02  0.599274E-02  0.593446E-02
  0.593446E-02  0.599274E-02  0.611240E-02  0.629943E-02  0.656217E-02  0.691011E-02
  0.735256E-02  0.789687E-02  0.854636E-02  0.929768E-02  0.101381E-01  0.110434E-01
  0.119764E-01  0.128880E-01  0.137207E-01  0.144142E-01  0.149131E-01  0.151745E-01
  0.151745E-01  0.149131E-01  0.144142E-01  0.137207E-01  0.128880E-01  0.119764E-01
  0.110434E-01  0.101381E-01  0.929768E-02  0.854636E-02  0.789687E-02  0.735256E-02
  0.792256E-02  0.763053E-02  0.741010E-02  0.725166E-02  0.714603E-02  0.708578E-02
  0.706623E-02  0.708578E-02  0.714603E-02  0.725166E-02  0.741010E-02  0.763053E-02
  0.792256E-02  0.829470E-02  0.875270E-02  0.929768E-02  0.992377E-02  0.106160E-01
  0.113489E-01  0.120866E-01  0.127854E-01  0.133973E-01  0.138755E-01  0.141805E-01
  0.142854E-01  0.141805E-01  0.138755E-01  0.133973E-01  0.127854E-01  0.120866E-01
  0.113489E-01  0.106160E-01  0.992377E-02  0.929768E-02  0.875270E-02  0.829470E-02
  0.792256E-02  0.891116E-02  0.876633E-02  0.866870E-02  0.860713E-02  0.857185E-02
  0.855595E-02  0.855595E-02  0.857185E-02  0.860713E-02  0.866870E-02  0.876633E-02
  0.891116E-02  0.911392E-02  0.938336E-02  0.972478E-02  0.101381E-01  0.106160E-01
  0.111423E-01  0.116922E-01  0.122337E-01  0.127303E-01  0.131445E-01  0.134424E-01
  0.135983E-01  0.135983E-01  0.134424E-01  0.131445E-01  0.127303E-01  0.122337E-01
  0.116922E-01  0.111423E-01  0.106160E-01  0.101381E-01  0.972478E-02  0.938336E-02
  0.911392E-02  0.891116E-02  0.103772E-01  0.103835E-01  0.104074E-01  0.104352E-01
  0.104562E-01  0.104639E-01  0.104562E-01  0.104352E-01  0.104074E-01  0.103835E-01
  0.103772E-01  0.104031E-01  0.104745E-01  0.106019E-01  0.107917E-01  0.110434E-01
  0.113489E-01  0.116922E-01  0.120513E-01  0.123997E-01  0.127092E-01  0.129527E-01
  0.131083E-01  0.131618E-01  0.131083E-01  0.129527E-01  0.127092E-01  0.123997E-01
  0.120513E-01  0.116922E-01  0.113489E-01  0.110434E-01  0.107917E-01  0.106019E-01
  0.104745E-01  0.104031E-01  0.103772E-01  0.123997E-01  0.125645E-01  0.127084E-01
  0.128142E-01  0.128701E-01  0.128701E-01  0.128142E-01  0.127084E-01  0.125645E-01
  0.123997E-01  0.122337E-01  0.120866E-01  0.119764E-01  0.119173E-01  0.119173E-01
  0.119764E-01  0.120866E-01  0.122337E-01  0.123997E-01  0.125645E-01  0.127084E-01
  0.128142E-01  0.128701E-01  0.128701E-01  0.128142E-01  0.127084E-01  0.125645E-01
  0.123997E-01  0.122337E-01  0.120866E-01  0.119764E-01  0.119173E-01  0.119173E-01
  0.119764E-01  0.120866E-01  0.122337E-01  0.123997E-01  0.150732E-01  0.154043E-01
  0.156623E-01  0.158257E-01  0.158816E-01  0.158257E-01  0.156623E-01  0.154043E-01
  0.150732E-01  0.146957E-01  0.143012E-01  0.139177E-01  0.135701E-01  0.132774E-01
  0.130498E-01  0.128880E-01  0.127854E-01  0.127303E-01  0.127092E-01  0.127084E-01
  0.127161E-01  0.127239E-01  0.127270E-01  0.127239E-01  0.127161E-01  0.127084E-01
  0.127092E-01  0.127303E-01  0.127854E-01  0.128880E-01  0.130498E-01  0.132774E-01
  0.135701E-01  0.139177E-01  0.143012E-01  0.146957E-01  0.150732E-01  0.185039E-01
  0.190037E-01  0.193578E-01  0.195412E-01  0.195412E-01  0.193578E-01  0.190037E-01
  0.185039E-01  0.178943E-01  0.172165E-01  0.165133E-01  0.158243E-01  0.151827E-01
  0.146117E-01  0.141237E-01  0.137207E-01  0.133973E-01  0.131445E-01  0.129527E-01
  0.128142E-01  0.127239E-01  0.126793E-01  0.126793E-01  0.127239E-01  0.128142E-01
  0.129527E-01  0.131445E-01  0.133973E-01  0.137207E-01  0.141237E-01  0.146117E-01
  0.151827E-01  0.158243E-01  0.165133E-01  0.172165E-01  0.178943E-01  0.185039E-01
  0.227923E-01  0.234453E-01  0.238546E-01  0.239940E-01  0.238546E-01  0.234453E-01
  0.227923E-01  0.219393E-01  0.209429E-01  0.198659E-01  0.187694E-01  0.177071E-01
  0.167202E-01  0.158354E-01  0.150659E-01  0.144142E-01  0.138755E-01  0.134424E-01
  0.131083E-01  0.128701E-01  0.127270E-01  0.126793E-01  0.127270E-01  0.128701E-01
  0.131083E-01  0.134424E-01  0.138755E-01  0.144142E-01  0.150659E-01  0.158354E-01
  0.167202E-01  0.177071E-01  0.187694E-01  0.198659E-01  0.209429E-01  0.219393E-01
  0.227923E-01  0.279945E-01  0.287539E-01  0.291449E-01  0.291449E-01  0.287539E-01
  0.279945E-01  0.269134E-01  0.255803E-01  0.240805E-01  0.225044E-01  0.209362E-01
  0.194440E-01  0.180754E-01  0.168580E-01  0.158036E-01  0.149131E-01  0.141805E-01
  0.135983E-01  0.131618E-01  0.128701E-01  0.127239E-01  0.127239E-01  0.128701E-01
  0.131618E-01  0.135983E-01  0.141805E-01  0.149131E-01  0.158036E-01  0.168580E-01
  0.180754E-01  0.194440E-01  0.209362E-01  0.225044E-01  0.240805E-01  0.255803E-01
  0.269134E-01  0.279945E-01  0.340757E-01  0.348551E-01  0.351194E-01  0.348551E-01
  0.340757E-01  0.328235E-01  0.311738E-01  0.292309E-01  0.271173E-01  0.249570E-01
  0.228587E-01  0.209031E-01  0.191404E-01  0.175953E-01  0.162747E-01  0.151745E-01
  0.142854E-01  0.135983E-01  0.131083E-01  0.128142E-01  0.127161E-01  0.128142E-01
  0.131083E-01  0.135983E-01  0.142854E-01  0.151745E-01  0.162747E-01  0.175953E-01
  0.191404E-01  0.209031E-01  0.228587E-01  0.249570E-01  0.271173E-01  0.292309E-01
  0.311738E-01  0.328235E-01  0.340757E-01  0.408752E-01  0.415498E-01  0.415498E-01
  0.408752E-01  0.395568E-01  0.376638E-01  0.353088E-01  0.326412E-01  0.298281E-01
  0.270299E-01  0.243775E-01  0.219592E-01  0.198220E-01  0.179819E-01  0.164367E-01
  0.151745E-01  0.141805E-01  0.134424E-01  0.129527E-01  0.127084E-01  0.127084E-01
  0.129527E-01  0.134424E-01  0.141805E-01  0.151745E-01  0.164367E-01  0.179819E-01
  0.198220E-01  0.219592E-01  0.243775E-01  0.270299E-01  0.298281E-01  0.326412E-01
  0.353088E-01  0.376638E-01  0.395568E-01  0.408752E-01  0.480893E-01  0.485062E-01
  0.480893E-01  0.468528E-01  0.448480E-01  0.421785E-01  0.390057E-01  0.355338E-01
  0.319794E-01  0.285372E-01  0.253532E-01  0.225144E-01  0.200566E-01  0.179819E-01
  0.162747E-01  0.149131E-01  0.138755E-01  0.131445E-01  0.127092E-01  0.125645E-01
  0.127092E-01  0.131445E-01  0.138755E-01  0.149131E-01  0.162747E-01  0.179819E-01
  0.200566E-01  0.225144E-01  0.253532E-01  0.285372E-01  0.319794E-01  0.355338E-01
  0.390057E-01  0.421785E-01  0.448480E-01  0.468528E-01  0.480893E-01  0.552817E-01
  0.552817E-01  0.543009E-01  0.523649E-01  0.495484E-01  0.459997E-01  0.419419E-01
  0.376421E-01  0.333654E-01  0.293317E-01  0.256898E-01  0.225144E-01  0.198220E-01
  0.175953E-01  0.158036E-01  0.144142E-01  0.133973E-01  0.127303E-01  0.123997E-01
  0.123997E-01  0.127303E-01  0.133973E-01  0.144142E-01  0.158036E-01  0.175953E-01
  0.198220E-01  0.225144E-01  0.256898E-01  0.293317E-01  0.333654E-01  0.376421E-01
  0.419419E-01  0.459997E-01  0.495484E-01  0.523649E-01  0.543009E-01  0.552817E-01
  0.619451E-01  0.613872E-01  0.597184E-01  0.569731E-01  0.532575E-01  0.487790E-01
  0.438342E-01  0.387548E-01  0.338443E-01  0.293317E-01  0.253532E-01  0.219592E-01
  0.191404E-01  0.168580E-01  0.150659E-01  0.137207E-01  0.127854E-01  0.122337E-01
  0.120513E-01  0.122337E-01  0.127854E-01  0.137207E-01  0.150659E-01  0.168580E-01
  0.191404E-01  0.219592E-01  0.253532E-01  0.293317E-01  0.338443E-01  0.387548E-01
  0.438342E-01  0.487790E-01  0.532575E-01  0.569731E-01  0.597184E-01  0.613872E-01
  0.619451E-01  0.676030E-01  0.663732E-01  0.639181E-01  0.602877E-01  0.556352E-01
  0.502435E-01  0.444881E-01  0.387548E-01  0.333654E-01  0.285372E-01  0.243775E-01
  0.209031E-01  0.180754E-01  0.158354E-01  0.141237E-01  0.128880E-01  0.120866E-01
  0.116922E-01  0.116922E-01  0.120866E-01  0.128880E-01  0.141237E-01  0.158354E-01
  0.180754E-01  0.209031E-01  0.243775E-01  0.285372E-01  0.333654E-01  0.387548E-01
  0.444881E-01  0.502435E-01  0.556352E-01  0.602877E-01  0.639181E-01  0.663732E-01
  0.676030E-01  0.676030E-01  0.718885E-01  0.698908E-01  0.665736E-01  0.620209E-01
  0.564543E-01  0.502435E-01  0.438342E-01  0.376421E-01  0.319794E-01  0.270299E-01
  0.228587E-01  0.194440E-01  0.167202E-01  0.146117E-01  0.130498E-01  0.119764E-01
  0.113489E-01  0.111423E-01  0.113489E-01  0.119764E-01  0.130498E-01  0.146117E-01
  0.167202E-01  0.194440E-01  0.228587E-01  0.270299E-01  0.319794E-01  0.376421E-01
  0.438342E-01  0.502435E-01  0.564543E-01  0.620209E-01  0.665736E-01  0.698908E-01
  0.718885E-01  0.725536E-01  0.718885E-01  0.745563E-01  0.717080E-01  0.674816E-01
  0.620209E-01  0.556352E-01  0.487790E-01  0.419419E-01  0.355338E-01  0.298281E-01
  0.249570E-01  0.209362E-01  0.177071E-01  0.151827E-01  0.132774E-01  0.119173E-01
  0.110434E-01  0.106160E-01  0.106160E-01  0.110434E-01  0.119173E-01  0.132774E-01
  0.151827E-01  0.177071E-01  0.209362E-01  0.249570E-01  0.298281E-01  0.355338E-01
  0.419419E-01  0.487790E-01  0.556352E-01  0.620209E-01  0.674816E-01  0.717080E-01
  0.745563E-01  0.759846E-01  0.759846E-01  0.745563E-01  0.754621E-01  0.717080E-01
  0.665736E-01  0.602877E-01  0.532575E-01  0.459997E-01  0.390057E-01  0.326412E-01
  0.271173E-01  0.225044E-01  0.187694E-01  0.158243E-01  0.135701E-01  0.119173E-01
  0.107917E-01  0.101381E-01  0.992377E-02  0.101381E-01  0.107917E-01  0.119173E-01
  0.135701E-01  0.158243E-01  0.187694E-01  0.225044E-01  0.271173E-01  0.326412E-01
  0.390057E-01  0.459997E-01  0.532575E-01  0.602877E-01  0.665736E-01  0.717080E-01
  0.754621E-01  0.777409E-01  0.785051E-01  0.777409E-01  0.754621E-01  0.745563E-01
  0.698908E-01  0.639181E-01  0.569731E-01  0.495484E-01  0.421785E-01  0.353088E-01
  0.292309E-01  0.240805E-01  0.198659E-01  0.165133E-01  0.139177E-01  0.119764E-01
  0.106019E-01  0.972478E-02  0.929768E-02  0.929768E-02  0.972478E-02  0.106019E-01
  0.119764E-01  0.139177E-01  0.165133E-01  0.198659E-01  0.240805E-01  0.292309E-01
  0.353088E-01  0.421785E-01  0.495484E-01  0.569731E-01  0.639181E-01  0.698908E-01
  0.745563E-01  0.777409E-01  0.793570E-01  0.793570E-01  0.777409E-01  0.745563E-01
  0.718885E-01  0.663732E-01  0.597184E-01  0.523649E-01  0.448480E-01  0.376638E-01
  0.311738E-01  0.255803E-01  0.209429E-01  0.172165E-01  0.143012E-01  0.120866E-01
  0.104745E-01  0.938336E-02  0.875270E-02  0.854636E-02  0.875270E-02  0.938336E-02
  0.104745E-01  0.120866E-01  0.143012E-01  0.172165E-01  0.209429E-01  0.255803E-01
  0.311738E-01  0.376638E-01  0.448480E-01  0.523649E-01  0.597184E-01  0.663732E-01
  0.718885E-01  0.759846E-01  0.785051E-01  0.793570E-01  0.785051E-01  0.759846E-01
  0.718885E-01  0.676030E-01  0.613872E-01  0.543009E-01  0.468528E-01  0.395568E-01
  0.328235E-01  0.269134E-01  0.219393E-01  0.178943E-01  0.146957E-01  0.122337E-01
  0.104031E-01  0.911392E-02  0.829470E-02  0.789687E-02  0.789687E-02  0.829470E-02
  0.911392E-02  0.104031E-01  0.122337E-01  0.146957E-01  0.178943E-01  0.219393E-01
  0.269134E-01  0.328235E-01  0.395568E-01  0.468528E-01  0.543009E-01  0.613872E-01
  0.676030E-01  0.725536E-01  0.759846E-01  0.777409E-01  0.777409E-01  0.759846E-01
  0.725536E-01  0.676030E-01  0.619451E-01  0.552817E-01  0.480893E-01  0.408752E-01
  0.340757E-01  0.279945E-01  0.227923E-01  0.185039E-01  0.150732E-01  0.123997E-01
  0.103772E-01  0.891116E-02  0.792256E-02  0.735256E-02  0.716628E-02  0.735256E-02
  0.792256E-02  0.891116E-02  0.103772E-01  0.123997E-01  0.150732E-01  0.185039E-01
  0.227923E-01  0.279945E-01  0.340757E-01  0.408752E-01  0.480893E-01  0.552817E-01
  0.619451E-01  0.676030E-01  0.718885E-01  0.745563E-01  0.754621E-01  0.745563E-01
  0.718885E-01  0.676030E-01  0.619451E-01  0.574800E-01  0.498769E-01  0.423022E-01
  0.351910E-01  0.288360E-01  0.233881E-01  0.188777E-01  0.152485E-01  0.123997E-01
  0.102209E-01  0.861087E-02  0.748257E-02  0.676762E-02  0.642083E-02  0.642083E-02
  0.676762E-02  0.748257E-02  0.861087E-02  0.102209E-01  0.123997E-01  0.152485E-01
  0.188777E-01  0.233881E-01  0.288360E-01  0.351910E-01  0.423022E-01  0.498769E-01
  0.574800E-01  0.645673E-01  0.705538E-01  0.748986E-01  0.771851E-01  0.771851E-01
  0.748986E-01  0.705538E-01  0.645673E-01  0.574800E-01  0.498769E-01  0.427406E-01
  0.358647E-01  0.295832E-01  0.240952E-01  0.194764E-01  0.157070E-01  0.127092E-01
  0.103835E-01  0.863222E-02  0.736764E-02  0.651684E-02  0.602664E-02  0.586645E-02
  0.602664E-02  0.651684E-02  0.736764E-02  0.863222E-02  0.103835E-01  0.127092E-01
  0.157070E-01  0.194764E-01  0.240952E-01  0.295832E-01  0.358647E-01  0.427406E-01
  0.498769E-01  0.568156E-01  0.630182E-01  0.679382E-01  0.711044E-01  0.721976E-01
  0.711044E-01  0.679382E-01  0.630182E-01  0.568156E-01  0.498769E-01  0.423022E-01
  0.358647E-01  0.298390E-01  0.244631E-01  0.198556E-01  0.160351E-01  0.129527E-01
  0.105268E-01  0.866870E-02  0.729440E-02  0.633045E-02  0.571901E-02  0.542220E-02
  0.542220E-02  0.571901E-02  0.633045E-02  0.729440E-02  0.866870E-02  0.105268E-01
  0.129527E-01  0.160351E-01  0.198556E-01  0.244631E-01  0.298390E-01  0.358647E-01
  0.423022E-01  0.487920E-01  0.548749E-01  0.600428E-01  0.638116E-01  0.658007E-01
  0.658007E-01  0.638116E-01  0.600428E-01  0.548749E-01  0.487920E-01  0.423022E-01
  0.351910E-01  0.295832E-01  0.244631E-01  0.199855E-01  0.162062E-01  0.131083E-01
  0.106332E-01  0.870635E-02  0.725166E-02  0.619872E-02  0.548855E-02  0.507863E-02
  0.494456E-02  0.507863E-02  0.548855E-02  0.619872E-02  0.725166E-02  0.870635E-02
  0.106332E-01  0.131083E-01  0.162062E-01  0.199855E-01  0.244631E-01  0.295832E-01
  0.351910E-01  0.410217E-01  0.467080E-01  0.518117E-01  0.558770E-01  0.585020E-01
  0.594099E-01  0.585020E-01  0.558770E-01  0.518117E-01  0.467080E-01  0.410217E-01
  0.351910E-01  0.288360E-01  0.240952E-01  0.198556E-01  0.162062E-01  0.131618E-01
  0.106897E-01  0.873380E-02  0.722943E-02  0.611240E-02  0.532575E-02  0.482520E-02
  0.458186E-02  0.458186E-02  0.482520E-02  0.532575E-02  0.611240E-02  0.722943E-02
  0.873380E-02  0.106897E-01  0.131618E-01  0.162062E-01  0.198556E-01  0.240952E-01
  0.288360E-01  0.338965E-01  0.389997E-01  0.437894E-01  0.478670E-01  0.508473E-01
  0.524229E-01  0.524229E-01  0.508473E-01  0.478670E-01  0.437894E-01  0.389997E-01
  0.338965E-01  0.288360E-01  0.233881E-01  0.194764E-01  0.160351E-01  0.131083E-01
  0.106897E-01  0.874378E-02  0.722027E-02  0.606393E-02  0.522231E-02  0.465206E-02
  0.432210E-02  0.421413E-02  0.432210E-02  0.465206E-02  0.522231E-02  0.606393E-02
  0.722027E-02  0.874378E-02  0.106897E-01  0.131083E-01  0.160351E-01  0.194764E-01
  0.233881E-01  0.276556E-01  0.320820E-01  0.363931E-01  0.402604E-01  0.433411E-01
  0.453310E-01  0.460194E-01  0.453310E-01  0.433411E-01  0.402604E-01  0.363931E-01
  0.320820E-01  0.276556E-01  0.233881E-01  0.188777E-01  0.157070E-01  0.129527E-01
  0.106332E-01  0.873380E-02  0.722027E-02  0.604834E-02  0.517217E-02  0.455139E-02
  0.415499E-02  0.396209E-02  0.396209E-02  0.415499E-02  0.455139E-02  0.517217E-02
  0.604834E-02  0.722027E-02  0.873380E-02  0.106332E-01  0.129527E-01  0.157070E-01
  0.188777E-01  0.223969E-01  0.261325E-01  0.298843E-01  0.333951E-01  0.363776E-01
  0.385542E-01  0.397039E-01  0.397039E-01  0.385542E-01  0.363776E-01  0.333951E-01
  0.298843E-01  0.261325E-01  0.223969E-01  0.188777E-01  0.152485E-01  0.127092E-01
  0.105268E-01  0.870635E-02  0.722943E-02  0.606393E-02  0.517217E-02  0.451838E-02
  0.407324E-02  0.381522E-02  0.373079E-02  0.381522E-02  0.407324E-02  0.451838E-02
  0.517217E-02  0.606393E-02  0.722943E-02  0.870635E-02  0.105268E-01  0.127092E-01
  0.152485E-01  0.181058E-01  0.211953E-01  0.243769E-01  0.274583E-01  0.302106E-01
  0.323960E-01  0.338044E-01  0.342911E-01  0.338044E-01  0.323960E-01  0.302106E-01
  0.274583E-01  0.243769E-01  0.211953E-01  0.181058E-01  0.152485E-01  0.123997E-01
  0.103835E-01  0.866870E-02  0.725166E-02  0.611240E-02  0.522231E-02  0.455139E-02
  0.407324E-02  0.376700E-02  0.361785E-02  0.361785E-02  0.376700E-02  0.407324E-02
  0.455139E-02  0.522231E-02  0.611240E-02  0.725166E-02  0.866870E-02  0.103835E-01
  0.123997E-01  0.146957E-01  0.172165E-01  0.198659E-01  0.225044E-01  0.249570E-01
  0.270299E-01  0.285372E-01  0.293317E-01  0.293317E-01  0.285372E-01  0.270299E-01
  0.249570E-01  0.225044E-01  0.198659E-01  0.172165E-01  0.146957E-01  0.123997E-01
  0.102209E-01  0.863222E-02  0.729440E-02  0.619872E-02  0.532575E-02  0.465206E-02
  0.415499E-02  0.381522E-02  0.361785E-02  0.355319E-02  0.361785E-02  0.381522E-02
  0.415499E-02  0.465206E-02  0.532575E-02  0.619872E-02  0.729440E-02  0.863222E-02
  0.102209E-01  0.120513E-01  0.140888E-01  0.162680E-01  0.184892E-01  0.206216E-01
  0.225129E-01  0.240067E-01  0.249662E-01  0.252973E-01  0.249662E-01  0.240067E-01
  0.225129E-01  0.206216E-01  0.184892E-01  0.162680E-01  0.140888E-01  0.120513E-01
  0.102209E-01  0.861087E-02  0.736764E-02  0.633045E-02  0.548855E-02  0.482520E-02
  0.432210E-02  0.396209E-02  0.373079E-02  0.361785E-02  0.361785E-02  0.373079E-02
  0.396209E-02  0.432210E-02  0.482520E-02  0.548855E-02  0.633045E-02  0.736764E-02
  0.861087E-02  0.100589E-01  0.116922E-01  0.134674E-01  0.153142E-01  0.171361E-01
  0.188156E-01  0.202258E-01  0.212463E-01  0.217826E-01  0.217826E-01  0.212463E-01
  0.202258E-01  0.188156E-01  0.171361E-01  0.153142E-01  0.134674E-01  0.116922E-01
  0.100589E-01  0.861087E-02  0.748257E-02  0.651684E-02  0.571901E-02  0.507863E-02
  0.458186E-02  0.421413E-02  0.396209E-02  0.381522E-02  0.376700E-02  0.381522E-02
  0.396209E-02  0.421413E-02  0.458186E-02  0.507863E-02  0.571901E-02  0.651684E-02
  0.748257E-02  0.861916E-02  0.991698E-02  0.113489E-01  0.128668E-01  0.144009E-01
  0.158619E-01  0.171487E-01  0.181593E-01  0.188058E-01  0.190284E-01  0.188058E-01
  0.181593E-01  0.171487E-01  0.158619E-01  0.144009E-01  0.128668E-01  0.113489E-01
  0.991698E-02  0.861916E-02  0.748257E-02  0.676762E-02  0.602664E-02  0.542220E-02
  0.494456E-02  0.458186E-02  0.432210E-02  0.415499E-02  0.407324E-02  0.407324E-02
  0.415499E-02  0.432210E-02  0.458186E-02  0.494456E-02  0.542220E-02  0.602664E-02
  0.676762E-02  0.765000E-02  0.867011E-02  0.981183E-02  0.110434E-01  0.123157E-01
  0.135625E-01  0.147047E-01  0.156585E-01  0.163457E-01  0.167059E-01  0.167059E-01
  0.163457E-01  0.156585E-01  0.147047E-01  0.135625E-01  0.123157E-01  0.110434E-01
  0.981183E-02  0.867011E-02  0.765000E-02  0.676762E-02  0.642083E-02  0.586645E-02
  0.542220E-02  0.507863E-02  0.482520E-02  0.465206E-02  0.455139E-02  0.451838E-02
  0.455139E-02  0.465206E-02  0.482520E-02  0.507863E-02  0.542220E-02  0.586645E-02
  0.642083E-02  0.709155E-02  0.787877E-02  0.877367E-02  0.975590E-02  0.107917E-01
  0.118332E-01  0.128204E-01  0.136859E-01  0.143630E-01  0.147951E-01  0.149437E-01
  0.147951E-01  0.143630E-01  0.136859E-01  0.128204E-01  0.118332E-01  0.107917E-01
  0.975590E-02  0.877367E-02  0.787877E-02  0.709155E-02  0.642083E-02  0.642083E-02
  0.602664E-02  0.571901E-02  0.548855E-02  0.532575E-02  0.522231E-02  0.517217E-02
  0.517217E-02  0.522231E-02  0.532575E-02  0.548855E-02  0.571901E-02  0.602664E-02
  0.642083E-02  0.690906E-02  0.749460E-02  0.817406E-02  0.893533E-02  0.975590E-02
  0.106019E-01  0.114289E-01  0.121843E-01  0.128134E-01  0.132659E-01  0.135029E-01
  0.135029E-01  0.132659E-01  0.128134E-01  0.121843E-01  0.114289E-01  0.106019E-01
  0.975590E-02  0.893533E-02  0.817406E-02  0.749460E-02  0.690906E-02  0.642083E-02
  0.676762E-02  0.651684E-02  0.633045E-02  0.619872E-02  0.611240E-02  0.606393E-02
  0.604834E-02  0.606393E-02  0.611240E-02  0.619872E-02  0.633045E-02  0.651684E-02
  0.676762E-02  0.709155E-02  0.749460E-02  0.797790E-02  0.853592E-02  0.915490E-02
  0.981183E-02  0.104745E-01  0.111031E-01  0.116543E-01  0.120855E-01  0.123607E-01
  0.124553E-01  0.123607E-01  0.120855E-01  0.116543E-01  0.111031E-01  0.104745E-01
  0.981183E-02  0.915490E-02  0.853592E-02  0.797790E-02  0.749460E-02  0.709155E-02
  0.676762E-02  0.748257E-02  0.736764E-02  0.729440E-02  0.725166E-02  0.722943E-02
  0.722027E-02  0.722027E-02  0.722943E-02  0.725166E-02  0.729440E-02  0.736764E-02
  0.748257E-02  0.765000E-02  0.787877E-02  0.817406E-02  0.853592E-02  0.895781E-02
  0.942554E-02  0.991698E-02  0.104031E-01  0.108505E-01  0.112247E-01  0.114946E-01
  0.116362E-01  0.116362E-01  0.114946E-01  0.112247E-01  0.108505E-01  0.104031E-01
  0.991698E-02  0.942554E-02  0.895781E-02  0.853592E-02  0.817406E-02  0.787877E-02
  0.765000E-02  0.748257E-02  0.861087E-02  0.863222E-02  0.866870E-02  0.870635E-02
  0.873380E-02  0.874378E-02  0.873380E-02  0.870635E-02  0.866870E-02  0.863222E-02
  0.861087E-02  0.861916E-02  0.867011E-02  0.877367E-02  0.893533E-02  0.915490E-02
  0.942554E-02  0.973353E-02  0.100589E-01  0.103772E-01  0.106619E-01  0.108871E-01
  0.110318E-01  0.110816E-01  0.110318E-01  0.108871E-01  0.106619E-01  0.103772E-01
  0.100589E-01  0.973353E-02  0.942554E-02  0.915490E-02  0.893533E-02  0.877367E-02
  0.867011E-02  0.861916E-02  0.861087E-02  0.102209E-01  0.103835E-01  0.105268E-01
  0.106332E-01  0.106897E-01  0.106897E-01  0.106332E-01  0.105268E-01  0.103835E-01
  0.102209E-01  0.100589E-01  0.991698E-02  0.981183E-02  0.975590E-02  0.975590E-02
  0.981183E-02  0.991698E-02  0.100589E-01  0.102209E-01  0.103835E-01  0.105268E-01
  0.106332E-01  0.106897E-01  0.106897E-01  0.106332E-01  0.105268E-01  0.103835E-01
  0.102209E-01  0.100589E-01  0.991698E-02  0.981183E-02  0.975590E-02  0.975590E-02
  0.981183E-02  0.991698E-02  0.100589E-01  0.102209E-01  0.123997E-01  0.127092E-01
  0.129527E-01  0.131083E-01  0.131618E-01  0.131083E-01  0.129527E-01  0.127092E-01
  0.123997E-01  0.120513E-01  0.116922E-01  0.113489E-01  0.110434E-01  0.107917E-01
  0.106019E-01  0.104745E-01  0.104031E-01  0.103772E-01  0.103835E-01  0.104074E-01
  0.104352E-01  0.104562E-01  0.104639E-01  0.104562E-01  0.104352E-01  0.104074E-01
  0.103835E-01  0.103772E-01  0.104031E-01  0.104745E-01  0.106019E-01  0.107917E-01
  0.110434E-01  0.113489E-01  0.116922E-01  0.120513E-01  0.123997E-01  0.152485E-01
  0.157070E-01  0.160351E-01  0.162062E-01  0.162062E-01  0.160351E-01  0.157070E-01
  0.152485E-01  0.146957E-01  0.140888E-01  0.134674E-01  0.128668E-01  0.123157E-01
  0.118332E-01  0.114289E-01  0.111031E-01  0.108505E-01  0.106619E-01  0.105268E-01
  0.104352E-01  0.103787E-01  0.103518E-01  0.103518E-01  0.103787E-01  0.104352E-01
  0.105268E-01  0.106619E-01  0.108505E-01  0.111031E-01  0.114289E-01  0.118332E-01
  0.123157E-01  0.128668E-01  0.134674E-01  0.140888E-01  0.146957E-01  0.152485E-01
  0.188777E-01  0.194764E-01  0.198556E-01  0.199855E-01  0.198556E-01  0.194764E-01
  0.188777E-01  0.181058E-01  0.172165E-01  0.162680E-01  0.153142E-01  0.144009E-01
  0.135625E-01  0.128204E-01  0.121843E-01  0.116543E-01  0.112247E-01  0.108871E-01
  0.106332E-01  0.104562E-01  0.103518E-01  0.103172E-01  0.103518E-01  0.104562E-01
  0.106332E-01  0.108871E-01  0.112247E-01  0.116543E-01  0.121843E-01  0.128204E-01
  0.135625E-01  0.144009E-01  0.153142E-01  0.162680E-01  0.172165E-01  0.181058E-01
  0.188777E-01  0.233881E-01  0.240952E-01  0.244631E-01  0.244631E-01  0.240952E-01
  0.233881E-01  0.223969E-01  0.211953E-01  0.198659E-01  0.184892E-01  0.171361E-01
  0.158619E-01  0.147047E-01  0.136859E-01  0.128134E-01  0.120855E-01  0.114946E-01
  0.110318E-01  0.106897E-01  0.104639E-01  0.103518E-01  0.103518E-01  0.104639E-01
  0.106897E-01  0.110318E-01  0.114946E-01  0.120855E-01  0.128134E-01  0.136859E-01
  0.147047E-01  0.158619E-01  0.171361E-01  0.184892E-01  0.198659E-01  0.211953E-01
  0.223969E-01  0.233881E-01  0.288360E-01  0.295832E-01  0.298390E-01  0.295832E-01
  0.288360E-01  0.276556E-01  0.261325E-01  0.243769E-01  0.225044E-01  0.206216E-01
  0.188156E-01  0.171487E-01  0.156585E-01  0.143630E-01  0.132659E-01  0.123607E-01
  0.116362E-01  0.110816E-01  0.106897E-01  0.104562E-01  0.103787E-01  0.104562E-01
  0.106897E-01  0.110816E-01  0.116362E-01  0.123607E-01  0.132659E-01  0.143630E-01
  0.156585E-01  0.171487E-01  0.188156E-01  0.206216E-01  0.225044E-01  0.243769E-01
  0.261325E-01  0.276556E-01  0.288360E-01  0.351910E-01  0.358647E-01  0.358647E-01
  0.351910E-01  0.338965E-01  0.320820E-01  0.298843E-01  0.274583E-01  0.249570E-01
  0.225129E-01  0.202258E-01  0.181593E-01  0.163457E-01  0.147951E-01  0.135029E-01
  0.124553E-01  0.116362E-01  0.110318E-01  0.106332E-01  0.104352E-01  0.104352E-01
  0.106332E-01  0.110318E-01  0.116362E-01  0.124553E-01  0.135029E-01  0.147951E-01
  0.163457E-01  0.181593E-01  0.202258E-01  0.225129E-01  0.249570E-01  0.274583E-01
  0.298843E-01  0.320820E-01  0.338965E-01  0.351910E-01  0.423022E-01  0.427406E-01
  0.423022E-01  0.410217E-01  0.389997E-01  0.363931E-01  0.333951E-01  0.302106E-01
  0.270299E-01  0.240067E-01  0.212463E-01  0.188058E-01  0.167059E-01  0.149437E-01
  0.135029E-01  0.123607E-01  0.114946E-01  0.108871E-01  0.105268E-01  0.104074E-01
  0.105268E-01  0.108871E-01  0.114946E-01  0.123607E-01  0.135029E-01  0.149437E-01
  0.167059E-01  0.188058E-01  0.212463E-01  0.240067E-01  0.270299E-01  0.302106E-01
  0.333951E-01  0.363931E-01  0.389997E-01  0.410217E-01  0.423022E-01  0.498769E-01
  0.498769E-01  0.487920E-01  0.467080E-01  0.437894E-01  0.402604E-01  0.363776E-01
  0.323960E-01  0.285372E-01  0.249662E-01  0.217826E-01  0.190284E-01  0.167059E-01
  0.147951E-01  0.132659E-01  0.120855E-01  0.112247E-01  0.106619E-01  0.103835E-01
  0.103835E-01  0.106619E-01  0.112247E-01  0.120855E-01  0.132659E-01  0.147951E-01
  0.167059E-01  0.190284E-01  0.217826E-01  0.249662E-01  0.285372E-01  0.323960E-01
  0.363776E-01  0.402604E-01  0.437894E-01  0.467080E-01  0.487920E-01  0.498769E-01
  0.574800E-01  0.568156E-01  0.548749E-01  0.518117E-01  0.478670E-01  0.433411E-01
  0.385542E-01  0.338044E-01  0.293317E-01  0.252973E-01  0.217826E-01  0.188058E-01
  0.163457E-01  0.143630E-01  0.128134E-01  0.116543E-01  0.108505E-01  0.103772E-01
  0.102209E-01  0.103772E-01  0.108505E-01  0.116543E-01  0.128134E-01  0.143630E-01
  0.163457E-01  0.188058E-01  0.217826E-01  0.252973E-01  0.293317E-01  0.338044E-01
  0.385542E-01  0.433411E-01  0.478670E-01  0.518117E-01  0.548749E-01  0.568156E-01
  0.574800E-01  0.645673E-01  0.630182E-01  0.600428E-01  0.558770E-01  0.508473E-01
  0.453310E-01  0.397039E-01  0.342911E-01  0.293317E-01  0.249662E-01  0.212463E-01
  0.181593E-01  0.156585E-01  0.136859E-01  0.121843E-01  0.111031E-01  0.104031E-01
  0.100589E-01  0.100589E-01  0.104031E-01  0.111031E-01  0.121843E-01  0.136859E-01
  0.156585E-01  0.181593E-01  0.212463E-01  0.249662E-01  0.293317E-01  0.342911E-01
  0.397039E-01  0.453310E-01  0.508473E-01  0.558770E-01  0.600428E-01  0.630182E-01
  0.645673E-01  0.645673E-01  0.705538E-01  0.679382E-01  0.638116E-01  0.585020E-01
  0.524229E-01  0.460194E-01  0.397039E-01  0.338044E-01  0.285372E-01  0.240067E-01
  0.202258E-01  0.171487E-01  0.147047E-01  0.128204E-01  0.114289E-01  0.104745E-01
  0.991698E-02  0.973353E-02  0.991698E-02  0.104745E-01  0.114289E-01  0.128204E-01
  0.147047E-01  0.171487E-01  0.202258E-01  0.240067E-01  0.285372E-01  0.338044E-01
  0.397039E-01  0.460194E-01  0.524229E-01  0.585020E-01  0.638116E-01  0.679382E-01
  0.705538E-01  0.714495E-01  0.705538E-01  0.748986E-01  0.711044E-01  0.658007E-01
  0.594099E-01  0.524229E-01  0.453310E-01  0.385542E-01  0.323960E-01  0.270299E-01
  0.225129E-01  0.188156E-01  0.158619E-01  0.135625E-01  0.118332E-01  0.106019E-01
  0.981183E-02  0.942554E-02  0.942554E-02  0.981183E-02  0.106019E-01  0.118332E-01
  0.135625E-01  0.158619E-01  0.188156E-01  0.225129E-01  0.270299E-01  0.323960E-01
  0.385542E-01  0.453310E-01  0.524229E-01  0.594099E-01  0.658007E-01  0.711044E-01
  0.748986E-01  0.768766E-01  0.768766E-01  0.748986E-01  0.771851E-01  0.721976E-01
  0.658007E-01  0.585020E-01  0.508473E-01  0.433411E-01  0.363776E-01  0.302106E-01
  0.249570E-01  0.206216E-01  0.171361E-01  0.144009E-01  0.123157E-01  0.107917E-01
  0.975590E-02  0.915490E-02  0.895781E-02  0.915490E-02  0.975590E-02  0.107917E-01
  0.123157E-01  0.144009E-01  0.171361E-01  0.206216E-01  0.249570E-01  0.302106E-01
  0.363776E-01  0.433411E-01  0.508473E-01  0.585020E-01  0.658007E-01  0.721976E-01
  0.771851E-01  0.803558E-01  0.814438E-01  0.803558E-01  0.771851E-01  0.771851E-01
  0.711044E-01  0.638116E-01  0.558770E-01  0.478670E-01  0.402604E-01  0.333951E-01
  0.274583E-01  0.225044E-01  0.184892E-01  0.153142E-01  0.128668E-01  0.110434E-01
  0.975590E-02  0.893533E-02  0.853592E-02  0.853592E-02  0.893533E-02  0.975590E-02
  0.110434E-01  0.128668E-01  0.153142E-01  0.184892E-01  0.225044E-01  0.274583E-01
  0.333951E-01  0.402604E-01  0.478670E-01  0.558770E-01  0.638116E-01  0.711044E-01
  0.771851E-01  0.815550E-01  0.838414E-01  0.838414E-01  0.815550E-01  0.771851E-01
  0.748986E-01  0.679382E-01  0.600428E-01  0.518117E-01  0.437894E-01  0.363931E-01
  0.298843E-01  0.243769E-01  0.198659E-01  0.162680E-01  0.134674E-01  0.113489E-01
  0.981183E-02  0.877367E-02  0.817406E-02  0.797790E-02  0.817406E-02  0.877367E-02
  0.981183E-02  0.113489E-01  0.134674E-01  0.162680E-01  0.198659E-01  0.243769E-01
  0.298843E-01  0.363931E-01  0.437894E-01  0.518117E-01  0.600428E-01  0.679382E-01
  0.748986E-01  0.803558E-01  0.838414E-01  0.850407E-01  0.838414E-01  0.803558E-01
  0.748986E-01  0.705538E-01  0.630182E-01  0.548749E-01  0.467080E-01  0.389997E-01
  0.320820E-01  0.261325E-01  0.211953E-01  0.172165E-01  0.140888E-01  0.116922E-01
  0.991698E-02  0.867011E-02  0.787877E-02  0.749460E-02  0.749460E-02  0.787877E-02
  0.867011E-02  0.991698E-02  0.116922E-01  0.140888E-01  0.172165E-01  0.211953E-01
  0.261325E-01  0.320820E-01  0.389997E-01  0.467080E-01  0.548749E-01  0.630182E-01
  0.705538E-01  0.768766E-01  0.814438E-01  0.838414E-01  0.838414E-01  0.814438E-01
  0.768766E-01  0.705538E-01  0.645673E-01  0.568156E-01  0.487920E-01  0.410217E-01
  0.338965E-01  0.276556E-01  0.223969E-01  0.181058E-01  0.146957E-01  0.120513E-01
  0.100589E-01  0.861916E-02  0.765000E-02  0.709155E-02  0.690906E-02  0.709155E-02
  0.765000E-02  0.861916E-02  0.100589E-01  0.120513E-01  0.146957E-01  0.181058E-01
  0.223969E-01  0.276556E-01  0.338965E-01  0.410217E-01  0.487920E-01  0.568156E-01
  0.645673E-01  0.714495E-01  0.768766E-01  0.803558E-01  0.815550E-01  0.803558E-01
  0.768766E-01  0.714495E-01  0.645673E-01  0.574800E-01  0.498769E-01  0.423022E-01
  0.351910E-01  0.288360E-01  0.233881E-01  0.188777E-01  0.152485E-01  0.123997E-01
  0.102209E-01  0.861087E-02  0.748257E-02  0.676762E-02  0.642083E-02  0.642083E-02
  0.676762E-02  0.748257E-02  0.861087E-02  0.102209E-01  0.123997E-01  0.152485E-01
  0.188777E-01  0.233881E-01  0.288360E-01  0.351910E-01  0.423022E-01  0.498769E-01
  0.574800E-01  0.645673E-01  0.705538E-01  0.748986E-01  0.771851E-01  0.771851E-01
  0.748986E-01  0.705538E-01  0.645673E-01  0.574800E-01  0.515197E-01  0.438662E-01
  0.365948E-01  0.300334E-01  0.243589E-01  0.196203E-01  0.157751E-01  0.127303E-01
  0.103772E-01  0.861087E-02  0.733812E-02  0.648284E-02  0.599045E-02  0.582963E-02
  0.599045E-02  0.648284E-02  0.733812E-02  0.861087E-02  0.103772E-01  0.127303E-01
  0.157751E-01  0.196203E-01  0.243589E-01  0.300334E-01  0.365948E-01  0.438662E-01
  0.515197E-01  0.590754E-01  0.659339E-01  0.714496E-01  0.750361E-01  0.762812E-01
  0.750361E-01  0.714496E-01  0.659339E-01  0.590754E-01  0.515197E-01  0.438662E-01
  0.370047E-01  0.306499E-01  0.250321E-01  0.202523E-01  0.163108E-01  0.131445E-01
  0.106619E-01  0.876633E-02  0.736764E-02  0.638793E-02  0.576706E-02  0.546590E-02
  0.546590E-02  0.576706E-02  0.638793E-02  0.736764E-02  0.876633E-02  0.106619E-01
  0.131445E-01  0.163108E-01  0.202523E-01  0.250321E-01  0.306499E-01  0.370047E-01
  0.438662E-01  0.508640E-01  0.575017E-01  0.632050E-01  0.674035E-01  0.696333E-01
  0.696333E-01  0.674035E-01  0.632050E-01  0.575017E-01  0.508640E-01  0.438662E-01
  0.365948E-01  0.306499E-01  0.252633E-01  0.205826E-01  0.166517E-01  0.134424E-01
  0.108871E-01  0.890390E-02  0.741010E-02  0.633045E-02  0.560300E-02  0.518347E-02
  0.504635E-02  0.518347E-02  0.560300E-02  0.633045E-02  0.741010E-02  0.890390E-02
  0.108871E-01  0.134424E-01  0.166517E-01  0.205826E-01  0.252633E-01  0.306499E-01
  0.365948E-01  0.428288E-01  0.489627E-01  0.545156E-01  0.589724E-01  0.618667E-01
  0.628708E-01  0.618667E-01  0.589724E-01  0.545156E-01  0.489627E-01  0.428288E-01
  0.365948E-01  0.300334E-01  0.250321E-01  0.205826E-01  0.167687E-01  0.135983E-01
  0.110318E-01  0.900650E-02  0.745202E-02  0.629943E-02  0.548855E-02  0.497304E-02
  0.472262E-02  0.472262E-02  0.497304E-02  0.548855E-02  0.629943E-02  0.745202E-02
  0.900650E-02  0.110318E-01  0.135983E-01  0.167687E-01  0.205826E-01  0.250321E-01
  0.300334E-01  0.354038E-01  0.408539E-01  0.460015E-01  0.504091E-01  0.536455E-01
  0.553618E-01  0.553618E-01  0.536455E-01  0.504091E-01  0.460015E-01  0.408539E-01
  0.354038E-01  0.300334E-01  0.243589E-01  0.202523E-01  0.166517E-01  0.135983E-01
  0.110816E-01  0.906127E-02  0.748219E-02  0.628509E-02  0.541457E-02  0.482520E-02
  0.448443E-02  0.437297E-02  0.448443E-02  0.482520E-02  0.541457E-02  0.628509E-02
  0.748219E-02  0.906127E-02  0.110816E-01  0.135983E-01  0.166517E-01  0.202523E-01
  0.243589E-01  0.288564E-01  0.335413E-01  0.381241E-01  0.422523E-01  0.455524E-01
  0.476896E-01  0.484300E-01  0.476896E-01  0.455524E-01  0.422523E-01  0.381241E-01
  0.335413E-01  0.288564E-01  0.243589E-01  0.196203E-01  0.163108E-01  0.134424E-01
  0.110318E-01  0.906127E-02  0.749313E-02  0.627995E-02  0.537354E-02  0.473173E-02
  0.432210E-02  0.412284E-02  0.412284E-02  0.432210E-02  0.473173E-02  0.537354E-02
  0.627995E-02  0.749313E-02  0.906127E-02  0.110318E-01  0.134424E-01  0.163108E-01
  0.196203E-01  0.233027E-01  0.272219E-01  0.311693E-01  0.348735E-01  0.380281E-01
  0.403349E-01  0.415549E-01  0.415549E-01  0.403349E-01  0.380281E-01  0.348735E-01
  0.311693E-01  0.272219E-01  0.233027E-01  0.196203E-01  0.157751E-01  0.131445E-01
  0.108871E-01  0.900650E-02  0.748219E-02  0.627995E-02  0.536045E-02  0.468658E-02
  0.422792E-02  0.396209E-02  0.387509E-02  0.396209E-02  0.422792E-02  0.468658E-02
  0.536045E-02  0.627995E-02  0.748219E-02  0.900650E-02  0.108871E-01  0.131445E-01
  0.157751E-01  0.187397E-01  0.219505E-01  0.252629E-01  0.284765E-01  0.313514E-01
  0.336372E-01  0.351117E-01  0.356215E-01  0.351117E-01  0.336372E-01  0.313514E-01
  0.284765E-01  0.252629E-01  0.219505E-01  0.187397E-01  0.157751E-01  0.127303E-01
  0.106619E-01  0.890390E-02  0.745202E-02  0.628509E-02  0.537354E-02  0.468658E-02
  0.419706E-02  0.388353E-02  0.373079E-02  0.373079E-02  0.388353E-02  0.419706E-02
  0.468658E-02  0.537354E-02  0.628509E-02  0.745202E-02  0.890390E-02  0.106619E-01
  0.127303E-01  0.150880E-01  0.176791E-01  0.204050E-01  0.231227E-01  0.256512E-01
  0.277898E-01  0.293458E-01  0.301662E-01  0.301662E-01  0.293458E-01  0.277898E-01
  0.256512E-01  0.231227E-01  0.204050E-01  0.176791E-01  0.150880E-01  0.127303E-01
  0.103772E-01  0.876633E-02  0.741010E-02  0.629943E-02  0.541457E-02  0.473173E-02
  0.422792E-02  0.388353E-02  0.368342E-02  0.361785E-02  0.368342E-02  0.388353E-02
  0.422792E-02  0.473173E-02  0.541457E-02  0.629943E-02  0.741010E-02  0.876633E-02
  0.103772E-01  0.122337E-01  0.143012E-01  0.165133E-01  0.187694E-01  0.209362E-01
  0.228587E-01  0.243775E-01  0.253532E-01  0.256898E-01  0.253532E-01  0.243775E-01
  0.228587E-01  0.209362E-01  0.187694E-01  0.165133E-01  0.143012E-01  0.122337E-01
  0.103772E-01  0.861087E-02  0.736764E-02  0.633045E-02  0.548855E-02  0.482520E-02
  0.432210E-02  0.396209E-02  0.373079E-02  0.361785E-02  0.361785E-02  0.373079E-02
  0.396209E-02  0.432210E-02  0.482520E-02  0.548855E-02  0.633045E-02  0.736764E-02
  0.861087E-02  0.100589E-01  0.116922E-01  0.134674E-01  0.153142E-01  0.171361E-01
  0.188156E-01  0.202258E-01  0.212463E-01  0.217826E-01  0.217826E-01  0.212463E-01
  0.202258E-01  0.188156E-01  0.171361E-01  0.153142E-01  0.134674E-01  0.116922E-01
  0.100589E-01  0.861087E-02  0.733812E-02  0.638793E-02  0.560300E-02  0.497304E-02
  0.448443E-02  0.412284E-02  0.387509E-02  0.373079E-02  0.368342E-02  0.373079E-02
  0.387509E-02  0.412284E-02  0.448443E-02  0.497304E-02  0.560300E-02  0.638793E-02
  0.733812E-02  0.845649E-02  0.973353E-02  0.111423E-01  0.126353E-01  0.141434E-01
  0.155792E-01  0.168432E-01  0.178359E-01  0.184709E-01  0.186895E-01  0.184709E-01
  0.178359E-01  0.168432E-01  0.155792E-01  0.141434E-01  0.126353E-01  0.111423E-01
  0.973353E-02  0.845649E-02  0.733812E-02  0.648284E-02  0.576706E-02  0.518347E-02
  0.472262E-02  0.437297E-02  0.412284E-02  0.396209E-02  0.388353E-02  0.388353E-02
  0.396209E-02  0.412284E-02  0.437297E-02  0.472262E-02  0.518347E-02  0.576706E-02
  0.648284E-02  0.733556E-02  0.832170E-02  0.942554E-02  0.106160E-01  0.118451E-01
  0.130488E-01  0.141508E-01  0.150706E-01  0.157331E-01  0.160803E-01  0.160803E-01
  0.157331E-01  0.150706E-01  0.141508E-01  0.130488E-01  0.118451E-01  0.106160E-01
  0.942554E-02  0.832170E-02  0.733556E-02  0.648284E-02  0.599045E-02  0.546590E-02
  0.504635E-02  0.472262E-02  0.448443E-02  0.432210E-02  0.422792E-02  0.419706E-02
  0.422792E-02  0.432210E-02  0.448443E-02  0.472262E-02  0.504635E-02  0.546590E-02
  0.599045E-02  0.662601E-02  0.737277E-02  0.822228E-02  0.915490E-02  0.101381E-01
  0.111263E-01  0.120622E-01  0.128822E-01  0.135234E-01  0.139323E-01  0.140729E-01
  0.139323E-01  0.135234E-01  0.128822E-01  0.120622E-01  0.111263E-01  0.101381E-01
  0.915490E-02  0.822228E-02  0.737277E-02  0.662601E-02  0.599045E-02  0.582963E-02
  0.546590E-02  0.518347E-02  0.497304E-02  0.482520E-02  0.473173E-02  0.468658E-02
  0.468658E-02  0.473173E-02  0.482520E-02  0.497304E-02  0.518347E-02  0.546590E-02
  0.582963E-02  0.628206E-02  0.682644E-02  0.745951E-02  0.816961E-02  0.893533E-02
  0.972478E-02  0.104962E-01  0.112007E-01  0.117870E-01  0.122085E-01  0.124291E-01
  0.124291E-01  0.122085E-01  0.117870E-01  0.112007E-01  0.104962E-01  0.972478E-02
  0.893533E-02  0.816961E-02  0.745951E-02  0.682644E-02  0.628206E-02  0.582963E-02
  0.599045E-02  0.576706E-02  0.560300E-02  0.548855E-02  0.541457E-02  0.537354E-02
  0.536045E-02  0.537354E-02  0.541457E-02  0.548855E-02  0.560300E-02  0.576706E-02
  0.599045E-02  0.628206E-02  0.664799E-02  0.708945E-02  0.760104E-02  0.816961E-02
  0.877367E-02  0.938336E-02  0.996203E-02  0.104694E-01  0.108663E-01  0.111195E-01
  0.112066E-01  0.111195E-01  0.108663E-01  0.104694E-01  0.996203E-02  0.938336E-02
  0.877367E-02  0.816961E-02  0.760104E-02  0.708945E-02  0.664799E-02  0.628206E-02
  0.599045E-02  0.648284E-02  0.638793E-02  0.633045E-02  0.629943E-02  0.628509E-02
  0.627995E-02  0.627995E-02  0.628509E-02  0.629943E-02  0.633045E-02  0.638793E-02
  0.648284E-02  0.662601E-02  0.682644E-02  0.708945E-02  0.741512E-02  0.779715E-02
  0.822228E-02  0.867011E-02  0.911392E-02  0.952289E-02  0.986539E-02  0.101126E-01
  0.102423E-01  0.102423E-01  0.101126E-01  0.986539E-02  0.952289E-02  0.911392E-02
  0.867011E-02  0.822228E-02  0.779715E-02  0.741512E-02  0.708945E-02  0.682644E-02
  0.662601E-02  0.648284E-02  0.733812E-02  0.736764E-02  0.741010E-02  0.745202E-02
  0.748219E-02  0.749313E-02  0.748219E-02  0.745202E-02  0.741010E-02  0.736764E-02
  0.733812E-02  0.733556E-02  0.737277E-02  0.745951E-02  0.760104E-02  0.779715E-02
  0.804156E-02  0.832170E-02  0.861916E-02  0.891116E-02  0.917299E-02  0.938084E-02
  0.951463E-02  0.956083E-02  0.951463E-02  0.938084E-02  0.917299E-02  0.891116E-02
  0.861916E-02  0.832170E-02  0.804156E-02  0.779715E-02  0.760104E-02  0.745951E-02
  0.737277E-02  0.733556E-02  0.733812E-02  0.861087E-02  0.876633E-02  0.890390E-02
  0.900650E-02  0.906127E-02  0.906127E-02  0.900650E-02  0.890390E-02  0.876633E-02
  0.861087E-02  0.845649E-02  0.832170E-02  0.822228E-02  0.816961E-02  0.816961E-02
  0.822228E-02  0.832170E-02  0.845649E-02  0.861087E-02  0.876633E-02  0.890390E-02
  0.900650E-02  0.906127E-02  0.906127E-02  0.900650E-02  0.890390E-02  0.876633E-02
  0.861087E-02  0.845649E-02  0.832170E-02  0.822228E-02  0.816961E-02  0.816961E-02
  0.822228E-02  0.832170E-02  0.845649E-02  0.861087E-02  0.103772E-01  0.106619E-01
  0.108871E-01  0.110318E-01  0.110816E-01  0.110318E-01  0.108871E-01  0.106619E-01
  0.103772E-01  0.100589E-01  0.973353E-02  0.942554E-02  0.915490E-02  0.893533E-02
  0.877367E-02  0.867011E-02  0.861916E-02  0.861087E-02  0.863222E-02  0.866870E-02
  0.870635E-02  0.873380E-02  0.874378E-02  0.873380E-02  0.870635E-02  0.866870E-02
  0.863222E-02  0.861087E-02  0.861916E-02  0.867011E-02  0.877367E-02  0.893533E-02
  0.915490E-02  0.942554E-02  0.973353E-02  0.100589E-01  0.103772E-01  0.127303E-01
  0.131445E-01  0.134424E-01  0.135983E-01  0.135983E-01  0.134424E-01  0.131445E-01
  0.127303E-01  0.122337E-01  0.116922E-01  0.111423E-01  0.106160E-01  0.101381E-01
  0.972478E-02  0.938336E-02  0.911392E-02  0.891116E-02  0.876633E-02  0.866870E-02
  0.860713E-02  0.857185E-02  0.855595E-02  0.855595E-02  0.857185E-02  0.860713E-02
  0.866870E-02  0.876633E-02  0.891116E-02  0.911392E-02  0.938336E-02  0.972478E-02
  0.101381E-01  0.106160E-01  0.111423E-01  0.116922E-01  0.122337E-01  0.127303E-01
  0.157751E-01  0.163108E-01  0.166517E-01  0.167687E-01  0.166517E-01  0.163108E-01
  0.157751E-01  0.150880E-01  0.143012E-01  0.134674E-01  0.126353E-01  0.118451E-01
  0.111263E-01  0.104962E-01  0.996203E-02  0.952289E-02  0.917299E-02  0.890390E-02
  0.870635E-02  0.857185E-02  0.849382E-02  0.846825E-02  0.849382E-02  0.857185E-02
  0.870635E-02  0.890390E-02  0.917299E-02  0.952289E-02  0.996203E-02  0.104962E-01
  0.111263E-01  0.118451E-01  0.126353E-01  0.134674E-01  0.143012E-01  0.150880E-01
  0.157751E-01  0.196203E-01  0.202523E-01  0.205826E-01  0.205826E-01  0.202523E-01
  0.196203E-01  0.187397E-01  0.176791E-01  0.165133E-01  0.153142E-01  0.141434E-01
  0.130488E-01  0.120622E-01  0.112007E-01  0.104694E-01  0.986539E-02  0.938084E-02
  0.900650E-02  0.873380E-02  0.855595E-02  0.846825E-02  0.846825E-02  0.855595E-02
  0.873380E-02  0.900650E-02  0.938084E-02  0.986539E-02  0.104694E-01  0.112007E-01
  0.120622E-01  0.130488E-01  0.141434E-01  0.153142E-01  0.165133E-01  0.176791E-01
  0.187397E-01  0.196203E-01  0.243589E-01  0.250321E-01  0.252633E-01  0.250321E-01
  0.243589E-01  0.233027E-01  0.219505E-01  0.204050E-01  0.187694E-01  0.171361E-01
  0.155792E-01  0.141508E-01  0.128822E-01  0.117870E-01  0.108663E-01  0.101126E-01
  0.951463E-02  0.906127E-02  0.874378E-02  0.855595E-02  0.849382E-02  0.855595E-02
  0.874378E-02  0.906127E-02  0.951463E-02  0.101126E-01  0.108663E-01  0.117870E-01
  0.128822E-01  0.141508E-01  0.155792E-01  0.171361E-01  0.187694E-01  0.204050E-01
  0.219505E-01  0.233027E-01  0.243589E-01  0.300334E-01  0.306499E-01  0.306499E-01
  0.300334E-01  0.288564E-01  0.272219E-01  0.252629E-01  0.231227E-01  0.209362E-01
  0.188156E-01  0.168432E-01  0.150706E-01  0.135234E-01  0.122085E-01  0.111195E-01
  0.102423E-01  0.956083E-02  0.906127E-02  0.873380E-02  0.857185E-02  0.857185E-02
  0.873380E-02  0.906127E-02  0.956083E-02  0.102423E-01  0.111195E-01  0.122085E-01
  0.135234E-01  0.150706E-01  0.168432E-01  0.188156E-01  0.209362E-01  0.231227E-01
  0.252629E-01  0.272219E-01  0.288564E-01  0.300334E-01  0.365948E-01  0.370047E-01
  0.365948E-01  0.354038E-01  0.335413E-01  0.311693E-01  0.284765E-01  0.256512E-01
  0.228587E-01  0.202258E-01  0.178359E-01  0.157331E-01  0.139323E-01  0.124291E-01
  0.112066E-01  0.102423E-01  0.951463E-02  0.900650E-02  0.870635E-02  0.860713E-02
  0.870635E-02  0.900650E-02  0.951463E-02  0.102423E-01  0.112066E-01  0.124291E-01
  0.139323E-01  0.157331E-01  0.178359E-01  0.202258E-01  0.228587E-01  0.256512E-01
  0.284765E-01  0.311693E-01  0.335413E-01  0.354038E-01  0.365948E-01  0.438662E-01
  0.438662E-01  0.428288E-01  0.408539E-01  0.381241E-01  0.348735E-01  0.313514E-01
  0.277898E-01  0.243775E-01  0.212463E-01  0.184709E-01  0.160803E-01  0.140729E-01
  0.124291E-01  0.111195E-01  0.101126E-01  0.938084E-02  0.890390E-02  0.866870E-02
  0.866870E-02  0.890390E-02  0.938084E-02  0.101126E-01  0.111195E-01  0.124291E-01
  0.140729E-01  0.160803E-01  0.184709E-01  0.212463E-01  0.243775E-01  0.277898E-01
  0.313514E-01  0.348735E-01  0.381241E-01  0.408539E-01  0.428288E-01  0.438662E-01
  0.515197E-01  0.508640E-01  0.489627E-01  0.460015E-01  0.422523E-01  0.380281E-01
  0.336372E-01  0.293458E-01  0.253532E-01  0.217826E-01  0.186895E-01  0.160803E-01
  0.139323E-01  0.122085E-01  0.108663E-01  0.986539E-02  0.917299E-02  0.876633E-02
  0.863222E-02  0.876633E-02  0.917299E-02  0.986539E-02  0.108663E-01  0.122085E-01
  0.139323E-01  0.160803E-01  0.186895E-01  0.217826E-01  0.253532E-01  0.293458E-01
  0.336372E-01  0.380281E-01  0.422523E-01  0.460015E-01  0.489627E-01  0.508640E-01
  0.515197E-01  0.590754E-01  0.575017E-01  0.545156E-01  0.504091E-01  0.455524E-01
  0.403349E-01  0.351117E-01  0.301662E-01  0.256898E-01  0.217826E-01  0.184709E-01
  0.157331E-01  0.135234E-01  0.117870E-01  0.104694E-01  0.952289E-02  0.891116E-02
  0.861087E-02  0.861087E-02  0.891116E-02  0.952289E-02  0.104694E-01  0.117870E-01
  0.135234E-01  0.157331E-01  0.184709E-01  0.217826E-01  0.256898E-01  0.301662E-01
  0.351117E-01  0.403349E-01  0.455524E-01  0.504091E-01  0.545156E-01  0.575017E-01
  0.590754E-01  0.590754E-01  0.659339E-01  0.632050E-01  0.589724E-01  0.536455E-01
  0.476896E-01  0.415549E-01  0.356215E-01  0.301662E-01  0.253532E-01  0.212463E-01
  0.178359E-01  0.150706E-01  0.128822E-01  0.112007E-01  0.996203E-02  0.911392E-02
  0.861916E-02  0.845649E-02  0.861916E-02  0.911392E-02  0.996203E-02  0.112007E-01
  0.128822E-01  0.150706E-01  0.178359E-01  0.212463E-01  0.253532E-01  0.301662E-01
  0.356215E-01  0.415549E-01  0.476896E-01  0.536455E-01  0.589724E-01  0.632050E-01
  0.659339E-01  0.668771E-01  0.659339E-01  0.714496E-01  0.674035E-01  0.618667E-01
  0.553618E-01  0.484300E-01  0.415549E-01  0.351117E-01  0.293458E-01  0.243775E-01
  0.202258E-01  0.168432E-01  0.141508E-01  0.120622E-01  0.104962E-01  0.938336E-02
  0.867011E-02  0.832170E-02  0.832170E-02  0.867011E-02  0.938336E-02  0.104962E-01
  0.120622E-01  0.141508E-01  0.168432E-01  0.202258E-01  0.243775E-01  0.293458E-01
  0.351117E-01  0.415549E-01  0.484300E-01  0.553618E-01  0.618667E-01  0.674035E-01
  0.714496E-01  0.735884E-01  0.735884E-01  0.714496E-01  0.750361E-01  0.696333E-01
  0.628708E-01  0.553618E-01  0.476896E-01  0.403349E-01  0.336372E-01  0.277898E-01
  0.228587E-01  0.188156E-01  0.155792E-01  0.130488E-01  0.111263E-01  0.972478E-02
  0.877367E-02  0.822228E-02  0.804156E-02  0.822228E-02  0.877367E-02  0.972478E-02
  0.111263E-01  0.130488E-01  0.155792E-01  0.188156E-01  0.228587E-01  0.277898E-01
  0.336372E-01  0.403349E-01  0.476896E-01  0.553618E-01  0.628708E-01  0.696333E-01
  0.750361E-01  0.785329E-01  0.797439E-01  0.785329E-01  0.750361E-01  0.762812E-01
  0.696333E-01  0.618667E-01  0.536455E-01  0.455524E-01  0.380281E-01  0.313514E-01
  0.256512E-01  0.209362E-01  0.171361E-01  0.141434E-01  0.118451E-01  0.101381E-01
  0.893533E-02  0.816961E-02  0.779715E-02  0.779715E-02  0.816961E-02  0.893533E-02
  0.101381E-01  0.118451E-01  0.141434E-01  0.171361E-01  0.209362E-01  0.256512E-01
  0.313514E-01  0.380281E-01  0.455524E-01  0.536455E-01  0.618667E-01  0.696333E-01
  0.762812E-01  0.811602E-01  0.837465E-01  0.837465E-01  0.811602E-01  0.762812E-01
  0.750361E-01  0.674035E-01  0.589724E-01  0.504091E-01  0.422523E-01  0.348735E-01
  0.284765E-01  0.231227E-01  0.187694E-01  0.153142E-01  0.126353E-01  0.106160E-01
  0.915490E-02  0.816961E-02  0.760104E-02  0.741512E-02  0.760104E-02  0.816961E-02
  0.915490E-02  0.106160E-01  0.126353E-01  0.153142E-01  0.187694E-01  0.231227E-01
  0.284765E-01  0.348735E-01  0.422523E-01  0.504091E-01  0.589724E-01  0.674035E-01
  0.750361E-01  0.811602E-01  0.851361E-01  0.865154E-01  0.851361E-01  0.811602E-01
  0.750361E-01  0.714496E-01  0.632050E-01  0.545156E-01  0.460015E-01  0.381241E-01
  0.311693E-01  0.252629E-01  0.204050E-01  0.165133E-01  0.134674E-01  0.111423E-01
  0.942554E-02  0.822228E-02  0.745951E-02  0.708945E-02  0.708945E-02  0.745951E-02
  0.822228E-02  0.942554E-02  0.111423E-01  0.134674E-01  0.165133E-01  0.204050E-01
  0.252629E-01  0.311693E-01  0.381241E-01  0.460015E-01  0.545156E-01  0.632050E-01
  0.714496E-01  0.785329E-01  0.837465E-01  0.865154E-01  0.865154E-01  0.837465E-01
  0.785329E-01  0.714496E-01  0.659339E-01  0.575017E-01  0.489627E-01  0.408539E-01
  0.335413E-01  0.272219E-01  0.219505E-01  0.176791E-01  0.143012E-01  0.116922E-01
  0.973353E-02  0.832170E-02  0.737277E-02  0.682644E-02  0.664799E-02  0.682644E-02
  0.737277E-02  0.832170E-02  0.973353E-02  0.116922E-01  0.143012E-01  0.176791E-01
  0.219505E-01  0.272219E-01  0.335413E-01  0.408539E-01  0.489627E-01  0.575017E-01
  0.659339E-01  0.735884E-01  0.797439E-01  0.837465E-01  0.851361E-01  0.837465E-01
  0.797439E-01  0.735884E-01  0.659339E-01  0.590754E-01  0.508640E-01  0.428288E-01
  0.354038E-01  0.288564E-01  0.233027E-01  0.187397E-01  0.150880E-01  0.122337E-01
  0.100589E-01  0.845649E-02  0.733556E-02  0.662601E-02  0.628206E-02  0.628206E-02
  0.662601E-02  0.733556E-02  0.845649E-02  0.100589E-01  0.122337E-01  0.150880E-01
  0.187397E-01  0.233027E-01  0.288564E-01  0.354038E-01  0.428288E-01  0.508640E-01
  0.590754E-01  0.668771E-01  0.735884E-01  0.785329E-01  0.811602E-01  0.811602E-01
  0.785329E-01  0.735884E-01  0.668771E-01  0.590754E-01  0.515197E-01  0.438662E-01
  0.365948E-01  0.300334E-01  0.243589E-01  0.196203E-01  0.157751E-01  0.127303E-01
  0.103772E-01  0.861087E-02  0.733812E-02  0.648284E-02  0.599045E-02  0.582963E-02
  0.599045E-02  0.648284E-02  0.733812E-02  0.861087E-02  0.103772E-01  0.127303E-01
  0.157751E-01  0.196203E-01  0.243589E-01  0.300334E-01  0.365948E-01  0.438662E-01
  0.515197E-01  0.590754E-01  0.659339E-01  0.714496E-01  0.750361E-01  0.762812E-01
  0.750361E-01  0.714496E-01  0.659339E-01  0.590754E-01  0.515197E-01  0.454580E-01
  0.382080E-01  0.315413E-01  0.256847E-01  0.207273E-01  0.166561E-01  0.133973E-01
  0.108505E-01  0.891116E-02  0.748257E-02  0.648284E-02  0.584988E-02  0.554320E-02
  0.554320E-02  0.584988E-02  0.648284E-02  0.748257E-02  0.891116E-02  0.108505E-01
  0.133973E-01  0.166561E-01  0.207273E-01  0.256847E-01  0.315413E-01  0.382080E-01
  0.454580E-01  0.529079E-01  0.600270E-01  0.661851E-01  0.707429E-01  0.731719E-01
  0.731719E-01  0.707429E-01  0.661851E-01  0.600270E-01  0.529079E-01  0.454580E-01
  0.382080E-01  0.319068E-01  0.262302E-01  0.213214E-01  0.172157E-01  0.138755E-01
  0.112247E-01  0.917299E-02  0.763053E-02  0.651684E-02  0.576706E-02  0.533512E-02
  0.519406E-02  0.533512E-02  0.576706E-02  0.651684E-02  0.763053E-02  0.917299E-02
  0.112247E-01  0.138755E-01  0.172157E-01  0.213214E-01  0.262302E-01  0.319068E-01
  0.382080E-01  0.448574E-01  0.514420E-01  0.574387E-01  0.622761E-01  0.654290E-01
  0.665249E-01  0.654290E-01  0.622761E-01  0.574387E-01  0.514420E-01  0.448574E-01
  0.382080E-01  0.315413E-01  0.262302E-01  0.215258E-01  0.175087E-01  0.141805E-01
  0.114946E-01  0.938084E-02  0.776152E-02  0.656217E-02  0.571901E-02  0.518347E-02
  0.492358E-02  0.492358E-02  0.518347E-02  0.571901E-02  0.656217E-02  0.776152E-02
  0.938084E-02  0.114946E-01  0.141805E-01  0.175087E-01  0.215258E-01  0.262302E-01
  0.315413E-01  0.372727E-01  0.431200E-01  0.486709E-01  0.534452E-01  0.569632E-01
  0.588329E-01  0.588329E-01  0.569632E-01  0.534452E-01  0.486709E-01  0.431200E-01
  0.372727E-01  0.315413E-01  0.256847E-01  0.213214E-01  0.175087E-01  0.142854E-01
  0.116362E-01  0.951463E-02  0.785937E-02  0.660583E-02  0.569489E-02  0.507863E-02
  0.472262E-02  0.460624E-02  0.472262E-02  0.507863E-02  0.569489E-02  0.660583E-02
  0.785937E-02  0.951463E-02  0.116362E-01  0.142854E-01  0.175087E-01  0.213214E-01
  0.256847E-01  0.304811E-01  0.354977E-01  0.404255E-01  0.448813E-01  0.484545E-01
  0.507738E-01  0.515782E-01  0.507738E-01  0.484545E-01  0.448813E-01  0.404255E-01
  0.354977E-01  0.304811E-01  0.256847E-01  0.207273E-01  0.172157E-01  0.141805E-01
  0.116362E-01  0.956083E-02  0.791169E-02  0.663695E-02  0.568506E-02  0.501147E-02
  0.458186E-02  0.437297E-02  0.437297E-02  0.458186E-02  0.501147E-02  0.568506E-02
  0.663695E-02  0.791169E-02  0.956083E-02  0.116362E-01  0.141805E-01  0.172157E-01
  0.207273E-01  0.246455E-01  0.288285E-01  0.330549E-01  0.370331E-01  0.404300E-01
  0.429191E-01  0.442373E-01  0.442373E-01  0.429191E-01  0.404300E-01  0.370331E-01
  0.330549E-01  0.288285E-01  0.246455E-01  0.207273E-01  0.166561E-01  0.138755E-01
  0.114946E-01  0.951463E-02  0.791169E-02  0.664819E-02  0.568215E-02  0.497451E-02
  0.449309E-02  0.421413E-02  0.412284E-02  0.421413E-02  0.449309E-02  0.497451E-02
  0.568215E-02  0.664819E-02  0.791169E-02  0.951463E-02  0.114946E-01  0.138755E-01
  0.166561E-01  0.197969E-01  0.232066E-01  0.267323E-01  0.301609E-01  0.332346E-01
  0.356826E-01  0.372637E-01  0.378107E-01  0.372637E-01  0.356826E-01  0.332346E-01
  0.301609E-01  0.267323E-01  0.232066E-01  0.197969E-01  0.166561E-01  0.133973E-01
  0.112247E-01  0.938084E-02  0.785937E-02  0.663695E-02  0.568215E-02  0.496277E-02
  0.445028E-02  0.412204E-02  0.396209E-02  0.396209E-02  0.412204E-02  0.445028E-02
  0.496277E-02  0.568215E-02  0.663695E-02  0.785937E-02  0.938084E-02  0.112247E-01
  0.133973E-01  0.158779E-01  0.186088E-01  0.214873E-01  0.243623E-01  0.270414E-01
  0.293104E-01  0.309628E-01  0.318344E-01  0.318344E-01  0.309628E-01  0.293104E-01
  0.270414E-01  0.243623E-01  0.214873E-01  0.186088E-01  0.158779E-01  0.133973E-01
  0.108505E-01  0.917299E-02  0.776152E-02  0.660583E-02  0.568506E-02  0.497451E-02
  0.445028E-02  0.409188E-02  0.388353E-02  0.381522E-02  0.388353E-02  0.409188E-02
  0.445028E-02  0.497451E-02  0.568506E-02  0.660583E-02  0.776152E-02  0.917299E-02
  0.108505E-01  0.127854E-01  0.149427E-01  0.172542E-01  0.196148E-01  0.218850E-01
  0.239012E-01  0.254951E-01  0.265194E-01  0.268728E-01  0.265194E-01  0.254951E-01
  0.239012E-01  0.218850E-01  0.196148E-01  0.172542E-01  0.149427E-01  0.127854E-01
  0.108505E-01  0.891116E-02  0.763053E-02  0.656217E-02  0.569489E-02  0.501147E-02
  0.449309E-02  0.412204E-02  0.388353E-02  0.376700E-02  0.376700E-02  0.388353E-02
  0.412204E-02  0.449309E-02  0.501147E-02  0.569489E-02  0.656217E-02  0.763053E-02
  0.891116E-02  0.104031E-01  0.120866E-01  0.139177E-01  0.158243E-01  0.177071E-01
  0.194440E-01  0.209031E-01  0.219592E-01  0.225144E-01  0.225144E-01  0.219592E-01
  0.209031E-01  0.194440E-01  0.177071E-01  0.158243E-01  0.139177E-01  0.120866E-01
  0.104031E-01  0.891116E-02  0.748257E-02  0.651684E-02  0.571901E-02  0.507863E-02
  0.458186E-02  0.421413E-02  0.396209E-02  0.381522E-02  0.376700E-02  0.381522E-02
  0.396209E-02  0.421413E-02  0.458186E-02  0.507863E-02  0.571901E-02  0.651684E-02
  0.748257E-02  0.861916E-02  0.991698E-02  0.113489E-01  0.128668E-01  0.144009E-01
  0.158619E-01  0.171487E-01  0.181593E-01  0.188058E-01  0.190284E-01  0.188058E-01
  0.181593E-01  0.171487E-01  0.158619E-01  0.144009E-01  0.128668E-01  0.113489E-01
  0.991698E-02  0.861916E-02  0.748257E-02  0.648284E-02  0.576706E-02  0.518347E-02
  0.472262E-02  0.437297E-02  0.412284E-02  0.396209E-02  0.388353E-02  0.388353E-02
  0.396209E-02  0.412284E-02  0.437297E-02  0.472262E-02  0.518347E-02  0.576706E-02
  0.648284E-02  0.733556E-02  0.832170E-02  0.942554E-02  0.106160E-01  0.118451E-01
  0.130488E-01  0.141508E-01  0.150706E-01  0.157331E-01  0.160803E-01  0.160803E-01
  0.157331E-01  0.150706E-01  0.141508E-01  0.130488E-01  0.118451E-01  0.106160E-01
  0.942554E-02  0.832170E-02  0.733556E-02  0.648284E-02  0.584988E-02  0.533512E-02
  0.492358E-02  0.460624E-02  0.437297E-02  0.421413E-02  0.412204E-02  0.409188E-02
  0.412204E-02  0.421413E-02  0.437297E-02  0.460624E-02  0.492358E-02  0.533512E-02
  0.584988E-02  0.647379E-02  0.720711E-02  0.804156E-02  0.895781E-02  0.992377E-02
  0.108944E-01  0.118135E-01  0.126185E-01  0.132479E-01  0.136492E-01  0.137871E-01
  0.136492E-01  0.132479E-01  0.126185E-01  0.118135E-01  0.108944E-01  0.992377E-02
  0.895781E-02  0.804156E-02  0.720711E-02  0.647379E-02  0.584988E-02  0.554320E-02
  0.519406E-02  0.492358E-02  0.472262E-02  0.458186E-02  0.449309E-02  0.445028E-02
  0.445028E-02  0.449309E-02  0.458186E-02  0.472262E-02  0.492358E-02  0.519406E-02
  0.554320E-02  0.597818E-02  0.650224E-02  0.711232E-02  0.779715E-02  0.853592E-02
  0.929768E-02  0.100420E-01  0.107214E-01  0.112867E-01  0.116928E-01  0.119053E-01
  0.119053E-01  0.116928E-01  0.112867E-01  0.107214E-01  0.100420E-01  0.929768E-02
  0.853592E-02  0.779715E-02  0.711232E-02  0.650224E-02  0.597818E-02  0.554320E-02
  0.554320E-02  0.533512E-02  0.518347E-02  0.507863E-02  0.501147E-02  0.497451E-02
  0.496277E-02  0.497451E-02  0.501147E-02  0.507863E-02  0.518347E-02  0.533512E-02
  0.554320E-02  0.581646E-02  0.616092E-02  0.657785E-02  0.706210E-02  0.760104E-02
  0.817406E-02  0.875270E-02  0.930200E-02  0.978353E-02  0.101599E-01  0.103998E-01
  0.104823E-01  0.103998E-01  0.101599E-01  0.978353E-02  0.930200E-02  0.875270E-02
  0.817406E-02  0.760104E-02  0.706210E-02  0.657785E-02  0.616092E-02  0.581646E-02
  0.554320E-02  0.584988E-02  0.576706E-02  0.571901E-02  0.569489E-02  0.568506E-02
  0.568215E-02  0.568215E-02  0.568506E-02  0.569489E-02  0.571901E-02  0.576706E-02
  0.584988E-02  0.597818E-02  0.616092E-02  0.640343E-02  0.670585E-02  0.706210E-02
  0.745951E-02  0.787877E-02  0.829470E-02  0.867820E-02  0.899932E-02  0.923096E-02
  0.935240E-02  0.935240E-02  0.923096E-02  0.899932E-02  0.867820E-02  0.829470E-02
  0.787877E-02  0.745951E-02  0.706210E-02  0.670585E-02  0.640343E-02  0.616092E-02
  0.597818E-02  0.584988E-02  0.648284E-02  0.651684E-02  0.656217E-02  0.660583E-02
  0.663695E-02  0.664819E-02  0.663695E-02  0.660583E-02  0.656217E-02  0.651684E-02
  0.648284E-02  0.647379E-02  0.650224E-02  0.657785E-02  0.670585E-02  0.688602E-02
  0.711232E-02  0.737277E-02  0.765000E-02  0.792256E-02  0.816718E-02  0.836144E-02
  0.848651E-02  0.852969E-02  0.848651E-02  0.836144E-02  0.816718E-02  0.792256E-02
  0.765000E-02  0.737277E-02  0.711232E-02  0.688602E-02  0.670585E-02  0.657785E-02
  0.650224E-02  0.647379E-02  0.648284E-02  0.748257E-02  0.763053E-02  0.776152E-02
  0.785937E-02  0.791169E-02  0.791169E-02  0.785937E-02  0.776152E-02  0.763053E-02
  0.748257E-02  0.733556E-02  0.720711E-02  0.711232E-02  0.706210E-02  0.706210E-02
  0.711232E-02  0.720711E-02  0.733556E-02  0.748257E-02  0.763053E-02  0.776152E-02
  0.785937E-02  0.791169E-02  0.791169E-02  0.785937E-02  0.776152E-02  0.763053E-02
  0.748257E-02  0.733556E-02  0.720711E-02  0.711232E-02  0.706210E-02  0.706210E-02
  0.711232E-02  0.720711E-02  0.733556E-02  0.748257E-02  0.891116E-02  0.917299E-02
  0.938084E-02  0.951463E-02  0.956083E-02  0.951463E-02  0.938084E-02  0.917299E-02
  0.891116E-02  0.861916E-02  0.832170E-02  0.804156E-02  0.779715E-02  0.760104E-02
  0.745951E-02  0.737277E-02  0.733556E-02  0.733812E-02  0.736764E-02  0.741010E-02
  0.745202E-02  0.748219E-02  0.749313E-02  0.748219E-02  0.745202E-02  0.741010E-02
  0.736764E-02  0.733812E-02  0.733556E-02  0.737277E-02  0.745951E-02  0.760104E-02
  0.779715E-02  0.804156E-02  0.832170E-02  0.861916E-02  0.891116E-02  0.108505E-01
  0.112247E-01  0.114946E-01  0.116362E-01  0.116362E-01  0.114946E-01  0.112247E-01
  0.108505E-01  0.104031E-01  0.991698E-02  0.942554E-02  0.895781E-02  0.853592E-02
  0.817406E-02  0.787877E-02  0.765000E-02  0.748257E-02  0.736764E-02  0.729440E-02
  0.725166E-02  0.722943E-02  0.722027E-02  0.722027E-02  0.722943E-02  0.725166E-02
  0.729440E-02  0.736764E-02  0.748257E-02  0.765000E-02  0.787877E-02  0.817406E-02
  0.853592E-02  0.895781E-02  0.942554E-02  0.991698E-02  0.104031E-01  0.108505E-01
  0.133973E-01  0.138755E-01  0.141805E-01  0.142854E-01  0.141805E-01  0.138755E-01
  0.133973E-01  0.127854E-01  0.120866E-01  0.113489E-01  0.106160E-01  0.992377E-02
  0.929768E-02  0.875270E-02  0.829470E-02  0.792256E-02  0.763053E-02  0.741010E-02
  0.725166E-02  0.714603E-02  0.708578E-02  0.706623E-02  0.708578E-02  0.714603E-02
  0.725166E-02  0.741010E-02  0.763053E-02  0.792256E-02  0.829470E-02  0.875270E-02
  0.929768E-02  0.992377E-02  0.106160E-01  0.113489E-01  0.120866E-01  0.127854E-01
  0.133973E-01  0.166561E-01  0.172157E-01  0.175087E-01  0.175087E-01  0.172157E-01
  0.166561E-01  0.158779E-01  0.149427E-01  0.139177E-01  0.128668E-01  0.118451E-01
  0.108944E-01  0.100420E-01  0.930200E-02  0.867820E-02  0.816718E-02  0.776152E-02
  0.745202E-02  0.722943E-02  0.708578E-02  0.701541E-02  0.701541E-02  0.708578E-02
  0.722943E-02  0.745202E-02  0.776152E-02  0.816718E-02  0.867820E-02  0.930200E-02
  0.100420E-01  0.108944E-01  0.118451E-01  0.128668E-01  0.139177E-01  0.149427E-01
  0.158779E-01  0.166561E-01  0.207273E-01  0.213214E-01  0.215258E-01  0.213214E-01
  0.207273E-01  0.197969E-01  0.186088E-01  0.172542E-01  0.158243E-01  0.144009E-01
  0.130488E-01  0.118135E-01  0.107214E-01  0.978353E-02  0.899932E-02  0.836144E-02
  0.785937E-02  0.748219E-02  0.722027E-02  0.706623E-02  0.701541E-02  0.706623E-02
  0.722027E-02  0.748219E-02  0.785937E-02  0.836144E-02  0.899932E-02  0.978353E-02
  0.107214E-01  0.118135E-01  0.130488E-01  0.144009E-01  0.158243E-01  0.172542E-01
  0.186088E-01  0.197969E-01  0.207273E-01  0.256847E-01  0.262302E-01  0.262302E-01
  0.256847E-01  0.246455E-01  0.232066E-01  0.214873E-01  0.196148E-01  0.177071E-01
  0.158619E-01  0.141508E-01  0.126185E-01  0.112867E-01  0.101599E-01  0.923096E-02
  0.848651E-02  0.791169E-02  0.749313E-02  0.722027E-02  0.708578E-02  0.708578E-02
  0.722027E-02  0.749313E-02  0.791169E-02  0.848651E-02  0.923096E-02  0.101599E-01
  0.112867E-01  0.126185E-01  0.141508E-01  0.158619E-01  0.177071E-01  0.196148E-01
  0.214873E-01  0.232066E-01  0.246455E-01  0.256847E-01  0.315413E-01  0.319068E-01
  0.315413E-01  0.304811E-01  0.288285E-01  0.267323E-01  0.243623E-01  0.218850E-01
  0.194440E-01  0.171487E-01  0.150706E-01  0.132479E-01  0.116928E-01  0.103998E-01
  0.935240E-02  0.852969E-02  0.791169E-02  0.748219E-02  0.722943E-02  0.714603E-02
  0.722943E-02  0.748219E-02  0.791169E-02  0.852969E-02  0.935240E-02  0.103998E-01
  0.116928E-01  0.132479E-01  0.150706E-01  0.171487E-01  0.194440E-01  0.218850E-01
  0.243623E-01  0.267323E-01  0.288285E-01  0.304811E-01  0.315413E-01  0.382080E-01
  0.382080E-01  0.372727E-01  0.354977E-01  0.330549E-01  0.301609E-01  0.270414E-01
  0.239012E-01  0.209031E-01  0.181593E-01  0.157331E-01  0.136492E-01  0.119053E-01
  0.104823E-01  0.935240E-02  0.848651E-02  0.785937E-02  0.745202E-02  0.725166E-02
  0.725166E-02  0.745202E-02  0.785937E-02  0.848651E-02  0.935240E-02  0.104823E-01
  0.119053E-01  0.136492E-01  0.157331E-01  0.181593E-01  0.209031E-01  0.239012E-01
  0.270414E-01  0.301609E-01  0.330549E-01  0.354977E-01  0.372727E-01  0.382080E-01
  0.454580E-01  0.448574E-01  0.431200E-01  0.404255E-01  0.370331E-01  0.332346E-01
  0.293104E-01  0.254951E-01  0.219592E-01  0.188058E-01  0.160803E-01  0.137871E-01
  0.119053E-01  0.103998E-01  0.923096E-02  0.836144E-02  0.776152E-02  0.741010E-02
  0.729440E-02  0.741010E-02  0.776152E-02  0.836144E-02  0.923096E-02  0.103998E-01
  0.119053E-01  0.137871E-01  0.160803E-01  0.188058E-01  0.219592E-01  0.254951E-01
  0.293104E-01  0.332346E-01  0.370331E-01  0.404255E-01  0.431200E-01  0.448574E-01
  0.454580E-01  0.529079E-01  0.514420E-01  0.486709E-01  0.448813E-01  0.404300E-01
  0.356826E-01  0.309628E-01  0.265194E-01  0.225144E-01  0.190284E-01  0.160803E-01
  0.136492E-01  0.116928E-01  0.101599E-01  0.899932E-02  0.816718E-02  0.763053E-02
  0.736764E-02  0.736764E-02  0.763053E-02  0.816718E-02  0.899932E-02  0.101599E-01
  0.116928E-01  0.136492E-01  0.160803E-01  0.190284E-01  0.225144E-01  0.265194E-01
  0.309628E-01  0.356826E-01  0.404300E-01  0.448813E-01  0.486709E-01  0.514420E-01
  0.529079E-01  0.529079E-01  0.600270E-01  0.574387E-01  0.534452E-01  0.484545E-01
  0.429191E-01  0.372637E-01  0.318344E-01  0.268728E-01  0.225144E-01  0.188058E-01
  0.157331E-01  0.132479E-01  0.112867E-01  0.978353E-02  0.867820E-02  0.792256E-02
  0.748257E-02  0.733812E-02  0.748257E-02  0.792256E-02  0.867820E-02  0.978353E-02
  0.112867E-01  0.132479E-01  0.157331E-01  0.188058E-01  0.225144E-01  0.268728E-01
  0.318344E-01  0.372637E-01  0.429191E-01  0.484545E-01  0.534452E-01  0.574387E-01
  0.600270E-01  0.609241E-01  0.600270E-01  0.661851E-01  0.622761E-01  0.569632E-01
  0.507738E-01  0.442373E-01  0.378107E-01  0.318344E-01  0.265194E-01  0.219592E-01
  0.181593E-01  0.150706E-01  0.126185E-01  0.107214E-01  0.930200E-02  0.829470E-02
  0.765000E-02  0.733556E-02  0.733556E-02  0.765000E-02  0.829470E-02  0.930200E-02
  0.107214E-01  0.126185E-01  0.150706E-01  0.181593E-01  0.219592E-01  0.265194E-01
  0.318344E-01  0.378107E-01  0.442373E-01  0.507738E-01  0.569632E-01  0.622761E-01
  0.661851E-01  0.682608E-01  0.682608E-01  0.661851E-01  0.707429E-01  0.654290E-01
  0.588329E-01  0.515782E-01  0.442373E-01  0.372637E-01  0.309628E-01  0.254951E-01
  0.209031E-01  0.171487E-01  0.141508E-01  0.118135E-01  0.100420E-01  0.875270E-02
  0.787877E-02  0.737277E-02  0.720711E-02  0.737277E-02  0.787877E-02  0.875270E-02
  0.100420E-01  0.118135E-01  0.141508E-01  0.171487E-01  0.209031E-01  0.254951E-01
  0.309628E-01  0.372637E-01  0.442373E-01  0.515782E-01  0.588329E-01  0.654290E-01
  0.707429E-01  0.742032E-01  0.754054E-01  0.742032E-01  0.707429E-01  0.731719E-01
  0.665249E-01  0.588329E-01  0.507738E-01  0.429191E-01  0.356826E-01  0.293104E-01
  0.239012E-01  0.194440E-01  0.158619E-01  0.130488E-01  0.108944E-01  0.929768E-02
  0.817406E-02  0.745951E-02  0.711232E-02  0.711232E-02  0.745951E-02  0.817406E-02
  0.929768E-02  0.108944E-01  0.130488E-01  0.158619E-01  0.194440E-01  0.239012E-01
  0.293104E-01  0.356826E-01  0.429191E-01  0.507738E-01  0.588329E-01  0.665249E-01
  0.731719E-01  0.780875E-01  0.807059E-01  0.807059E-01  0.780875E-01  0.731719E-01
  0.731719E-01  0.654290E-01  0.569632E-01  0.484545E-01  0.404300E-01  0.332346E-01
  0.270414E-01  0.218850E-01  0.177071E-01  0.144009E-01  0.118451E-01  0.992377E-02
  0.853592E-02  0.760104E-02  0.706210E-02  0.688602E-02  0.706210E-02  0.760104E-02
  0.853592E-02  0.992377E-02  0.118451E-01  0.144009E-01  0.177071E-01  0.218850E-01
  0.270414E-01  0.332346E-01  0.404300E-01  0.484545E-01  0.569632E-01  0.654290E-01
  0.731719E-01  0.794397E-01  0.835350E-01  0.849604E-01  0.835350E-01  0.794397E-01
  0.731719E-01  0.707429E-01  0.622761E-01  0.534452E-01  0.448813E-01  0.370331E-01
  0.301609E-01  0.243623E-01  0.196148E-01  0.158243E-01  0.128668E-01  0.106160E-01
  0.895781E-02  0.779715E-02  0.706210E-02  0.670585E-02  0.670585E-02  0.706210E-02
  0.779715E-02  0.895781E-02  0.106160E-01  0.128668E-01  0.158243E-01  0.196148E-01
  0.243623E-01  0.301609E-01  0.370331E-01  0.448813E-01  0.534452E-01  0.622761E-01
  0.707429E-01  0.780875E-01  0.835350E-01  0.864422E-01  0.864422E-01  0.835350E-01
  0.780875E-01  0.707429E-01  0.661851E-01  0.574387E-01  0.486709E-01  0.404255E-01
  0.330549E-01  0.267323E-01  0.214873E-01  0.172542E-01  0.139177E-01  0.113489E-01
  0.942554E-02  0.804156E-02  0.711232E-02  0.657785E-02  0.640343E-02  0.657785E-02
  0.711232E-02  0.804156E-02  0.942554E-02  0.113489E-01  0.139177E-01  0.172542E-01
  0.214873E-01  0.267323E-01  0.330549E-01  0.404255E-01  0.486709E-01  0.574387E-01
  0.661851E-01  0.742032E-01  0.807059E-01  0.849604E-01  0.864422E-01  0.849604E-01
  0.807059E-01  0.742032E-01  0.661851E-01  0.600270E-01  0.514420E-01  0.431200E-01
  0.354977E-01  0.288285E-01  0.232066E-01  0.186088E-01  0.149427E-01  0.120866E-01
  0.991698E-02  0.832170E-02  0.720711E-02  0.650224E-02  0.616092E-02  0.616092E-02
  0.650224E-02  0.720711E-02  0.832170E-02  0.991698E-02  0.120866E-01  0.149427E-01
  0.186088E-01  0.232066E-01  0.288285E-01  0.354977E-01  0.431200E-01  0.514420E-01
  0.600270E-01  0.682608E-01  0.754054E-01  0.807059E-01  0.835350E-01  0.835350E-01
  0.807059E-01  0.754054E-01  0.682608E-01  0.600270E-01  0.529079E-01  0.448574E-01
  0.372727E-01  0.304811E-01  0.246455E-01  0.197969E-01  0.158779E-01  0.127854E-01
  0.104031E-01  0.861916E-02  0.733556E-02  0.647379E-02  0.597818E-02  0.581646E-02
  0.597818E-02  0.647379E-02  0.733556E-02  0.861916E-02  0.104031E-01  0.127854E-01
  0.158779E-01  0.197969E-01  0.246455E-01  0.304811E-01  0.372727E-01  0.448574E-01
  0.529079E-01  0.609241E-01  0.682608E-01  0.742032E-01  0.780875E-01  0.794397E-01
  0.780875E-01  0.742032E-01  0.682608E-01  0.609241E-01  0.529079E-01  0.454580E-01
  0.382080E-01  0.315413E-01  0.256847E-01  0.207273E-01  0.166561E-01  0.133973E-01
  0.108505E-01  0.891116E-02  0.748257E-02  0.648284E-02  0.584988E-02  0.554320E-02
  0.554320E-02  0.584988E-02  0.648284E-02  0.748257E-02  0.891116E-02  0.108505E-01
  0.133973E-01  0.166561E-01  0.207273E-01  0.256847E-01  0.315413E-01  0.382080E-01
  0.454580E-01  0.529079E-01  0.600270E-01  0.661851E-01  0.707429E-01  0.731719E-01
  0.731719E-01  0.707429E-01  0.661851E-01  0.600270E-01  0.529079E-01  0.454580E-01
  0.399896E-01  0.333289E-01  0.273512E-01  0.221988E-01  0.179012E-01  0.144142E-01
  0.116543E-01  0.952289E-02  0.792256E-02  0.676762E-02  0.599045E-02  0.554320E-02
  0.539729E-02  0.554320E-02  0.599045E-02  0.676762E-02  0.792256E-02  0.952289E-02
  0.116543E-01  0.144142E-01  0.179012E-01  0.221988E-01  0.273512E-01  0.333289E-01
  0.399896E-01  0.470481E-01  0.540673E-01  0.604839E-01  0.656757E-01  0.690668E-01
  0.702468E-01  0.690668E-01  0.656757E-01  0.604839E-01  0.540673E-01  0.470481E-01
  0.399896E-01  0.333289E-01  0.276727E-01  0.226788E-01  0.184265E-01  0.149131E-01
  0.120855E-01  0.986539E-02  0.816718E-02  0.691011E-02  0.602664E-02  0.546590E-02
  0.519406E-02  0.519406E-02  0.546590E-02  0.602664E-02  0.691011E-02  0.816718E-02
  0.986539E-02  0.120855E-01  0.149131E-01  0.184265E-01  0.226788E-01  0.276727E-01
  0.333289E-01  0.394554E-01  0.457300E-01  0.517090E-01  0.568679E-01  0.606783E-01
  0.627064E-01  0.627064E-01  0.606783E-01  0.568679E-01  0.517090E-01  0.457300E-01
  0.394554E-01  0.333289E-01  0.273512E-01  0.226788E-01  0.186073E-01  0.151745E-01
  0.123607E-01  0.101126E-01  0.836144E-02  0.703618E-02  0.607332E-02  0.542220E-02
  0.504635E-02  0.492358E-02  0.504635E-02  0.542220E-02  0.607332E-02  0.703618E-02
  0.836144E-02  0.101126E-01  0.123607E-01  0.151745E-01  0.186073E-01  0.226788E-01
  0.273512E-01  0.325035E-01  0.379104E-01  0.432397E-01  0.480737E-01  0.519600E-01
  0.544867E-01  0.553639E-01  0.544867E-01  0.519600E-01  0.480737E-01  0.432397E-01
  0.379104E-01  0.325035E-01  0.273512E-01  0.221988E-01  0.184265E-01  0.151745E-01
  0.124553E-01  0.102423E-01  0.848651E-02  0.713024E-02  0.611767E-02  0.540127E-02
  0.494456E-02  0.472262E-02  0.472262E-02  0.494456E-02  0.540127E-02  0.611767E-02
  0.713024E-02  0.848651E-02  0.102423E-01  0.124553E-01  0.151745E-01  0.184265E-01
  0.221988E-01  0.264192E-01  0.309374E-01  0.355160E-01  0.398377E-01  0.435371E-01
  0.462530E-01  0.476928E-01  0.476928E-01  0.462530E-01  0.435371E-01  0.398377E-01
  0.355160E-01  0.309374E-01  0.264192E-01  0.221988E-01  0.179012E-01  0.149131E-01
  0.123607E-01  0.102423E-01  0.852969E-02  0.718048E-02  0.614902E-02  0.539348E-02
  0.487957E-02  0.458186E-02  0.448443E-02  0.458186E-02  0.487957E-02  0.539348E-02
  0.614902E-02  0.718048E-02  0.852969E-02  0.102423E-01  0.123607E-01  0.149131E-01
  0.179012E-01  0.212845E-01  0.249665E-01  0.287833E-01  0.325040E-01  0.358470E-01
  0.385143E-01  0.402392E-01  0.408364E-01  0.402392E-01  0.385143E-01  0.358470E-01
  0.325040E-01  0.287833E-01  0.249665E-01  0.212845E-01  0.179012E-01  0.144142E-01
  0.120855E-01  0.101126E-01  0.848651E-02  0.718048E-02  0.616030E-02  0.539155E-02
  0.484389E-02  0.449309E-02  0.432210E-02  0.432210E-02  0.449309E-02  0.484389E-02
  0.539155E-02  0.616030E-02  0.718048E-02  0.848651E-02  0.101126E-01  0.120855E-01
  0.144142E-01  0.170787E-01  0.200186E-01  0.231241E-01  0.262324E-01  0.291346E-01
  0.315966E-01  0.333917E-01  0.343394E-01  0.343394E-01  0.333917E-01  0.315966E-01
  0.291346E-01  0.262324E-01  0.231241E-01  0.200186E-01  0.170787E-01  0.144142E-01
  0.116543E-01  0.986539E-02  0.836144E-02  0.713024E-02  0.614902E-02  0.539155E-02
  0.483257E-02  0.445028E-02  0.422792E-02  0.415499E-02  0.422792E-02  0.445028E-02
  0.483257E-02  0.539155E-02  0.614902E-02  0.713024E-02  0.836144E-02  0.986539E-02
  0.116543E-01  0.137207E-01  0.160287E-01  0.185063E-01  0.210414E-01  0.234837E-01
  0.256559E-01  0.273750E-01  0.284806E-01  0.288622E-01  0.284806E-01  0.273750E-01
  0.256559E-01  0.234837E-01  0.210414E-01  0.185063E-01  0.160287E-01  0.137207E-01
  0.116543E-01  0.952289E-02  0.816718E-02  0.703618E-02  0.611767E-02  0.539348E-02
  0.484389E-02  0.445028E-02  0.419706E-02  0.407324E-02  0.407324E-02  0.419706E-02
  0.445028E-02  0.484389E-02  0.539348E-02  0.611767E-02  0.703618E-02  0.816718E-02
  0.952289E-02  0.111031E-01  0.128880E-01  0.148320E-01  0.168595E-01  0.188646E-01
  0.207170E-01  0.222745E-01  0.234026E-01  0.239957E-01  0.239957E-01  0.234026E-01
  0.222745E-01  0.207170E-01  0.188646E-01  0.168595E-01  0.148320E-01  0.128880E-01
  0.111031E-01  0.952289E-02  0.792256E-02  0.691011E-02  0.607332E-02  0.540127E-02
  0.487957E-02  0.449309E-02  0.422792E-02  0.407324E-02  0.402241E-02  0.407324E-02
  0.422792E-02  0.449309E-02  0.487957E-02  0.540127E-02  0.607332E-02  0.691011E-02
  0.792256E-02  0.911392E-02  0.104745E-01  0.119764E-01  0.135701E-01  0.151827E-01
  0.167202E-01  0.180754E-01  0.191404E-01  0.198220E-01  0.200566E-01  0.198220E-01
  0.191404E-01  0.180754E-01  0.167202E-01  0.151827E-01  0.135701E-01  0.119764E-01
  0.104745E-01  0.911392E-02  0.792256E-02  0.676762E-02  0.602664E-02  0.542220E-02
  0.494456E-02  0.458186E-02  0.432210E-02  0.415499E-02  0.407324E-02  0.407324E-02
  0.415499E-02  0.432210E-02  0.458186E-02  0.494456E-02  0.542220E-02  0.602664E-02
  0.676762E-02  0.765000E-02  0.867011E-02  0.981183E-02  0.110434E-01  0.123157E-01
  0.135625E-01  0.147047E-01  0.156585E-01  0.163457E-01  0.167059E-01  0.167059E-01
  0.163457E-01  0.156585E-01  0.147047E-01  0.135625E-01  0.123157E-01  0.110434E-01
  0.981183E-02  0.867011E-02  0.765000E-02  0.676762E-02  0.599045E-02  0.546590E-02
  0.504635E-02  0.472262E-02  0.448443E-02  0.432210E-02  0.422792E-02  0.419706E-02
  0.422792E-02  0.432210E-02  0.448443E-02  0.472262E-02  0.504635E-02  0.546590E-02
  0.599045E-02  0.662601E-02  0.737277E-02  0.822228E-02  0.915490E-02  0.101381E-01
  0.111263E-01  0.120622E-01  0.128822E-01  0.135234E-01  0.139323E-01  0.140729E-01
  0.139323E-01  0.135234E-01  0.128822E-01  0.120622E-01  0.111263E-01  0.101381E-01
  0.915490E-02  0.822228E-02  0.737277E-02  0.662601E-02  0.599045E-02  0.554320E-02
  0.519406E-02  0.492358E-02  0.472262E-02  0.458186E-02  0.449309E-02  0.445028E-02
  0.445028E-02  0.449309E-02  0.458186E-02  0.472262E-02  0.492358E-02  0.519406E-02
  0.554320E-02  0.597818E-02  0.650224E-02  0.711232E-02  0.779715E-02  0.853592E-02
  0.929768E-02  0.100420E-01  0.107214E-01  0.112867E-01  0.116928E-01  0.119053E-01
  0.119053E-01  0.116928E-01  0.112867E-01  0.107214E-01  0.100420E-01  0.929768E-02
  0.853592E-02  0.779715E-02  0.711232E-02  0.650224E-02  0.597818E-02  0.554320E-02
  0.539729E-02  0.519406E-02  0.504635E-02  0.494456E-02  0.487957E-02  0.484389E-02
  0.483257E-02  0.484389E-02  0.487957E-02  0.494456E-02  0.504635E-02  0.519406E-02
  0.539729E-02  0.566466E-02  0.600210E-02  0.641089E-02  0.688602E-02  0.741512E-02
  0.797790E-02  0.854636E-02  0.908606E-02  0.955913E-02  0.992880E-02  0.101643E-01
  0.102452E-01  0.101643E-01  0.992880E-02  0.955913E-02  0.908606E-02  0.854636E-02
  0.797790E-02  0.741512E-02  0.688602E-02  0.641089E-02  0.600210E-02  0.566466E-02
  0.539729E-02  0.554320E-02  0.546590E-02  0.542220E-02  0.540127E-02  0.539348E-02
  0.539155E-02  0.539155E-02  0.539348E-02  0.540127E-02  0.542220E-02  0.546590E-02
  0.554320E-02  0.566466E-02  0.583906E-02  0.607160E-02  0.636247E-02  0.670585E-02
  0.708945E-02  0.749460E-02  0.789687E-02  0.826793E-02  0.857856E-02  0.880241E-02
  0.891966E-02  0.891966E-02  0.880241E-02  0.857856E-02  0.826793E-02  0.789687E-02
  0.749460E-02  0.708945E-02  0.670585E-02  0.636247E-02  0.607160E-02  0.583906E-02
  0.566466E-02  0.554320E-02  0.599045E-02  0.602664E-02  0.607332E-02  0.611767E-02
  0.614902E-02  0.616030E-02  0.614902E-02  0.611767E-02  0.607332E-02  0.602664E-02
  0.599045E-02  0.597818E-02  0.600210E-02  0.607160E-02  0.619177E-02  0.636247E-02
  0.657785E-02  0.682644E-02  0.709155E-02  0.735256E-02  0.758691E-02  0.777290E-02
  0.789249E-02  0.793374E-02  0.789249E-02  0.777290E-02  0.758691E-02  0.735256E-02
  0.709155E-02  0.682644E-02  0.657785E-02  0.636247E-02  0.619177E-02  0.607160E-02
  0.600210E-02  0.597818E-02  0.599045E-02  0.676762E-02  0.691011E-02  0.703618E-02
  0.713024E-02  0.718048E-02  0.718048E-02  0.713024E-02  0.703618E-02  0.691011E-02
  0.676762E-02  0.662601E-02  0.650224E-02  0.641089E-02  0.636247E-02  0.636247E-02
  0.641089E-02  0.650224E-02  0.662601E-02  0.676762E-02  0.691011E-02  0.703618E-02
  0.713024E-02  0.718048E-02  0.718048E-02  0.713024E-02  0.703618E-02  0.691011E-02
  0.676762E-02  0.662601E-02  0.650224E-02  0.641089E-02  0.636247E-02  0.636247E-02
  0.641089E-02  0.650224E-02  0.662601E-02  0.676762E-02  0.792256E-02  0.816718E-02
  0.836144E-02  0.848651E-02  0.852969E-02  0.848651E-02  0.836144E-02  0.816718E-02
  0.792256E-02  0.765000E-02  0.737277E-02  0.711232E-02  0.688602E-02  0.670585E-02
  0.657785E-02  0.650224E-02  0.647379E-02  0.648284E-02  0.651684E-02  0.656217E-02
  0.660583E-02  0.663695E-02  0.664819E-02  0.663695E-02  0.660583E-02  0.656217E-02
  0.651684E-02  0.648284E-02  0.647379E-02  0.650224E-02  0.657785E-02  0.670585E-02
  0.688602E-02  0.711232E-02  0.737277E-02  0.765000E-02  0.792256E-02  0.952289E-02
  0.986539E-02  0.101126E-01  0.102423E-01  0.102423E-01  0.101126E-01  0.986539E-02
  0.952289E-02  0.911392E-02  0.867011E-02  0.822228E-02  0.779715E-02  0.741512E-02
  0.708945E-02  0.682644E-02  0.662601E-02  0.648284E-02  0.638793E-02  0.633045E-02
  0.629943E-02  0.628509E-02  0.627995E-02  0.627995E-02  0.628509E-02  0.629943E-02
  0.633045E-02  0.638793E-02  0.648284E-02  0.662601E-02  0.682644E-02  0.708945E-02
  0.741512E-02  0.779715E-02  0.822228E-02  0.867011E-02  0.911392E-02  0.952289E-02
  0.116543E-01  0.120855E-01  0.123607E-01  0.124553E-01  0.123607E-01  0.120855E-01
  0.116543E-01  0.111031E-01  0.104745E-01  0.981183E-02  0.915490E-02  0.853592E-02
  0.797790E-02  0.749460E-02  0.709155E-02  0.676762E-02  0.651684E-02  0.633045E-02
  0.619872E-02  0.611240E-02  0.606393E-02  0.604834E-02  0.606393E-02  0.611240E-02
  0.619872E-02  0.633045E-02  0.651684E-02  0.676762E-02  0.709155E-02  0.749460E-02
  0.797790E-02  0.853592E-02  0.915490E-02  0.981183E-02  0.104745E-01  0.111031E-01
  0.116543E-01  0.144142E-01  0.149131E-01  0.151745E-01  0.151745E-01  0.149131E-01
  0.144142E-01  0.137207E-01  0.128880E-01  0.119764E-01  0.110434E-01  0.101381E-01
  0.929768E-02  0.854636E-02  0.789687E-02  0.735256E-02  0.691011E-02  0.656217E-02
  0.629943E-02  0.611240E-02  0.599274E-02  0.593446E-02  0.593446E-02  0.599274E-02
  0.611240E-02  0.629943E-02  0.656217E-02  0.691011E-02  0.735256E-02  0.789687E-02
  0.854636E-02  0.929768E-02  0.101381E-01  0.110434E-01  0.119764E-01  0.128880E-01
  0.137207E-01  0.144142E-01  0.179012E-01  0.184265E-01  0.186073E-01  0.184265E-01
  0.179012E-01  0.170787E-01  0.160287E-01  0.148320E-01  0.135701E-01  0.123157E-01
  0.111263E-01  0.100420E-01  0.908606E-02  0.826793E-02  0.758691E-02  0.703618E-02
  0.660583E-02  0.628509E-02  0.606393E-02  0.593446E-02  0.589185E-02  0.593446E-02
  0.606393E-02  0.628509E-02  0.660583E-02  0.703618E-02  0.758691E-02  0.826793E-02
  0.908606E-02  0.100420E-01  0.111263E-01  0.123157E-01  0.135701E-01  0.148320E-01
  0.160287E-01  0.170787E-01  0.179012E-01  0.221988E-01  0.226788E-01  0.226788E-01
  0.221988E-01  0.212845E-01  0.200186E-01  0.185063E-01  0.168595E-01  0.151827E-01
  0.135625E-01  0.120622E-01  0.107214E-01  0.955913E-02  0.857856E-02  0.777290E-02
  0.713024E-02  0.663695E-02  0.627995E-02  0.604834E-02  0.593446E-02  0.593446E-02
  0.604834E-02  0.627995E-02  0.663695E-02  0.713024E-02  0.777290E-02  0.857856E-02
  0.955913E-02  0.107214E-01  0.120622E-01  0.135625E-01  0.151827E-01  0.168595E-01
  0.185063E-01  0.200186E-01  0.212845E-01  0.221988E-01  0.273512E-01  0.276727E-01
  0.273512E-01  0.264192E-01  0.249665E-01  0.231241E-01  0.210414E-01  0.188646E-01
  0.167202E-01  0.147047E-01  0.128822E-01  0.112867E-01  0.992880E-02  0.880241E-02
  0.789249E-02  0.718048E-02  0.664819E-02  0.627995E-02  0.606393E-02  0.599274E-02
  0.606393E-02  0.627995E-02  0.664819E-02  0.718048E-02  0.789249E-02  0.880241E-02
  0.992880E-02  0.112867E-01  0.128822E-01  0.147047E-01  0.167202E-01  0.188646E-01
  0.210414E-01  0.231241E-01  0.249665E-01  0.264192E-01  0.273512E-01  0.333289E-01
  0.333289E-01  0.325035E-01  0.309374E-01  0.287833E-01  0.262324E-01  0.234837E-01
  0.207170E-01  0.180754E-01  0.156585E-01  0.135234E-01  0.116928E-01  0.101643E-01
  0.891966E-02  0.793374E-02  0.718048E-02  0.663695E-02  0.628509E-02  0.611240E-02
  0.611240E-02  0.628509E-02  0.663695E-02  0.718048E-02  0.793374E-02  0.891966E-02
  0.101643E-01  0.116928E-01  0.135234E-01  0.156585E-01  0.180754E-01  0.207170E-01
  0.234837E-01  0.262324E-01  0.287833E-01  0.309374E-01  0.325035E-01  0.333289E-01
  0.399896E-01  0.394554E-01  0.379104E-01  0.355160E-01  0.325040E-01  0.291346E-01
  0.256559E-01  0.222745E-01  0.191404E-01  0.163457E-01  0.139323E-01  0.119053E-01
  0.102452E-01  0.891966E-02  0.789249E-02  0.713024E-02  0.660583E-02  0.629943E-02
  0.619872E-02  0.629943E-02  0.660583E-02  0.713024E-02  0.789249E-02  0.891966E-02
  0.102452E-01  0.119053E-01  0.139323E-01  0.163457E-01  0.191404E-01  0.222745E-01
  0.256559E-01  0.291346E-01  0.325040E-01  0.355160E-01  0.379104E-01  0.394554E-01
  0.399896E-01  0.470481E-01  0.457300E-01  0.432397E-01  0.398377E-01  0.358470E-01
  0.315966E-01  0.273750E-01  0.234026E-01  0.198220E-01  0.167059E-01  0.140729E-01
  0.119053E-01  0.101643E-01  0.880241E-02  0.777290E-02  0.703618E-02  0.656217E-02
  0.633045E-02  0.633045E-02  0.656217E-02  0.703618E-02  0.777290E-02  0.880241E-02
  0.101643E-01  0.119053E-01  0.140729E-01  0.167059E-01  0.198220E-01  0.234026E-01
  0.273750E-01  0.315966E-01  0.358470E-01  0.398377E-01  0.432397E-01  0.457300E-01
  0.470481E-01  0.470481E-01  0.540673E-01  0.517090E-01  0.480737E-01  0.435371E-01
  0.385143E-01  0.333917E-01  0.284806E-01  0.239957E-01  0.200566E-01  0.167059E-01
  0.139323E-01  0.116928E-01  0.992880E-02  0.857856E-02  0.758691E-02  0.691011E-02
  0.651684E-02  0.638793E-02  0.651684E-02  0.691011E-02  0.758691E-02  0.857856E-02
  0.992880E-02  0.116928E-01  0.139323E-01  0.167059E-01  0.200566E-01  0.239957E-01
  0.284806E-01  0.333917E-01  0.385143E-01  0.435371E-01  0.480737E-01  0.517090E-01
  0.540673E-01  0.548851E-01  0.540673E-01  0.604839E-01  0.568679E-01  0.519600E-01
  0.462530E-01  0.402392E-01  0.343394E-01  0.288622E-01  0.239957E-01  0.198220E-01
  0.163457E-01  0.135234E-01  0.112867E-01  0.955913E-02  0.826793E-02  0.735256E-02
  0.676762E-02  0.648284E-02  0.648284E-02  0.676762E-02  0.735256E-02  0.826793E-02
  0.955913E-02  0.112867E-01  0.135234E-01  0.163457E-01  0.198220E-01  0.239957E-01
  0.288622E-01  0.343394E-01  0.402392E-01  0.462530E-01  0.519600E-01  0.568679E-01
  0.604839E-01  0.624055E-01  0.624055E-01  0.604839E-01  0.656757E-01  0.606783E-01
  0.544867E-01  0.476928E-01  0.408364E-01  0.343394E-01  0.284806E-01  0.234026E-01
  0.191404E-01  0.156585E-01  0.128822E-01  0.107214E-01  0.908606E-02  0.789687E-02
  0.709155E-02  0.662601E-02  0.647379E-02  0.662601E-02  0.709155E-02  0.789687E-02
  0.908606E-02  0.107214E-01  0.128822E-01  0.156585E-01  0.191404E-01  0.234026E-01
  0.284806E-01  0.343394E-01  0.408364E-01  0.476928E-01  0.544867E-01  0.606783E-01
  0.656757E-01  0.689340E-01  0.700668E-01  0.689340E-01  0.656757E-01  0.690668E-01
  0.627064E-01  0.553639E-01  0.476928E-01  0.402392E-01  0.333917E-01  0.273750E-01
  0.222745E-01  0.180754E-01  0.147047E-01  0.120622E-01  0.100420E-01  0.854636E-02
  0.749460E-02  0.682644E-02  0.650224E-02  0.650224E-02  0.682644E-02  0.749460E-02
  0.854636E-02  0.100420E-01  0.120622E-01  0.147047E-01  0.180754E-01  0.222745E-01
  0.273750E-01  0.333917E-01  0.402392E-01  0.476928E-01  0.553639E-01  0.627064E-01
  0.690668E-01  0.737789E-01  0.762917E-01  0.762917E-01  0.737789E-01  0.690668E-01
  0.702468E-01  0.627064E-01  0.544867E-01  0.462530E-01  0.385143E-01  0.315966E-01
  0.256559E-01  0.207170E-01  0.167202E-01  0.135625E-01  0.111263E-01  0.929768E-02
  0.797790E-02  0.708945E-02  0.657785E-02  0.641089E-02  0.657785E-02  0.708945E-02
  0.797790E-02  0.929768E-02  0.111263E-01  0.135625E-01  0.167202E-01  0.207170E-01
  0.256559E-01  0.315966E-01  0.385143E-01  0.462530E-01  0.544867E-01  0.627064E-01
  0.702468E-01  0.763653E-01  0.803697E-01  0.817646E-01  0.803697E-01  0.763653E-01
  0.702468E-01  0.690668E-01  0.606783E-01  0.519600E-01  0.435371E-01  0.358470E-01
  0.291346E-01  0.234837E-01  0.188646E-01  0.151827E-01  0.123157E-01  0.101381E-01
  0.853592E-02  0.741512E-02  0.670585E-02  0.636247E-02  0.636247E-02  0.670585E-02
  0.741512E-02  0.853592E-02  0.101381E-01  0.123157E-01  0.151827E-01  0.188646E-01
  0.234837E-01  0.291346E-01  0.358470E-01  0.435371E-01  0.519600E-01  0.606783E-01
  0.690668E-01  0.763653E-01  0.817910E-01  0.846906E-01  0.846906E-01  0.817910E-01
  0.763653E-01  0.690668E-01  0.656757E-01  0.568679E-01  0.480737E-01  0.398377E-01
  0.325040E-01  0.262324E-01  0.210414E-01  0.168595E-01  0.135701E-01  0.110434E-01
  0.915490E-02  0.779715E-02  0.688602E-02  0.636247E-02  0.619177E-02  0.636247E-02
  0.688602E-02  0.779715E-02  0.915490E-02  0.110434E-01  0.135701E-01  0.168595E-01
  0.210414E-01  0.262324E-01  0.325040E-01  0.398377E-01  0.480737E-01  0.568679E-01
  0.656757E-01  0.737789E-01  0.803697E-01  0.846906E-01  0.861970E-01  0.846906E-01
  0.803697E-01  0.737789E-01  0.656757E-01  0.604839E-01  0.517090E-01  0.432397E-01
  0.355160E-01  0.287833E-01  0.231241E-01  0.185063E-01  0.148320E-01  0.119764E-01
  0.981183E-02  0.822228E-02  0.711232E-02  0.641089E-02  0.607160E-02  0.607160E-02
  0.641089E-02  0.711232E-02  0.822228E-02  0.981183E-02  0.119764E-01  0.148320E-01
  0.185063E-01  0.231241E-01  0.287833E-01  0.355160E-01  0.432397E-01  0.517090E-01
  0.604839E-01  0.689340E-01  0.762917E-01  0.817646E-01  0.846906E-01  0.846906E-01
  0.817646E-01  0.762917E-01  0.689340E-01  0.604839E-01  0.540673E-01  0.457300E-01
  0.379104E-01  0.309374E-01  0.249665E-01  0.200186E-01  0.160287E-01  0.128880E-01
  0.104745E-01  0.867011E-02  0.737277E-02  0.650224E-02  0.600210E-02  0.583906E-02
  0.600210E-02  0.650224E-02  0.737277E-02  0.867011E-02  0.104745E-01  0.128880E-01
  0.160287E-01  0.200186E-01  0.249665E-01  0.309374E-01  0.379104E-01  0.457300E-01
  0.540673E-01  0.624055E-01  0.700668E-01  0.762917E-01  0.803697E-01  0.817910E-01
  0.803697E-01  0.762917E-01  0.700668E-01  0.624055E-01  0.540673E-01  0.470481E-01
  0.394554E-01  0.325035E-01  0.264192E-01  0.212845E-01  0.170787E-01  0.137207E-01
  0.111031E-01  0.911392E-02  0.765000E-02  0.662601E-02  0.597818E-02  0.566466E-02
  0.566466E-02  0.597818E-02  0.662601E-02  0.765000E-02  0.911392E-02  0.111031E-01
  0.137207E-01  0.170787E-01  0.212845E-01  0.264192E-01  0.325035E-01  0.394554E-01
  0.470481E-01  0.548851E-01  0.624055E-01  0.689340E-01  0.737789E-01  0.763653E-01
  0.763653E-01  0.737789E-01  0.689340E-01  0.624055E-01  0.548851E-01  0.470481E-01
  0.399896E-01  0.333289E-01  0.273512E-01  0.221988E-01  0.179012E-01  0.144142E-01
  0.116543E-01  0.952289E-02  0.792256E-02  0.676762E-02  0.599045E-02  0.554320E-02
  0.539729E-02  0.554320E-02  0.599045E-02  0.676762E-02  0.792256E-02  0.952289E-02
  0.116543E-01  0.144142E-01  0.179012E-01  0.221988E-01  0.273512E-01  0.333289E-01
  0.399896E-01  0.470481E-01  0.540673E-01  0.604839E-01  0.656757E-01  0.690668E-01
  0.702468E-01  0.690668E-01  0.656757E-01  0.604839E-01  0.540673E-01  0.470481E-01
  0.399896E-01  0.353829E-01  0.293520E-01  0.240400E-01  0.195261E-01  0.158036E-01
  0.128134E-01  0.104694E-01  0.867820E-02  0.735256E-02  0.642083E-02  0.582963E-02
  0.554320E-02  0.554320E-02  0.582963E-02  0.642083E-02  0.735256E-02  0.867820E-02
  0.104694E-01  0.128134E-01  0.158036E-01  0.195261E-01  0.240400E-01  0.293520E-01
  0.353829E-01  0.419329E-01  0.486604E-01  0.550879E-01  0.606462E-01  0.647584E-01
  0.669492E-01  0.669492E-01  0.647584E-01  0.606462E-01  0.550879E-01  0.486604E-01
  0.419329E-01  0.353829E-01  0.293520E-01  0.243241E-01  0.199527E-01  0.162747E-01
  0.132659E-01  0.108663E-01  0.899932E-02  0.758691E-02  0.656057E-02  0.586645E-02
  0.546590E-02  0.533512E-02  0.546590E-02  0.586645E-02  0.656057E-02  0.758691E-02
  0.899932E-02  0.108663E-01  0.132659E-01  0.162747E-01  0.199527E-01  0.243241E-01
  0.293520E-01  0.349104E-01  0.407596E-01  0.465409E-01  0.517979E-01  0.560327E-01
  0.587897E-01  0.597475E-01  0.587897E-01  0.560327E-01  0.517979E-01  0.465409E-01
  0.407596E-01  0.349104E-01  0.293520E-01  0.240400E-01  0.199527E-01  0.164367E-01
  0.135029E-01  0.111195E-01  0.923096E-02  0.777290E-02  0.668414E-02  0.591353E-02
  0.542220E-02  0.518347E-02  0.518347E-02  0.542220E-02  0.591353E-02  0.668414E-02
  0.777290E-02  0.923096E-02  0.111195E-01  0.135029E-01  0.164367E-01  0.199527E-01
  0.240400E-01  0.286236E-01  0.335432E-01  0.385417E-01  0.432718E-01  0.473298E-01
  0.503138E-01  0.518974E-01  0.518974E-01  0.503138E-01  0.473298E-01  0.432718E-01
  0.385417E-01  0.335432E-01  0.286236E-01  0.240400E-01  0.195261E-01  0.162747E-01
  0.135029E-01  0.112066E-01  0.935240E-02  0.789249E-02  0.677621E-02  0.595806E-02
  0.540127E-02  0.507863E-02  0.497304E-02  0.507863E-02  0.540127E-02  0.595806E-02
  0.677621E-02  0.789249E-02  0.935240E-02  0.112066E-01  0.135029E-01  0.162747E-01
  0.195261E-01  0.232158E-01  0.272404E-01  0.314224E-01  0.355091E-01  0.391891E-01
  0.421307E-01  0.440356E-01  0.446955E-01  0.440356E-01  0.421307E-01  0.391891E-01
  0.355091E-01  0.314224E-01  0.272404E-01  0.232158E-01  0.195261E-01  0.158036E-01
  0.132659E-01  0.111195E-01  0.935240E-02  0.793374E-02  0.682529E-02  0.598944E-02
  0.539348E-02  0.501147E-02  0.482520E-02  0.482520E-02  0.501147E-02  0.539348E-02
  0.598944E-02  0.682529E-02  0.793374E-02  0.935240E-02  0.111195E-01  0.132659E-01
  0.158036E-01  0.187131E-01  0.219301E-01  0.253356E-01  0.287516E-01  0.319478E-01
  0.346643E-01  0.366480E-01  0.376963E-01  0.376963E-01  0.366480E-01  0.346643E-01
  0.319478E-01  0.287516E-01  0.253356E-01  0.219301E-01  0.187131E-01  0.158036E-01
  0.128134E-01  0.108663E-01  0.923096E-02  0.789249E-02  0.682529E-02  0.600070E-02
  0.539155E-02  0.497451E-02  0.473173E-02  0.465206E-02  0.473173E-02  0.497451E-02
  0.539155E-02  0.600070E-02  0.682529E-02  0.789249E-02  0.923096E-02  0.108663E-01
  0.128134E-01  0.150659E-01  0.175865E-01  0.202975E-01  0.230769E-01  0.257596E-01
  0.281497E-01  0.300442E-01  0.312640E-01  0.316852E-01  0.312640E-01  0.300442E-01
  0.281497E-01  0.257596E-01  0.230769E-01  0.202975E-01  0.175865E-01  0.150659E-01
  0.128134E-01  0.104694E-01  0.899932E-02  0.777290E-02  0.677621E-02  0.598944E-02
  0.539155E-02  0.496277E-02  0.468658E-02  0.455139E-02  0.455139E-02  0.468658E-02
  0.496277E-02  0.539155E-02  0.598944E-02  0.677621E-02  0.777290E-02  0.899932E-02
  0.104694E-01  0.121843E-01  0.141237E-01  0.162395E-01  0.184499E-01  0.206397E-01
  0.226657E-01  0.243716E-01  0.256084E-01  0.262592E-01  0.262592E-01  0.256084E-01
  0.243716E-01  0.226657E-01  0.206397E-01  0.184499E-01  0.162395E-01  0.141237E-01
  0.121843E-01  0.104694E-01  0.867820E-02  0.758691E-02  0.668414E-02  0.595806E-02
  0.539348E-02  0.497451E-02  0.468658E-02  0.451838E-02  0.446305E-02  0.451838E-02
  0.468658E-02  0.497451E-02  0.539348E-02  0.595806E-02  0.668414E-02  0.758691E-02
  0.867820E-02  0.996203E-02  0.114289E-01  0.130498E-01  0.147720E-01  0.165171E-01
  0.181833E-01  0.196536E-01  0.208102E-01  0.215508E-01  0.218059E-01  0.215508E-01
  0.208102E-01  0.196536E-01  0.181833E-01  0.165171E-01  0.147720E-01  0.130498E-01
  0.114289E-01  0.996203E-02  0.867820E-02  0.735256E-02  0.656057E-02  0.591353E-02
  0.540127E-02  0.501147E-02  0.473173E-02  0.455139E-02  0.446305E-02  0.446305E-02
  0.455139E-02  0.473173E-02  0.501147E-02  0.540127E-02  0.591353E-02  0.656057E-02
  0.735256E-02  0.829470E-02  0.938336E-02  0.106019E-01  0.119173E-01  0.132774E-01
  0.146117E-01  0.158354E-01  0.168580E-01  0.175953E-01  0.179819E-01  0.179819E-01
  0.175953E-01  0.168580E-01  0.158354E-01  0.146117E-01  0.132774E-01  0.119173E-01
  0.106019E-01  0.938336E-02  0.829470E-02  0.735256E-02  0.642083E-02  0.586645E-02
  0.542220E-02  0.507863E-02  0.482520E-02  0.465206E-02  0.455139E-02  0.451838E-02
  0.455139E-02  0.465206E-02  0.482520E-02  0.507863E-02  0.542220E-02  0.586645E-02
  0.642083E-02  0.709155E-02  0.787877E-02  0.877367E-02  0.975590E-02  0.107917E-01
  0.118332E-01  0.128204E-01  0.136859E-01  0.143630E-01  0.147951E-01  0.149437E-01
  0.147951E-01  0.143630E-01  0.136859E-01  0.128204E-01  0.118332E-01  0.107917E-01
  0.975590E-02  0.877367E-02  0.787877E-02  0.709155E-02  0.642083E-02  0.582963E-02
  0.546590E-02  0.518347E-02  0.497304E-02  0.482520E-02  0.473173E-02  0.468658E-02
  0.468658E-02  0.473173E-02  0.482520E-02  0.497304E-02  0.518347E-02  0.546590E-02
  0.582963E-02  0.628206E-02  0.682644E-02  0.745951E-02  0.816961E-02  0.893533E-02
  0.972478E-02  0.104962E-01  0.112007E-01  0.117870E-01  0.122085E-01  0.124291E-01
  0.124291E-01  0.122085E-01  0.117870E-01  0.112007E-01  0.104962E-01  0.972478E-02
  0.893533E-02  0.816961E-02  0.745951E-02  0.682644E-02  0.628206E-02  0.582963E-02
  0.554320E-02  0.533512E-02  0.518347E-02  0.507863E-02  0.501147E-02  0.497451E-02
  0.496277E-02  0.497451E-02  0.501147E-02  0.507863E-02  0.518347E-02  0.533512E-02
  0.554320E-02  0.581646E-02  0.616092E-02  0.657785E-02  0.706210E-02  0.760104E-02
  0.817406E-02  0.875270E-02  0.930200E-02  0.978353E-02  0.101599E-01  0.103998E-01
  0.104823E-01  0.103998E-01  0.101599E-01  0.978353E-02  0.930200E-02  0.875270E-02
  0.817406E-02  0.760104E-02  0.706210E-02  0.657785E-02  0.616092E-02  0.581646E-02
  0.554320E-02  0.554320E-02  0.546590E-02  0.542220E-02  0.540127E-02  0.539348E-02
  0.539155E-02  0.539155E-02  0.539348E-02  0.540127E-02  0.542220E-02  0.546590E-02
  0.554320E-02  0.566466E-02  0.583906E-02  0.607160E-02  0.636247E-02  0.670585E-02
  0.708945E-02  0.749460E-02  0.789687E-02  0.826793E-02  0.857856E-02  0.880241E-02
  0.891966E-02  0.891966E-02  0.880241E-02  0.857856E-02  0.826793E-02  0.789687E-02
  0.749460E-02  0.708945E-02  0.670585E-02  0.636247E-02  0.607160E-02  0.583906E-02
  0.566466E-02  0.554320E-02  0.582963E-02  0.586645E-02  0.591353E-02  0.595806E-02
  0.598944E-02  0.600070E-02  0.598944E-02  0.595806E-02  0.591353E-02  0.586645E-02
  0.582963E-02  0.581646E-02  0.583906E-02  0.590666E-02  0.602428E-02  0.619177E-02
  0.640343E-02  0.664799E-02  0.690906E-02  0.716628E-02  0.739728E-02  0.758054E-02
  0.769828E-02  0.773888E-02  0.769828E-02  0.758054E-02  0.739728E-02  0.716628E-02
  0.690906E-02  0.664799E-02  0.640343E-02  0.619177E-02  0.602428E-02  0.590666E-02
  0.583906E-02  0.581646E-02  0.582963E-02  0.642083E-02  0.656057E-02  0.668414E-02
  0.677621E-02  0.682529E-02  0.682529E-02  0.677621E-02  0.668414E-02  0.656057E-02
  0.642083E-02  0.628206E-02  0.616092E-02  0.607160E-02  0.602428E-02  0.602428E-02
  0.607160E-02  0.616092E-02  0.628206E-02  0.642083E-02  0.656057E-02  0.668414E-02
  0.677621E-02  0.682529E-02  0.682529E-02  0.677621E-02  0.668414E-02  0.656057E-02
  0.642083E-02  0.628206E-02  0.616092E-02  0.607160E-02  0.602428E-02  0.602428E-02
  0.607160E-02  0.616092E-02  0.628206E-02  0.642083E-02  0.735256E-02  0.758691E-02
  0.777290E-02  0.789249E-02  0.793374E-02  0.789249E-02  0.777290E-02  0.758691E-02
  0.735256E-02  0.709155E-02  0.682644E-02  0.657785E-02  0.636247E-02  0.619177E-02
  0.607160E-02  0.600210E-02  0.597818E-02  0.599045E-02  0.602664E-02  0.607332E-02
  0.611767E-02  0.614902E-02  0.616030E-02  0.614902E-02  0.611767E-02  0.607332E-02
  0.602664E-02  0.599045E-02  0.597818E-02  0.600210E-02  0.607160E-02  0.619177E-02
  0.636247E-02  0.657785E-02  0.682644E-02  0.709155E-02  0.735256E-02  0.867820E-02
  0.899932E-02  0.923096E-02  0.935240E-02  0.935240E-02  0.923096E-02  0.899932E-02
  0.867820E-02  0.829470E-02  0.787877E-02  0.745951E-02  0.706210E-02  0.670585E-02
  0.640343E-02  0.616092E-02  0.597818E-02  0.584988E-02  0.576706E-02  0.571901E-02
  0.569489E-02  0.568506E-02  0.568215E-02  0.568215E-02  0.568506E-02  0.569489E-02
  0.571901E-02  0.576706E-02  0.584988E-02  0.597818E-02  0.616092E-02  0.640343E-02
  0.670585E-02  0.706210E-02  0.745951E-02  0.787877E-02  0.829470E-02  0.867820E-02
  0.104694E-01  0.108663E-01  0.111195E-01  0.112066E-01  0.111195E-01  0.108663E-01
  0.104694E-01  0.996203E-02  0.938336E-02  0.877367E-02  0.816961E-02  0.760104E-02
  0.708945E-02  0.664799E-02  0.628206E-02  0.599045E-02  0.576706E-02  0.560300E-02
  0.548855E-02  0.541457E-02  0.537354E-02  0.536045E-02  0.537354E-02  0.541457E-02
  0.548855E-02  0.560300E-02  0.576706E-02  0.599045E-02  0.628206E-02  0.664799E-02
  0.708945E-02  0.760104E-02  0.816961E-02  0.877367E-02  0.938336E-02  0.996203E-02
  0.104694E-01  0.128134E-01  0.132659E-01  0.135029E-01  0.135029E-01  0.132659E-01
  0.128134E-01  0.121843E-01  0.114289E-01  0.106019E-01  0.975590E-02  0.893533E-02
  0.817406E-02  0.749460E-02  0.690906E-02  0.642083E-02  0.602664E-02  0.571901E-02
  0.548855E-02  0.532575E-02  0.522231E-02  0.517217E-02  0.517217E-02  0.522231E-02
  0.532575E-02  0.548855E-02  0.571901E-02  0.602664E-02  0.642083E-02  0.690906E-02
  0.749460E-02  0.817406E-02  0.893533E-02  0.975590E-02  0.106019E-01  0.114289E-01
  0.121843E-01  0.128134E-01  0.158036E-01  0.162747E-01  0.164367E-01  0.162747E-01
  0.158036E-01  0.150659E-01  0.141237E-01  0.130498E-01  0.119173E-01  0.107917E-01
  0.972478E-02  0.875270E-02  0.789687E-02  0.716628E-02  0.656057E-02  0.607332E-02
  0.569489E-02  0.541457E-02  0.522231E-02  0.511019E-02  0.507335E-02  0.511019E-02
  0.522231E-02  0.541457E-02  0.569489E-02  0.607332E-02  0.656057E-02  0.716628E-02
  0.789687E-02  0.875270E-02  0.972478E-02  0.107917E-01  0.119173E-01  0.130498E-01
  0.141237E-01  0.150659E-01  0.158036E-01  0.195261E-01  0.199527E-01  0.199527E-01
  0.195261E-01  0.187131E-01  0.175865E-01  0.162395E-01  0.147720E-01  0.132774E-01
  0.118332E-01  0.104962E-01  0.930200E-02  0.826793E-02  0.739728E-02  0.668414E-02
  0.611767E-02  0.568506E-02  0.537354E-02  0.517217E-02  0.507335E-02  0.507335E-02
  0.517217E-02  0.537354E-02  0.568506E-02  0.611767E-02  0.668414E-02  0.739728E-02
  0.826793E-02  0.930200E-02  0.104962E-01  0.118332E-01  0.132774E-01  0.147720E-01
  0.162395E-01  0.175865E-01  0.187131E-01  0.195261E-01  0.240400E-01  0.243241E-01
  0.240400E-01  0.232158E-01  0.219301E-01  0.202975E-01  0.184499E-01  0.165171E-01
  0.146117E-01  0.128204E-01  0.112007E-01  0.978353E-02  0.857856E-02  0.758054E-02
  0.677621E-02  0.614902E-02  0.568215E-02  0.536045E-02  0.517217E-02  0.511019E-02
  0.517217E-02  0.536045E-02  0.568215E-02  0.614902E-02  0.677621E-02  0.758054E-02
  0.857856E-02  0.978353E-02  0.112007E-01  0.128204E-01  0.146117E-01  0.165171E-01
  0.184499E-01  0.202975E-01  0.219301E-01  0.232158E-01  0.240400E-01  0.293520E-01
  0.293520E-01  0.286236E-01  0.272404E-01  0.253356E-01  0.230769E-01  0.206397E-01
  0.181833E-01  0.158354E-01  0.136859E-01  0.117870E-01  0.101599E-01  0.880241E-02
  0.769828E-02  0.682529E-02  0.616030E-02  0.568215E-02  0.537354E-02  0.522231E-02
  0.522231E-02  0.537354E-02  0.568215E-02  0.616030E-02  0.682529E-02  0.769828E-02
  0.880241E-02  0.101599E-01  0.117870E-01  0.136859E-01  0.158354E-01  0.181833E-01
  0.206397E-01  0.230769E-01  0.253356E-01  0.272404E-01  0.286236E-01  0.293520E-01
  0.353829E-01  0.349104E-01  0.335432E-01  0.314224E-01  0.287516E-01  0.257596E-01
  0.226657E-01  0.196536E-01  0.168580E-01  0.143630E-01  0.122085E-01  0.103998E-01
  0.891966E-02  0.773888E-02  0.682529E-02  0.614902E-02  0.568506E-02  0.541457E-02
  0.532575E-02  0.541457E-02  0.568506E-02  0.614902E-02  0.682529E-02  0.773888E-02
  0.891966E-02  0.103998E-01  0.122085E-01  0.143630E-01  0.168580E-01  0.196536E-01
  0.226657E-01  0.257596E-01  0.287516E-01  0.314224E-01  0.335432E-01  0.349104E-01
  0.353829E-01  0.419329E-01  0.407596E-01  0.385417E-01  0.355091E-01  0.319478E-01
  0.281497E-01  0.243716E-01  0.208102E-01  0.175953E-01  0.147951E-01  0.124291E-01
  0.104823E-01  0.891966E-02  0.769828E-02  0.677621E-02  0.611767E-02  0.569489E-02
  0.548855E-02  0.548855E-02  0.569489E-02  0.611767E-02  0.677621E-02  0.769828E-02
  0.891966E-02  0.104823E-01  0.124291E-01  0.147951E-01  0.175953E-01  0.208102E-01
  0.243716E-01  0.281497E-01  0.319478E-01  0.355091E-01  0.385417E-01  0.407596E-01
  0.419329E-01  0.419329E-01  0.486604E-01  0.465409E-01  0.432718E-01  0.391891E-01
  0.346643E-01  0.300442E-01  0.256084E-01  0.215508E-01  0.179819E-01  0.149437E-01
  0.124291E-01  0.103998E-01  0.880241E-02  0.758054E-02  0.668414E-02  0.607332E-02
  0.571901E-02  0.560300E-02  0.571901E-02  0.607332E-02  0.668414E-02  0.758054E-02
  0.880241E-02  0.103998E-01  0.124291E-01  0.149437E-01  0.179819E-01  0.215508E-01
  0.256084E-01  0.300442E-01  0.346643E-01  0.391891E-01  0.432718E-01  0.465409E-01
  0.486604E-01  0.493951E-01  0.486604E-01  0.550879E-01  0.517979E-01  0.473298E-01
  0.421307E-01  0.366480E-01  0.312640E-01  0.262592E-01  0.218059E-01  0.179819E-01
  0.147951E-01  0.122085E-01  0.101599E-01  0.857856E-02  0.739728E-02  0.656057E-02
  0.602664E-02  0.576706E-02  0.576706E-02  0.602664E-02  0.656057E-02  0.739728E-02
  0.857856E-02  0.101599E-01  0.122085E-01  0.147951E-01  0.179819E-01  0.218059E-01
  0.262592E-01  0.312640E-01  0.366480E-01  0.421307E-01  0.473298E-01  0.517979E-01
  0.550879E-01  0.568355E-01  0.568355E-01  0.550879E-01  0.606462E-01  0.560327E-01
  0.503138E-01  0.440356E-01  0.376963E-01  0.316852E-01  0.262592E-01  0.215508E-01
  0.175953E-01  0.143630E-01  0.117870E-01  0.978353E-02  0.826793E-02  0.716628E-02
  0.642083E-02  0.599045E-02  0.584988E-02  0.599045E-02  0.642083E-02  0.716628E-02
  0.826793E-02  0.978353E-02  0.117870E-01  0.143630E-01  0.175953E-01  0.215508E-01
  0.262592E-01  0.316852E-01  0.376963E-01  0.440356E-01  0.503138E-01  0.560327E-01
  0.606462E-01  0.636529E-01  0.646979E-01  0.636529E-01  0.606462E-01  0.647584E-01
  0.587897E-01  0.518974E-01  0.446955E-01  0.376963E-01  0.312640E-01  0.256084E-01
  0.208102E-01  0.168580E-01  0.136859E-01  0.112007E-01  0.930200E-02  0.789687E-02
  0.690906E-02  0.628206E-02  0.597818E-02  0.597818E-02  0.628206E-02  0.690906E-02
  0.789687E-02  0.930200E-02  0.112007E-01  0.136859E-01  0.168580E-01  0.208102E-01
  0.256084E-01  0.312640E-01  0.376963E-01  0.446955E-01  0.518974E-01  0.587897E-01
  0.647584E-01  0.691789E-01  0.715356E-01  0.715356E-01  0.691789E-01  0.647584E-01
  0.669492E-01  0.597475E-01  0.518974E-01  0.440356E-01  0.366480E-01  0.300442E-01
  0.243716E-01  0.196536E-01  0.158354E-01  0.128204E-01  0.104962E-01  0.875270E-02
  0.749460E-02  0.664799E-02  0.616092E-02  0.600210E-02  0.616092E-02  0.664799E-02
  0.749460E-02  0.875270E-02  0.104962E-01  0.128204E-01  0.158354E-01  0.196536E-01
  0.243716E-01  0.300442E-01  0.366480E-01  0.440356E-01  0.518974E-01  0.597475E-01
  0.669492E-01  0.727926E-01  0.766165E-01  0.779483E-01  0.766165E-01  0.727926E-01
  0.669492E-01  0.669492E-01  0.587897E-01  0.503138E-01  0.421307E-01  0.346643E-01
  0.281497E-01  0.226657E-01  0.181833E-01  0.146117E-01  0.118332E-01  0.972478E-02
  0.817406E-02  0.708945E-02  0.640343E-02  0.607160E-02  0.607160E-02  0.640343E-02
  0.708945E-02  0.817406E-02  0.972478E-02  0.118332E-01  0.146117E-01  0.181833E-01
  0.226657E-01  0.281497E-01  0.346643E-01  0.421307E-01  0.503138E-01  0.587897E-01
  0.669492E-01  0.740508E-01  0.793309E-01  0.821528E-01  0.821528E-01  0.793309E-01
  0.740508E-01  0.669492E-01  0.647584E-01  0.560327E-01  0.473298E-01  0.391891E-01
  0.319478E-01  0.257596E-01  0.206397E-01  0.165171E-01  0.132774E-01  0.107917E-01
  0.893533E-02  0.760104E-02  0.670585E-02  0.619177E-02  0.602428E-02  0.619177E-02
  0.670585E-02  0.760104E-02  0.893533E-02  0.107917E-01  0.132774E-01  0.165171E-01
  0.206397E-01  0.257596E-01  0.319478E-01  0.391891E-01  0.473298E-01  0.560327E-01
  0.647584E-01  0.727926E-01  0.793309E-01  0.836187E-01  0.851139E-01  0.836187E-01
  0.793309E-01  0.727926E-01  0.647584E-01  0.606462E-01  0.517979E-01  0.432718E-01
  0.355091E-01  0.287516E-01  0.230769E-01  0.184499E-01  0.147720E-01  0.119173E-01
  0.975590E-02  0.816961E-02  0.706210E-02  0.636247E-02  0.602428E-02  0.602428E-02
  0.636247E-02  0.706210E-02  0.816961E-02  0.975590E-02  0.119173E-01  0.147720E-01
  0.184499E-01  0.230769E-01  0.287516E-01  0.355091E-01  0.432718E-01  0.517979E-01
  0.606462E-01  0.691789E-01  0.766165E-01  0.821528E-01  0.851139E-01  0.851139E-01
  0.821528E-01  0.766165E-01  0.691789E-01  0.606462E-01  0.550879E-01  0.465409E-01
  0.385417E-01  0.314224E-01  0.253356E-01  0.202975E-01  0.162395E-01  0.130498E-01
  0.106019E-01  0.877367E-02  0.745951E-02  0.657785E-02  0.607160E-02  0.590666E-02
  0.607160E-02  0.657785E-02  0.745951E-02  0.877367E-02  0.106019E-01  0.130498E-01
  0.162395E-01  0.202975E-01  0.253356E-01  0.314224E-01  0.385417E-01  0.465409E-01
  0.550879E-01  0.636529E-01  0.715356E-01  0.779483E-01  0.821528E-01  0.836187E-01
  0.821528E-01  0.779483E-01  0.715356E-01  0.636529E-01  0.550879E-01  0.486604E-01
  0.407596E-01  0.335432E-01  0.272404E-01  0.219301E-01  0.175865E-01  0.141237E-01
  0.114289E-01  0.938336E-02  0.787877E-02  0.682644E-02  0.616092E-02  0.583906E-02
  0.583906E-02  0.616092E-02  0.682644E-02  0.787877E-02  0.938336E-02  0.114289E-01
  0.141237E-01  0.175865E-01  0.219301E-01  0.272404E-01  0.335432E-01  0.407596E-01
  0.486604E-01  0.568355E-01  0.646979E-01  0.715356E-01  0.766165E-01  0.793309E-01
  0.793309E-01  0.766165E-01  0.715356E-01  0.646979E-01  0.568355E-01  0.486604E-01
  0.419329E-01  0.349104E-01  0.286236E-01  0.232158E-01  0.187131E-01  0.150659E-01
  0.121843E-01  0.996203E-02  0.829470E-02  0.709155E-02  0.628206E-02  0.581646E-02
  0.566466E-02  0.581646E-02  0.628206E-02  0.709155E-02  0.829470E-02  0.996203E-02
  0.121843E-01  0.150659E-01  0.187131E-01  0.232158E-01  0.286236E-01  0.349104E-01
  0.419329E-01  0.493951E-01  0.568355E-01  0.636529E-01  0.691789E-01  0.727926E-01
  0.740508E-01  0.727926E-01  0.691789E-01  0.636529E-01  0.568355E-01  0.493951E-01
  0.419329E-01  0.353829E-01  0.293520E-01  0.240400E-01  0.195261E-01  0.158036E-01
  0.128134E-01  0.104694E-01  0.867820E-02  0.735256E-02  0.642083E-02  0.582963E-02
  0.554320E-02  0.554320E-02  0.582963E-02  0.642083E-02  0.735256E-02  0.867820E-02
  0.104694E-01  0.128134E-01  0.158036E-01  0.195261E-01  0.240400E-01  0.293520E-01
  0.353829E-01  0.419329E-01  0.486604E-01  0.550879E-01  0.606462E-01  0.647584E-01
  0.669492E-01  0.669492E-01  0.647584E-01  0.606462E-01  0.550879E-01  0.486604E-01
  0.419329E-01  0.353829E-01  0.316852E-01  0.262592E-01  0.215508E-01  0.175953E-01
  0.143630E-01  0.117870E-01  0.978353E-02  0.826793E-02  0.716628E-02  0.642083E-02
  0.599045E-02  0.584988E-02  0.599045E-02  0.642083E-02  0.716628E-02  0.826793E-02
  0.978353E-02  0.117870E-01  0.143630E-01  0.175953E-01  0.215508E-01  0.262592E-01
  0.316852E-01  0.376963E-01  0.440356E-01  0.503138E-01  0.560327E-01  0.606462E-01
  0.636529E-01  0.646979E-01  0.636529E-01  0.606462E-01  0.560327E-01  0.503138E-01
  0.440356E-01  0.376963E-01  0.316852E-01  0.262592E-01  0.218059E-01  0.179819E-01
  0.147951E-01  0.122085E-01  0.101599E-01  0.857856E-02  0.739728E-02  0.656057E-02
  0.602664E-02  0.576706E-02  0.576706E-02  0.602664E-02  0.656057E-02  0.739728E-02
  0.857856E-02  0.101599E-01  0.122085E-01  0.147951E-01  0.179819E-01  0.218059E-01
  0.262592E-01  0.312640E-01  0.366480E-01  0.421307E-01  0.473298E-01  0.517979E-01
  0.550879E-01  0.568355E-01  0.568355E-01  0.550879E-01  0.517979E-01  0.473298E-01
  0.421307E-01  0.366480E-01  0.312640E-01  0.262592E-01  0.215508E-01  0.179819E-01
  0.149437E-01  0.124291E-01  0.103998E-01  0.880241E-02  0.758054E-02  0.668414E-02
  0.607332E-02  0.571901E-02  0.560300E-02  0.571901E-02  0.607332E-02  0.668414E-02
  0.758054E-02  0.880241E-02  0.103998E-01  0.124291E-01  0.149437E-01  0.179819E-01
  0.215508E-01  0.256084E-01  0.300442E-01  0.346643E-01  0.391891E-01  0.432718E-01
  0.465409E-01  0.486604E-01  0.493951E-01  0.486604E-01  0.465409E-01  0.432718E-01
  0.391891E-01  0.346643E-01  0.300442E-01  0.256084E-01  0.215508E-01  0.175953E-01
  0.147951E-01  0.124291E-01  0.104823E-01  0.891966E-02  0.769828E-02  0.677621E-02
  0.611767E-02  0.569489E-02  0.548855E-02  0.548855E-02  0.569489E-02  0.611767E-02
  0.677621E-02  0.769828E-02  0.891966E-02  0.104823E-01  0.124291E-01  0.147951E-01
  0.175953E-01  0.208102E-01  0.243716E-01  0.281497E-01  0.319478E-01  0.355091E-01
  0.385417E-01  0.407596E-01  0.419329E-01  0.419329E-01  0.407596E-01  0.385417E-01
  0.355091E-01  0.319478E-01  0.281497E-01  0.243716E-01  0.208102E-01  0.175953E-01
  0.143630E-01  0.122085E-01  0.103998E-01  0.891966E-02  0.773888E-02  0.682529E-02
  0.614902E-02  0.568506E-02  0.541457E-02  0.532575E-02  0.541457E-02  0.568506E-02
  0.614902E-02  0.682529E-02  0.773888E-02  0.891966E-02  0.103998E-01  0.122085E-01
  0.143630E-01  0.168580E-01  0.196536E-01  0.226657E-01  0.257596E-01  0.287516E-01
  0.314224E-01  0.335432E-01  0.349104E-01  0.353829E-01  0.349104E-01  0.335432E-01
  0.314224E-01  0.287516E-01  0.257596E-01  0.226657E-01  0.196536E-01  0.168580E-01
  0.143630E-01  0.117870E-01  0.101599E-01  0.880241E-02  0.769828E-02  0.682529E-02
  0.616030E-02  0.568215E-02  0.537354E-02  0.522231E-02  0.522231E-02  0.537354E-02
  0.568215E-02  0.616030E-02  0.682529E-02  0.769828E-02  0.880241E-02  0.101599E-01
  0.117870E-01  0.136859E-01  0.158354E-01  0.181833E-01  0.206397E-01  0.230769E-01
  0.253356E-01  0.272404E-01  0.286236E-01  0.293520E-01  0.293520E-01  0.286236E-01
  0.272404E-01  0.253356E-01  0.230769E-01  0.206397E-01  0.181833E-01  0.158354E-01
  0.136859E-01  0.117870E-01  0.978353E-02  0.857856E-02  0.758054E-02  0.677621E-02
  0.614902E-02  0.568215E-02  0.536045E-02  0.517217E-02  0.511019E-02  0.517217E-02
  0.536045E-02  0.568215E-02  0.614902E-02  0.677621E-02  0.758054E-02  0.857856E-02
  0.978353E-02  0.112007E-01  0.128204E-01  0.146117E-01  0.165171E-01  0.184499E-01
  0.202975E-01  0.219301E-01  0.232158E-01  0.240400E-01  0.243241E-01  0.240400E-01
  0.232158E-01  0.219301E-01  0.202975E-01  0.184499E-01  0.165171E-01  0.146117E-01
  0.128204E-01  0.112007E-01  0.978353E-02  0.826793E-02  0.739728E-02  0.668414E-02
  0.611767E-02  0.568506E-02  0.537354E-02  0.517217E-02  0.507335E-02  0.507335E-02
  0.517217E-02  0.537354E-02  0.568506E-02  0.611767E-02  0.668414E-02  0.739728E-02
  0.826793E-02  0.930200E-02  0.104962E-01  0.118332E-01  0.132774E-01  0.147720E-01
  0.162395E-01  0.175865E-01  0.187131E-01  0.195261E-01  0.199527E-01  0.199527E-01
  0.195261E-01  0.187131E-01  0.175865E-01  0.162395E-01  0.147720E-01  0.132774E-01
  0.118332E-01  0.104962E-01  0.930200E-02  0.826793E-02  0.716628E-02  0.656057E-02
  0.607332E-02  0.569489E-02  0.541457E-02  0.522231E-02  0.511019E-02  0.507335E-02
  0.511019E-02  0.522231E-02  0.541457E-02  0.569489E-02  0.607332E-02  0.656057E-02
  0.716628E-02  0.789687E-02  0.875270E-02  0.972478E-02  0.107917E-01  0.119173E-01
  0.130498E-01  0.141237E-01  0.150659E-01  0.158036E-01  0.162747E-01  0.164367E-01
  0.162747E-01  0.158036E-01  0.150659E-01  0.141237E-01  0.130498E-01  0.119173E-01
  0.107917E-01  0.972478E-02  0.875270E-02  0.789687E-02  0.716628E-02  0.642083E-02
  0.602664E-02  0.571901E-02  0.548855E-02  0.532575E-02  0.522231E-02  0.517217E-02
  0.517217E-02  0.522231E-02  0.532575E-02  0.548855E-02  0.571901E-02  0.602664E-02
  0.642083E-02  0.690906E-02  0.749460E-02  0.817406E-02  0.893533E-02  0.975590E-02
  0.106019E-01  0.114289E-01  0.121843E-01  0.128134E-01  0.132659E-01  0.135029E-01
  0.135029E-01  0.132659E-01  0.128134E-01  0.121843E-01  0.114289E-01  0.106019E-01
  0.975590E-02  0.893533E-02  0.817406E-02  0.749460E-02  0.690906E-02  0.642083E-02
  0.599045E-02  0.576706E-02  0.560300E-02  0.548855E-02  0.541457E-02  0.537354E-02
  0.536045E-02  0.537354E-02  0.541457E-02  0.548855E-02  0.560300E-02  0.576706E-02
  0.599045E-02  0.628206E-02  0.664799E-02  0.708945E-02  0.760104E-02  0.816961E-02
  0.877367E-02  0.938336E-02  0.996203E-02  0.104694E-01  0.108663E-01  0.111195E-01
  0.112066E-01  0.111195E-01  0.108663E-01  0.104694E-01  0.996203E-02  0.938336E-02
  0.877367E-02  0.816961E-02  0.760104E-02  0.708945E-02  0.664799E-02  0.628206E-02
  0.599045E-02  0.584988E-02  0.576706E-02  0.571901E-02  0.569489E-02  0.568506E-02
  0.568215E-02  0.568215E-02  0.568506E-02  0.569489E-02  0.571901E-02  0.576706E-02
  0.584988E-02  0.597818E-02  0.616092E-02  0.640343E-02  0.670585E-02  0.706210E-02
  0.745951E-02  0.787877E-02  0.829470E-02  0.867820E-02  0.899932E-02  0.923096E-02
  0.935240E-02  0.935240E-02  0.923096E-02  0.899932E-02  0.867820E-02  0.829470E-02
  0.787877E-02  0.745951E-02  0.706210E-02  0.670585E-02  0.640343E-02  0.616092E-02
  0.597818E-02  0.584988E-02  0.599045E-02  0.602664E-02  0.607332E-02  0.611767E-02
  0.614902E-02  0.616030E-02  0.614902E-02  0.611767E-02  0.607332E-02  0.602664E-02
  0.599045E-02  0.597818E-02  0.600210E-02  0.607160E-02  0.619177E-02  0.636247E-02
  0.657785E-02  0.682644E-02  0.709155E-02  0.735256E-02  0.758691E-02  0.777290E-02
  0.789249E-02  0.793374E-02  0.789249E-02  0.777290E-02  0.758691E-02  0.735256E-02
  0.709155E-02  0.682644E-02  0.657785E-02  0.636247E-02  0.619177E-02  0.607160E-02
  0.600210E-02  0.597818E-02  0.599045E-02  0.642083E-02  0.656057E-02  0.668414E-02
  0.677621E-02  0.682529E-02  0.682529E-02  0.677621E-02  0.668414E-02  0.656057E-02
  0.642083E-02  0.628206E-02  0.616092E-02  0.607160E-02  0.602428E-02  0.602428E-02
  0.607160E-02  0.616092E-02  0.628206E-02  0.642083E-02  0.656057E-02  0.668414E-02
  0.677621E-02  0.682529E-02  0.682529E-02  0.677621E-02  0.668414E-02  0.656057E-02
  0.642083E-02  0.628206E-02  0.616092E-02  0.607160E-02  0.602428E-02  0.602428E-02
  0.607160E-02  0.616092E-02  0.628206E-02  0.642083E-02  0.716628E-02  0.739728E-02
  0.758054E-02  0.769828E-02  0.773888E-02  0.769828E-02  0.758054E-02  0.739728E-02
  0.716628E-02  0.690906E-02  0.664799E-02  0.640343E-02  0.619177E-02  0.602428E-02
  0.590666E-02  0.583906E-02  0.581646E-02  0.582963E-02  0.586645E-02  0.591353E-02
  0.595806E-02  0.598944E-02  0.600070E-02  0.598944E-02  0.595806E-02  0.591353E-02
  0.586645E-02  0.582963E-02  0.581646E-02  0.583906E-02  0.590666E-02  0.602428E-02
  0.619177E-02  0.640343E-02  0.664799E-02  0.690906E-02  0.716628E-02  0.826793E-02
  0.857856E-02  0.880241E-02  0.891966E-02  0.891966E-02  0.880241E-02  0.857856E-02
  0.826793E-02  0.789687E-02  0.749460E-02  0.708945E-02  0.670585E-02  0.636247E-02
  0.607160E-02  0.583906E-02  0.566466E-02  0.554320E-02  0.546590E-02  0.542220E-02
  0.540127E-02  0.539348E-02  0.539155E-02  0.539155E-02  0.539348E-02  0.540127E-02
  0.542220E-02  0.546590E-02  0.554320E-02  0.566466E-02  0.583906E-02  0.607160E-02
  0.636247E-02  0.670585E-02  0.708945E-02  0.749460E-02  0.789687E-02  0.826793E-02
  0.978353E-02  0.101599E-01  0.103998E-01  0.104823E-01  0.103998E-01  0.101599E-01
  0.978353E-02  0.930200E-02  0.875270E-02  0.817406E-02  0.760104E-02  0.706210E-02
  0.657785E-02  0.616092E-02  0.581646E-02  0.554320E-02  0.533512E-02  0.518347E-02
  0.507863E-02  0.501147E-02  0.497451E-02  0.496277E-02  0.497451E-02  0.501147E-02
  0.507863E-02  0.518347E-02  0.533512E-02  0.554320E-02  0.581646E-02  0.616092E-02
  0.657785E-02  0.706210E-02  0.760104E-02  0.817406E-02  0.875270E-02  0.930200E-02
  0.978353E-02  0.117870E-01  0.122085E-01  0.124291E-01  0.124291E-01  0.122085E-01
  0.117870E-01  0.112007E-01  0.104962E-01  0.972478E-02  0.893533E-02  0.816961E-02
  0.745951E-02  0.682644E-02  0.628206E-02  0.582963E-02  0.546590E-02  0.518347E-02
  0.497304E-02  0.482520E-02  0.473173E-02  0.468658E-02  0.468658E-02  0.473173E-02
  0.482520E-02  0.497304E-02  0.518347E-02  0.546590E-02  0.582963E-02  0.628206E-02
  0.682644E-02  0.745951E-02  0.816961E-02  0.893533E-02  0.972478E-02  0.104962E-01
  0.112007E-01  0.117870E-01  0.143630E-01  0.147951E-01  0.149437E-01  0.147951E-01
  0.143630E-01  0.136859E-01  0.128204E-01  0.118332E-01  0.107917E-01  0.975590E-02
  0.877367E-02  0.787877E-02  0.709155E-02  0.642083E-02  0.586645E-02  0.542220E-02
  0.507863E-02  0.482520E-02  0.465206E-02  0.455139E-02  0.451838E-02  0.455139E-02
  0.465206E-02  0.482520E-02  0.507863E-02  0.542220E-02  0.586645E-02  0.642083E-02
  0.709155E-02  0.787877E-02  0.877367E-02  0.975590E-02  0.107917E-01  0.118332E-01
  0.128204E-01  0.136859E-01  0.143630E-01  0.175953E-01  0.179819E-01  0.179819E-01
  0.175953E-01  0.168580E-01  0.158354E-01  0.146117E-01  0.132774E-01  0.119173E-01
  0.106019E-01  0.938336E-02  0.829470E-02  0.735256E-02  0.656057E-02  0.591353E-02
  0.540127E-02  0.501147E-02  0.473173E-02  0.455139E-02  0.446305E-02  0.446305E-02
  0.455139E-02  0.473173E-02  0.501147E-02  0.540127E-02  0.591353E-02  0.656057E-02
  0.735256E-02  0.829470E-02  0.938336E-02  0.106019E-01  0.119173E-01  0.132774E-01
  0.146117E-01  0.158354E-01  0.168580E-01  0.175953E-01  0.215508E-01  0.218059E-01
  0.215508E-01  0.208102E-01  0.196536E-01  0.181833E-01  0.165171E-01  0.147720E-01
  0.130498E-01  0.114289E-01  0.996203E-02  0.867820E-02  0.758691E-02  0.668414E-02
  0.595806E-02  0.539348E-02  0.497451E-02  0.468658E-02  0.451838E-02  0.446305E-02
  0.451838E-02  0.468658E-02  0.497451E-02  0.539348E-02  0.595806E-02  0.668414E-02
  0.758691E-02  0.867820E-02  0.996203E-02  0.114289E-01  0.130498E-01  0.147720E-01
  0.165171E-01  0.181833E-01  0.196536E-01  0.208102E-01  0.215508E-01  0.262592E-01
  0.262592E-01  0.256084E-01  0.243716E-01  0.226657E-01  0.206397E-01  0.184499E-01
  0.162395E-01  0.141237E-01  0.121843E-01  0.104694E-01  0.899932E-02  0.777290E-02
  0.677621E-02  0.598944E-02  0.539155E-02  0.496277E-02  0.468658E-02  0.455139E-02
  0.455139E-02  0.468658E-02  0.496277E-02  0.539155E-02  0.598944E-02  0.677621E-02
  0.777290E-02  0.899932E-02  0.104694E-01  0.121843E-01  0.141237E-01  0.162395E-01
  0.184499E-01  0.206397E-01  0.226657E-01  0.243716E-01  0.256084E-01  0.262592E-01
  0.316852E-01  0.312640E-01  0.300442E-01  0.281497E-01  0.257596E-01  0.230769E-01
  0.202975E-01  0.175865E-01  0.150659E-01  0.128134E-01  0.108663E-01  0.923096E-02
  0.789249E-02  0.682529E-02  0.600070E-02  0.539155E-02  0.497451E-02  0.473173E-02
  0.465206E-02  0.473173E-02  0.497451E-02  0.539155E-02  0.600070E-02  0.682529E-02
  0.789249E-02  0.923096E-02  0.108663E-01  0.128134E-01  0.150659E-01  0.175865E-01
  0.202975E-01  0.230769E-01  0.257596E-01  0.281497E-01  0.300442E-01  0.312640E-01
  0.316852E-01  0.376963E-01  0.366480E-01  0.346643E-01  0.319478E-01  0.287516E-01
  0.253356E-01  0.219301E-01  0.187131E-01  0.158036E-01  0.132659E-01  0.111195E-01
  0.935240E-02  0.793374E-02  0.682529E-02  0.598944E-02  0.539348E-02  0.501147E-02
  0.482520E-02  0.482520E-02  0.501147E-02  0.539348E-02  0.598944E-02  0.682529E-02
  0.793374E-02  0.935240E-02  0.111195E-01  0.132659E-01  0.158036E-01  0.187131E-01
  0.219301E-01  0.253356E-01  0.287516E-01  0.319478E-01  0.346643E-01  0.366480E-01
  0.376963E-01  0.376963E-01  0.440356E-01  0.421307E-01  0.391891E-01  0.355091E-01
  0.314224E-01  0.272404E-01  0.232158E-01  0.195261E-01  0.162747E-01  0.135029E-01
  0.112066E-01  0.935240E-02  0.789249E-02  0.677621E-02  0.595806E-02  0.540127E-02
  0.507863E-02  0.497304E-02  0.507863E-02  0.540127E-02  0.595806E-02  0.677621E-02
  0.789249E-02  0.935240E-02  0.112066E-01  0.135029E-01  0.162747E-01  0.195261E-01
  0.232158E-01  0.272404E-01  0.314224E-01  0.355091E-01  0.391891E-01  0.421307E-01
  0.440356E-01  0.446955E-01  0.440356E-01  0.503138E-01  0.473298E-01  0.432718E-01
  0.385417E-01  0.335432E-01  0.286236E-01  0.240400E-01  0.199527E-01  0.164367E-01
  0.135029E-01  0.111195E-01  0.923096E-02  0.777290E-02  0.668414E-02  0.591353E-02
  0.542220E-02  0.518347E-02  0.518347E-02  0.542220E-02  0.591353E-02  0.668414E-02
  0.777290E-02  0.923096E-02  0.111195E-01  0.135029E-01  0.164367E-01  0.199527E-01
  0.240400E-01  0.286236E-01  0.335432E-01  0.385417E-01  0.432718E-01  0.473298E-01
  0.503138E-01  0.518974E-01  0.518974E-01  0.503138E-01  0.560327E-01  0.517979E-01
  0.465409E-01  0.407596E-01  0.349104E-01  0.293520E-01  0.243241E-01  0.199527E-01
  0.162747E-01  0.132659E-01  0.108663E-01  0.899932E-02  0.758691E-02  0.656057E-02
  0.586645E-02  0.546590E-02  0.533512E-02  0.546590E-02  0.586645E-02  0.656057E-02
  0.758691E-02  0.899932E-02  0.108663E-01  0.132659E-01  0.162747E-01  0.199527E-01
  0.243241E-01  0.293520E-01  0.349104E-01  0.407596E-01  0.465409E-01  0.517979E-01
  0.560327E-01  0.587897E-01  0.597475E-01  0.587897E-01  0.560327E-01  0.606462E-01
  0.550879E-01  0.486604E-01  0.419329E-01  0.353829E-01  0.293520E-01  0.240400E-01
  0.195261E-01  0.158036E-01  0.128134E-01  0.104694E-01  0.867820E-02  0.735256E-02
  0.642083E-02  0.582963E-02  0.554320E-02  0.554320E-02  0.582963E-02  0.642083E-02
  0.735256E-02  0.867820E-02  0.104694E-01  0.128134E-01  0.158036E-01  0.195261E-01
  0.240400E-01  0.293520E-01  0.353829E-01  0.419329E-01  0.486604E-01  0.550879E-01
  0.606462E-01  0.647584E-01  0.669492E-01  0.669492E-01  0.647584E-01  0.606462E-01
  0.636529E-01  0.568355E-01  0.493951E-01  0.419329E-01  0.349104E-01  0.286236E-01
  0.232158E-01  0.187131E-01  0.150659E-01  0.121843E-01  0.996203E-02  0.829470E-02
  0.709155E-02  0.628206E-02  0.581646E-02  0.566466E-02  0.581646E-02  0.628206E-02
  0.709155E-02  0.829470E-02  0.996203E-02  0.121843E-01  0.150659E-01  0.187131E-01
  0.232158E-01  0.286236E-01  0.349104E-01  0.419329E-01  0.493951E-01  0.568355E-01
  0.636529E-01  0.691789E-01  0.727926E-01  0.740508E-01  0.727926E-01  0.691789E-01
  0.636529E-01  0.646979E-01  0.568355E-01  0.486604E-01  0.407596E-01  0.335432E-01
  0.272404E-01  0.219301E-01  0.175865E-01  0.141237E-01  0.114289E-01  0.938336E-02
  0.787877E-02  0.682644E-02  0.616092E-02  0.583906E-02  0.583906E-02  0.616092E-02
  0.682644E-02  0.787877E-02  0.938336E-02  0.114289E-01  0.141237E-01  0.175865E-01
  0.219301E-01  0.272404E-01  0.335432E-01  0.407596E-01  0.486604E-01  0.568355E-01
  0.646979E-01  0.715356E-01  0.766165E-01  0.793309E-01  0.793309E-01  0.766165E-01
  0.715356E-01  0.646979E-01  0.636529E-01  0.550879E-01  0.465409E-01  0.385417E-01
  0.314224E-01  0.253356E-01  0.202975E-01  0.162395E-01  0.130498E-01  0.106019E-01
  0.877367E-02  0.745951E-02  0.657785E-02  0.607160E-02  0.590666E-02  0.607160E-02
  0.657785E-02  0.745951E-02  0.877367E-02  0.106019E-01  0.130498E-01  0.162395E-01
  0.202975E-01  0.253356E-01  0.314224E-01  0.385417E-01  0.465409E-01  0.550879E-01
  0.636529E-01  0.715356E-01  0.779483E-01  0.821528E-01  0.836187E-01  0.821528E-01
  0.779483E-01  0.715356E-01  0.636529E-01  0.606462E-01  0.517979E-01  0.432718E-01
  0.355091E-01  0.287516E-01  0.230769E-01  0.184499E-01  0.147720E-01  0.119173E-01
  0.975590E-02  0.816961E-02  0.706210E-02  0.636247E-02  0.602428E-02  0.602428E-02
  0.636247E-02  0.706210E-02  0.816961E-02  0.975590E-02  0.119173E-01  0.147720E-01
  0.184499E-01  0.230769E-01  0.287516E-01  0.355091E-01  0.432718E-01  0.517979E-01
  0.606462E-01  0.691789E-01  0.766165E-01  0.821528E-01  0.851139E-01  0.851139E-01
  0.821528E-01  0.766165E-01  0.691789E-01  0.606462E-01  0.560327E-01  0.473298E-01
  0.391891E-01  0.319478E-01  0.257596E-01  0.206397E-01  0.165171E-01  0.132774E-01
  0.107917E-01  0.893533E-02  0.760104E-02  0.670585E-02  0.619177E-02  0.602428E-02
  0.619177E-02  0.670585E-02  0.760104E-02  0.893533E-02  0.107917E-01  0.132774E-01
  0.165171E-01  0.206397E-01  0.257596E-01  0.319478E-01  0.391891E-01  0.473298E-01
  0.560327E-01  0.647584E-01  0.727926E-01  0.793309E-01  0.836187E-01  0.851139E-01
  0.836187E-01  0.793309E-01  0.727926E-01  0.647584E-01  0.560327E-01  0.503138E-01
  0.421307E-01  0.346643E-01  0.281497E-01  0.226657E-01  0.181833E-01  0.146117E-01
  0.118332E-01  0.972478E-02  0.817406E-02  0.708945E-02  0.640343E-02  0.607160E-02
  0.607160E-02  0.640343E-02  0.708945E-02  0.817406E-02  0.972478E-02  0.118332E-01
  0.146117E-01  0.181833E-01  0.226657E-01  0.281497E-01  0.346643E-01  0.421307E-01
  0.503138E-01  0.587897E-01  0.669492E-01  0.740508E-01  0.793309E-01  0.821528E-01
  0.821528E-01  0.793309E-01  0.740508E-01  0.669492E-01  0.587897E-01  0.503138E-01
  0.440356E-01  0.366480E-01  0.300442E-01  0.243716E-01  0.196536E-01  0.158354E-01
  0.128204E-01  0.104962E-01  0.875270E-02  0.749460E-02  0.664799E-02  0.616092E-02
  0.600210E-02  0.616092E-02  0.664799E-02  0.749460E-02  0.875270E-02  0.104962E-01
  0.128204E-01  0.158354E-01  0.196536E-01  0.243716E-01  0.300442E-01  0.366480E-01
  0.440356E-01  0.518974E-01  0.597475E-01  0.669492E-01  0.727926E-01  0.766165E-01
  0.779483E-01  0.766165E-01  0.727926E-01  0.669492E-01  0.597475E-01  0.518974E-01
  0.440356E-01  0.376963E-01  0.312640E-01  0.256084E-01  0.208102E-01  0.168580E-01
  0.136859E-01  0.112007E-01  0.930200E-02  0.789687E-02  0.690906E-02  0.628206E-02
  0.597818E-02  0.597818E-02  0.628206E-02  0.690906E-02  0.789687E-02  0.930200E-02
  0.112007E-01  0.136859E-01  0.168580E-01  0.208102E-01  0.256084E-01  0.312640E-01
  0.376963E-01  0.446955E-01  0.518974E-01  0.587897E-01  0.647584E-01  0.691789E-01
  0.715356E-01  0.715356E-01  0.691789E-01  0.647584E-01  0.587897E-01  0.518974E-01
  0.446955E-01  0.376963E-01  0.316852E-01  0.262592E-01  0.215508E-01  0.175953E-01
  0.143630E-01  0.117870E-01  0.978353E-02  0.826793E-02  0.716628E-02  0.642083E-02
  0.599045E-02  0.584988E-02  0.599045E-02  0.642083E-02  0.716628E-02  0.826793E-02
  0.978353E-02  0.117870E-01  0.143630E-01  0.175953E-01  0.215508E-01  0.262592E-01
  0.316852E-01  0.376963E-01  0.440356E-01  0.503138E-01  0.560327E-01  0.606462E-01
  0.636529E-01  0.646979E-01  0.636529E-01  0.606462E-01  0.560327E-01  0.503138E-01
  0.440356E-01  0.376963E-01  0.316852E-01  0.288622E-01  0.239957E-01  0.198220E-01
  0.163457E-01  0.135234E-01  0.112867E-01  0.955913E-02  0.826793E-02  0.735256E-02
  0.676762E-02  0.648284E-02  0.648284E-02  0.676762E-02  0.735256E-02  0.826793E-02
  0.955913E-02  0.112867E-01  0.135234E-01  0.163457E-01  0.198220E-01  0.239957E-01
  0.288622E-01  0.343394E-01  0.402392E-01  0.462530E-01  0.519600E-01  0.568679E-01
  0.604839E-01  0.624055E-01  0.624055E-01  0.604839E-01  0.568679E-01  0.519600E-01
  0.462530E-01  0.402392E-01  0.343394E-01  0.288622E-01  0.239957E-01  0.200566E-01
  0.167059E-01  0.139323E-01  0.116928E-01  0.992880E-02  0.857856E-02  0.758691E-02
  0.691011E-02  0.651684E-02  0.638793E-02  0.651684E-02  0.691011E-02  0.758691E-02
  0.857856E-02  0.992880E-02  0.116928E-01  0.139323E-01  0.167059E-01  0.200566E-01
  0.239957E-01  0.284806E-01  0.333917E-01  0.385143E-01  0.435371E-01  0.480737E-01
  0.517090E-01  0.540673E-01  0.548851E-01  0.540673E-01  0.517090E-01  0.480737E-01
  0.435371E-01  0.385143E-01  0.333917E-01  0.284806E-01  0.239957E-01  0.198220E-01
  0.167059E-01  0.140729E-01  0.119053E-01  0.101643E-01  0.880241E-02  0.777290E-02
  0.703618E-02  0.656217E-02  0.633045E-02  0.633045E-02  0.656217E-02  0.703618E-02
  0.777290E-02  0.880241E-02  0.101643E-01  0.119053E-01  0.140729E-01  0.167059E-01
  0.198220E-01  0.234026E-01  0.273750E-01  0.315966E-01  0.358470E-01  0.398377E-01
  0.432397E-01  0.457300E-01  0.470481E-01  0.470481E-01  0.457300E-01  0.432397E-01
  0.398377E-01  0.358470E-01  0.315966E-01  0.273750E-01  0.234026E-01  0.198220E-01
  0.163457E-01  0.139323E-01  0.119053E-01  0.102452E-01  0.891966E-02  0.789249E-02
  0.713024E-02  0.660583E-02  0.629943E-02  0.619872E-02  0.629943E-02  0.660583E-02
  0.713024E-02  0.789249E-02  0.891966E-02  0.102452E-01  0.119053E-01  0.139323E-01
  0.163457E-01  0.191404E-01  0.222745E-01  0.256559E-01  0.291346E-01  0.325040E-01
  0.355160E-01  0.379104E-01  0.394554E-01  0.399896E-01  0.394554E-01  0.379104E-01
  0.355160E-01  0.325040E-01  0.291346E-01  0.256559E-01  0.222745E-01  0.191404E-01
  0.163457E-01  0.135234E-01  0.116928E-01  0.101643E-01  0.891966E-02  0.793374E-02
  0.718048E-02  0.663695E-02  0.628509E-02  0.611240E-02  0.611240E-02  0.628509E-02
  0.663695E-02  0.718048E-02  0.793374E-02  0.891966E-02  0.101643E-01  0.116928E-01
  0.135234E-01  0.156585E-01  0.180754E-01  0.207170E-01  0.234837E-01  0.262324E-01
  0.287833E-01  0.309374E-01  0.325035E-01  0.333289E-01  0.333289E-01  0.325035E-01
  0.309374E-01  0.287833E-01  0.262324E-01  0.234837E-01  0.207170E-01  0.180754E-01
  0.156585E-01  0.135234E-01  0.112867E-01  0.992880E-02  0.880241E-02  0.789249E-02
  0.718048E-02  0.664819E-02  0.627995E-02  0.606393E-02  0.599274E-02  0.606393E-02
  0.627995E-02  0.664819E-02  0.718048E-02  0.789249E-02  0.880241E-02  0.992880E-02
  0.112867E-01  0.128822E-01  0.147047E-01  0.167202E-01  0.188646E-01  0.210414E-01
  0.231241E-01  0.249665E-01  0.264192E-01  0.273512E-01  0.276727E-01  0.273512E-01
  0.264192E-01  0.249665E-01  0.231241E-01  0.210414E-01  0.188646E-01  0.167202E-01
  0.147047E-01  0.128822E-01  0.112867E-01  0.955913E-02  0.857856E-02  0.777290E-02
  0.713024E-02  0.663695E-02  0.627995E-02  0.604834E-02  0.593446E-02  0.593446E-02
  0.604834E-02  0.627995E-02  0.663695E-02  0.713024E-02  0.777290E-02  0.857856E-02
  0.955913E-02  0.107214E-01  0.120622E-01  0.135625E-01  0.151827E-01  0.168595E-01
  0.185063E-01  0.200186E-01  0.212845E-01  0.221988E-01  0.226788E-01  0.226788E-01
  0.221988E-01  0.212845E-01  0.200186E-01  0.185063E-01  0.168595E-01  0.151827E-01
  0.135625E-01  0.120622E-01  0.107214E-01  0.955913E-02  0.826793E-02  0.758691E-02
  0.703618E-02  0.660583E-02  0.628509E-02  0.606393E-02  0.593446E-02  0.589185E-02
  0.593446E-02  0.606393E-02  0.628509E-02  0.660583E-02  0.703618E-02  0.758691E-02
  0.826793E-02  0.908606E-02  0.100420E-01  0.111263E-01  0.123157E-01  0.135701E-01
  0.148320E-01  0.160287E-01  0.170787E-01  0.179012E-01  0.184265E-01  0.186073E-01
  0.184265E-01  0.179012E-01  0.170787E-01  0.160287E-01  0.148320E-01  0.135701E-01
  0.123157E-01  0.111263E-01  0.100420E-01  0.908606E-02  0.826793E-02  0.735256E-02
  0.691011E-02  0.656217E-02  0.629943E-02  0.611240E-02  0.599274E-02  0.593446E-02
  0.593446E-02  0.599274E-02  0.611240E-02  0.629943E-02  0.656217E-02  0.691011E-02
  0.735256E-02  0.789687E-02  0.854636E-02  0.929768E-02  0.101381E-01  0.110434E-01
  0.119764E-01  0.128880E-01  0.137207E-01  0.144142E-01  0.149131E-01  0.151745E-01
  0.151745E-01  0.149131E-01  0.144142E-01  0.137207E-01  0.128880E-01  0.119764E-01
  0.110434E-01  0.101381E-01  0.929768E-02  0.854636E-02  0.789687E-02  0.735256E-02
  0.676762E-02  0.651684E-02  0.633045E-02  0.619872E-02  0.611240E-02  0.606393E-02
  0.604834E-02  0.606393E-02  0.611240E-02  0.619872E-02  0.633045E-02  0.651684E-02
  0.676762E-02  0.709155E-02  0.749460E-02  0.797790E-02  0.853592E-02  0.915490E-02
  0.981183E-02  0.104745E-01  0.111031E-01  0.116543E-01  0.120855E-01  0.123607E-01
  0.124553E-01  0.123607E-01  0.120855E-01  0.116543E-01  0.111031E-01  0.104745E-01
  0.981183E-02  0.915490E-02  0.853592E-02  0.797790E-02  0.749460E-02  0.709155E-02
  0.676762E-02  0.648284E-02  0.638793E-02  0.633045E-02  0.629943E-02  0.628509E-02
  0.627995E-02  0.627995E-02  0.628509E-02  0.629943E-02  0.633045E-02  0.638793E-02
  0.648284E-02  0.662601E-02  0.682644E-02  0.708945E-02  0.741512E-02  0.779715E-02
  0.822228E-02  0.867011E-02  0.911392E-02  0.952289E-02  0.986539E-02  0.101126E-01
  0.102423E-01  0.102423E-01  0.101126E-01  0.986539E-02  0.952289E-02  0.911392E-02
  0.867011E-02  0.822228E-02  0.779715E-02  0.741512E-02  0.708945E-02  0.682644E-02
  0.662601E-02  0.648284E-02  0.648284E-02  0.651684E-02  0.656217E-02  0.660583E-02
  0.663695E-02  0.664819E-02  0.663695E-02  0.660583E-02  0.656217E-02  0.651684E-02
  0.648284E-02  0.647379E-02  0.650224E-02  0.657785E-02  0.670585E-02  0.688602E-02
  0.711232E-02  0.737277E-02  0.765000E-02  0.792256E-02  0.816718E-02  0.836144E-02
  0.848651E-02  0.852969E-02  0.848651E-02  0.836144E-02  0.816718E-02  0.792256E-02
  0.765000E-02  0.737277E-02  0.711232E-02  0.688602E-02  0.670585E-02  0.657785E-02
  0.650224E-02  0.647379E-02  0.648284E-02  0.676762E-02  0.691011E-02  0.703618E-02
  0.713024E-02  0.718048E-02  0.718048E-02  0.713024E-02  0.703618E-02  0.691011E-02
  0.676762E-02  0.662601E-02  0.650224E-02  0.641089E-02  0.636247E-02  0.636247E-02
  0.641089E-02  0.650224E-02  0.662601E-02  0.676762E-02  0.691011E-02  0.703618E-02
  0.713024E-02  0.718048E-02  0.718048E-02  0.713024E-02  0.703618E-02  0.691011E-02
  0.676762E-02  0.662601E-02  0.650224E-02  0.641089E-02  0.636247E-02  0.636247E-02
  0.641089E-02  0.650224E-02  0.662601E-02  0.676762E-02  0.735256E-02  0.758691E-02
  0.777290E-02  0.789249E-02  0.793374E-02  0.789249E-02  0.777290E-02  0.758691E-02
  0.735256E-02  0.709155E-02  0.682644E-02  0.657785E-02  0.636247E-02  0.619177E-02
  0.607160E-02  0.600210E-02  0.597818E-02  0.599045E-02  0.602664E-02  0.607332E-02
  0.611767E-02  0.614902E-02  0.616030E-02  0.614902E-02  0.611767E-02  0.607332E-02
  0.602664E-02  0.599045E-02  0.597818E-02  0.600210E-02  0.607160E-02  0.619177E-02
  0.636247E-02  0.657785E-02  0.682644E-02  0.709155E-02  0.735256E-02  0.826793E-02
  0.857856E-02  0.880241E-02  0.891966E-02  0.891966E-02  0.880241E-02  0.857856E-02
  0.826793E-02  0.789687E-02  0.749460E-02  0.708945E-02  0.670585E-02  0.636247E-02
  0.607160E-02  0.583906E-02  0.566466E-02  0.554320E-02  0.546590E-02  0.542220E-02
  0.540127E-02  0.539348E-02  0.539155E-02  0.539155E-02  0.539348E-02  0.540127E-02
  0.542220E-02  0.546590E-02  0.554320E-02  0.566466E-02  0.583906E-02  0.607160E-02
  0.636247E-02  0.670585E-02  0.708945E-02  0.749460E-02  0.789687E-02  0.826793E-02
  0.955913E-02  0.992880E-02  0.101643E-01  0.102452E-01  0.101643E-01  0.992880E-02
  0.955913E-02  0.908606E-02  0.854636E-02  0.797790E-02  0.741512E-02  0.688602E-02
  0.641089E-02  0.600210E-02  0.566466E-02  0.539729E-02  0.519406E-02  0.504635E-02
  0.494456E-02  0.487957E-02  0.484389E-02  0.483257E-02  0.484389E-02  0.487957E-02
  0.494456E-02  0.504635E-02  0.519406E-02  0.539729E-02  0.566466E-02  0.600210E-02
  0.641089E-02  0.688602E-02  0.741512E-02  0.797790E-02  0.854636E-02  0.908606E-02
  0.955913E-02  0.112867E-01  0.116928E-01  0.119053E-01  0.119053E-01  0.116928E-01
  0.112867E-01  0.107214E-01  0.100420E-01  0.929768E-02  0.853592E-02  0.779715E-02
  0.711232E-02  0.650224E-02  0.597818E-02  0.554320E-02  0.519406E-02  0.492358E-02
  0.472262E-02  0.458186E-02  0.449309E-02  0.445028E-02  0.445028E-02  0.449309E-02
  0.458186E-02  0.472262E-02  0.492358E-02  0.519406E-02  0.554320E-02  0.597818E-02
  0.650224E-02  0.711232E-02  0.779715E-02  0.853592E-02  0.929768E-02  0.100420E-01
  0.107214E-01  0.112867E-01  0.135234E-01  0.139323E-01  0.140729E-01  0.139323E-01
  0.135234E-01  0.128822E-01  0.120622E-01  0.111263E-01  0.101381E-01  0.915490E-02
  0.822228E-02  0.737277E-02  0.662601E-02  0.599045E-02  0.546590E-02  0.504635E-02
  0.472262E-02  0.448443E-02  0.432210E-02  0.422792E-02  0.419706E-02  0.422792E-02
  0.432210E-02  0.448443E-02  0.472262E-02  0.504635E-02  0.546590E-02  0.599045E-02
  0.662601E-02  0.737277E-02  0.822228E-02  0.915490E-02  0.101381E-01  0.111263E-01
  0.120622E-01  0.128822E-01  0.135234E-01  0.163457E-01  0.167059E-01  0.167059E-01
  0.163457E-01  0.156585E-01  0.147047E-01  0.135625E-01  0.123157E-01  0.110434E-01
  0.981183E-02  0.867011E-02  0.765000E-02  0.676762E-02  0.602664E-02  0.542220E-02
  0.494456E-02  0.458186E-02  0.432210E-02  0.415499E-02  0.407324E-02  0.407324E-02
  0.415499E-02  0.432210E-02  0.458186E-02  0.494456E-02  0.542220E-02  0.602664E-02
  0.676762E-02  0.765000E-02  0.867011E-02  0.981183E-02  0.110434E-01  0.123157E-01
  0.135625E-01  0.147047E-01  0.156585E-01  0.163457E-01  0.198220E-01  0.200566E-01
  0.198220E-01  0.191404E-01  0.180754E-01  0.167202E-01  0.151827E-01  0.135701E-01
  0.119764E-01  0.104745E-01  0.911392E-02  0.792256E-02  0.691011E-02  0.607332E-02
  0.540127E-02  0.487957E-02  0.449309E-02  0.422792E-02  0.407324E-02  0.402241E-02
  0.407324E-02  0.422792E-02  0.449309E-02  0.487957E-02  0.540127E-02  0.607332E-02
  0.691011E-02  0.792256E-02  0.911392E-02  0.104745E-01  0.119764E-01  0.135701E-01
  0.151827E-01  0.167202E-01  0.180754E-01  0.191404E-01  0.198220E-01  0.239957E-01
  0.239957E-01  0.234026E-01  0.222745E-01  0.207170E-01  0.188646E-01  0.168595E-01
  0.148320E-01  0.128880E-01  0.111031E-01  0.952289E-02  0.816718E-02  0.703618E-02
  0.611767E-02  0.539348E-02  0.484389E-02  0.445028E-02  0.419706E-02  0.407324E-02
  0.407324E-02  0.419706E-02  0.445028E-02  0.484389E-02  0.539348E-02  0.611767E-02
  0.703618E-02  0.816718E-02  0.952289E-02  0.111031E-01  0.128880E-01  0.148320E-01
  0.168595E-01  0.188646E-01  0.207170E-01  0.222745E-01  0.234026E-01  0.239957E-01
  0.288622E-01  0.284806E-01  0.273750E-01  0.256559E-01  0.234837E-01  0.210414E-01
  0.185063E-01  0.160287E-01  0.137207E-01  0.116543E-01  0.986539E-02  0.836144E-02
  0.713024E-02  0.614902E-02  0.539155E-02  0.483257E-02  0.445028E-02  0.422792E-02
  0.415499E-02  0.422792E-02  0.445028E-02  0.483257E-02  0.539155E-02  0.614902E-02
  0.713024E-02  0.836144E-02  0.986539E-02  0.116543E-01  0.137207E-01  0.160287E-01
  0.185063E-01  0.210414E-01  0.234837E-01  0.256559E-01  0.273750E-01  0.284806E-01
  0.288622E-01  0.343394E-01  0.333917E-01  0.315966E-01  0.291346E-01  0.262324E-01
  0.231241E-01  0.200186E-01  0.170787E-01  0.144142E-01  0.120855E-01  0.101126E-01
  0.848651E-02  0.718048E-02  0.616030E-02  0.539155E-02  0.484389E-02  0.449309E-02
  0.432210E-02  0.432210E-02  0.449309E-02  0.484389E-02  0.539155E-02  0.616030E-02
  0.718048E-02  0.848651E-02  0.101126E-01  0.120855E-01  0.144142E-01  0.170787E-01
  0.200186E-01  0.231241E-01  0.262324E-01  0.291346E-01  0.315966E-01  0.333917E-01
  0.343394E-01  0.343394E-01  0.402392E-01  0.385143E-01  0.358470E-01  0.325040E-01
  0.287833E-01  0.249665E-01  0.212845E-01  0.179012E-01  0.149131E-01  0.123607E-01
  0.102423E-01  0.852969E-02  0.718048E-02  0.614902E-02  0.539348E-02  0.487957E-02
  0.458186E-02  0.448443E-02  0.458186E-02  0.487957E-02  0.539348E-02  0.614902E-02
  0.718048E-02  0.852969E-02  0.102423E-01  0.123607E-01  0.149131E-01  0.179012E-01
  0.212845E-01  0.249665E-01  0.287833E-01  0.325040E-01  0.358470E-01  0.385143E-01
  0.402392E-01  0.408364E-01  0.402392E-01  0.462530E-01  0.435371E-01  0.398377E-01
  0.355160E-01  0.309374E-01  0.264192E-01  0.221988E-01  0.184265E-01  0.151745E-01
  0.124553E-01  0.102423E-01  0.848651E-02  0.713024E-02  0.611767E-02  0.540127E-02
  0.494456E-02  0.472262E-02  0.472262E-02  0.494456E-02  0.540127E-02  0.611767E-02
  0.713024E-02  0.848651E-02  0.102423E-01  0.124553E-01  0.151745E-01  0.184265E-01
  0.221988E-01  0.264192E-01  0.309374E-01  0.355160E-01  0.398377E-01  0.435371E-01
  0.462530E-01  0.476928E-01  0.476928E-01  0.462530E-01  0.519600E-01  0.480737E-01
  0.432397E-01  0.379104E-01  0.325035E-01  0.273512E-01  0.226788E-01  0.186073E-01
  0.151745E-01  0.123607E-01  0.101126E-01  0.836144E-02  0.703618E-02  0.607332E-02
  0.542220E-02  0.504635E-02  0.492358E-02  0.504635E-02  0.542220E-02  0.607332E-02
  0.703618E-02  0.836144E-02  0.101126E-01  0.123607E-01  0.151745E-01  0.186073E-01
  0.226788E-01  0.273512E-01  0.325035E-01  0.379104E-01  0.432397E-01  0.480737E-01
  0.519600E-01  0.544867E-01  0.553639E-01  0.544867E-01  0.519600E-01  0.568679E-01
  0.517090E-01  0.457300E-01  0.394554E-01  0.333289E-01  0.276727E-01  0.226788E-01
  0.184265E-01  0.149131E-01  0.120855E-01  0.986539E-02  0.816718E-02  0.691011E-02
  0.602664E-02  0.546590E-02  0.519406E-02  0.519406E-02  0.546590E-02  0.602664E-02
  0.691011E-02  0.816718E-02  0.986539E-02  0.120855E-01  0.149131E-01  0.184265E-01
  0.226788E-01  0.276727E-01  0.333289E-01  0.394554E-01  0.457300E-01  0.517090E-01
  0.568679E-01  0.606783E-01  0.627064E-01  0.627064E-01  0.606783E-01  0.568679E-01
  0.604839E-01  0.540673E-01  0.470481E-01  0.399896E-01  0.333289E-01  0.273512E-01
  0.221988E-01  0.179012E-01  0.144142E-01  0.116543E-01  0.952289E-02  0.792256E-02
  0.676762E-02  0.599045E-02  0.554320E-02  0.539729E-02  0.554320E-02  0.599045E-02
  0.676762E-02  0.792256E-02  0.952289E-02  0.116543E-01  0.144142E-01  0.179012E-01
  0.221988E-01  0.273512E-01  0.333289E-01  0.399896E-01  0.470481E-01  0.540673E-01
  0.604839E-01  0.656757E-01  0.690668E-01  0.702468E-01  0.690668E-01  0.656757E-01
  0.604839E-01  0.624055E-01  0.548851E-01  0.470481E-01  0.394554E-01  0.325035E-01
  0.264192E-01  0.212845E-01  0.170787E-01  0.137207E-01  0.111031E-01  0.911392E-02
  0.765000E-02  0.662601E-02  0.597818E-02  0.566466E-02  0.566466E-02  0.597818E-02
  0.662601E-02  0.765000E-02  0.911392E-02  0.111031E-01  0.137207E-01  0.170787E-01
  0.212845E-01  0.264192E-01  0.325035E-01  0.394554E-01  0.470481E-01  0.548851E-01
  0.624055E-01  0.689340E-01  0.737789E-01  0.763653E-01  0.763653E-01  0.737789E-01
  0.689340E-01  0.624055E-01  0.624055E-01  0.540673E-01  0.457300E-01  0.379104E-01
  0.309374E-01  0.249665E-01  0.200186E-01  0.160287E-01  0.128880E-01  0.104745E-01
  0.867011E-02  0.737277E-02  0.650224E-02  0.600210E-02  0.583906E-02  0.600210E-02
  0.650224E-02  0.737277E-02  0.867011E-02  0.104745E-01  0.128880E-01  0.160287E-01
  0.200186E-01  0.249665E-01  0.309374E-01  0.379104E-01  0.457300E-01  0.540673E-01
  0.624055E-01  0.700668E-01  0.762917E-01  0.803697E-01  0.817910E-01  0.803697E-01
  0.762917E-01  0.700668E-01  0.624055E-01  0.604839E-01  0.517090E-01  0.432397E-01
  0.355160E-01  0.287833E-01  0.231241E-01  0.185063E-01  0.148320E-01  0.119764E-01
  0.981183E-02  0.822228E-02  0.711232E-02  0.641089E-02  0.607160E-02  0.607160E-02
  0.641089E-02  0.711232E-02  0.822228E-02  0.981183E-02  0.119764E-01  0.148320E-01
  0.185063E-01  0.231241E-01  0.287833E-01  0.355160E-01  0.432397E-01  0.517090E-01
  0.604839E-01  0.689340E-01  0.762917E-01  0.817646E-01  0.846906E-01  0.846906E-01
  0.817646E-01  0.762917E-01  0.689340E-01  0.604839E-01  0.568679E-01  0.480737E-01
  0.398377E-01  0.325040E-01  0.262324E-01  0.210414E-01  0.168595E-01  0.135701E-01
  0.110434E-01  0.915490E-02  0.779715E-02  0.688602E-02  0.636247E-02  0.619177E-02
  0.636247E-02  0.688602E-02  0.779715E-02  0.915490E-02  0.110434E-01  0.135701E-01
  0.168595E-01  0.210414E-01  0.262324E-01  0.325040E-01  0.398377E-01  0.480737E-01
  0.568679E-01  0.656757E-01  0.737789E-01  0.803697E-01  0.846906E-01  0.861970E-01
  0.846906E-01  0.803697E-01  0.737789E-01  0.656757E-01  0.568679E-01  0.519600E-01
  0.435371E-01  0.358470E-01  0.291346E-01  0.234837E-01  0.188646E-01  0.151827E-01
  0.123157E-01  0.101381E-01  0.853592E-02  0.741512E-02  0.670585E-02  0.636247E-02
  0.636247E-02  0.670585E-02  0.741512E-02  0.853592E-02  0.101381E-01  0.123157E-01
  0.151827E-01  0.188646E-01  0.234837E-01  0.291346E-01  0.358470E-01  0.435371E-01
  0.519600E-01  0.606783E-01  0.690668E-01  0.763653E-01  0.817910E-01  0.846906E-01
  0.846906E-01  0.817910E-01  0.763653E-01  0.690668E-01  0.606783E-01  0.519600E-01
  0.462530E-01  0.385143E-01  0.315966E-01  0.256559E-01  0.207170E-01  0.167202E-01
  0.135625E-01  0.111263E-01  0.929768E-02  0.797790E-02  0.708945E-02  0.657785E-02
  0.641089E-02  0.657785E-02  0.708945E-02  0.797790E-02  0.929768E-02  0.111263E-01
  0.135625E-01  0.167202E-01  0.207170E-01  0.256559E-01  0.315966E-01  0.385143E-01
  0.462530E-01  0.544867E-01  0.627064E-01  0.702468E-01  0.763653E-01  0.803697E-01
  0.817646E-01  0.803697E-01  0.763653E-01  0.702468E-01  0.627064E-01  0.544867E-01
  0.462530E-01  0.402392E-01  0.333917E-01  0.273750E-01  0.222745E-01  0.180754E-01
  0.147047E-01  0.120622E-01  0.100420E-01  0.854636E-02  0.749460E-02  0.682644E-02
  0.650224E-02  0.650224E-02  0.682644E-02  0.749460E-02  0.854636E-02  0.100420E-01
  0.120622E-01  0.147047E-01  0.180754E-01  0.222745E-01  0.273750E-01  0.333917E-01
  0.402392E-01  0.476928E-01  0.553639E-01  0.627064E-01  0.690668E-01  0.737789E-01
  0.762917E-01  0.762917E-01  0.737789E-01  0.690668E-01  0.627064E-01  0.553639E-01
  0.476928E-01  0.402392E-01  0.343394E-01  0.284806E-01  0.234026E-01  0.191404E-01
  0.156585E-01  0.128822E-01  0.107214E-01  0.908606E-02  0.789687E-02  0.709155E-02
  0.662601E-02  0.647379E-02  0.662601E-02  0.709155E-02  0.789687E-02  0.908606E-02
  0.107214E-01  0.128822E-01  0.156585E-01  0.191404E-01  0.234026E-01  0.284806E-01
  0.343394E-01  0.408364E-01  0.476928E-01  0.544867E-01  0.606783E-01  0.656757E-01
  0.689340E-01  0.700668E-01  0.689340E-01  0.656757E-01  0.606783E-01  0.544867E-01
  0.476928E-01  0.408364E-01  0.343394E-01  0.288622E-01  0.239957E-01  0.198220E-01
  0.163457E-01  0.135234E-01  0.112867E-01  0.955913E-02  0.826793E-02  0.735256E-02
  0.676762E-02  0.648284E-02  0.648284E-02  0.676762E-02  0.735256E-02  0.826793E-02
  0.955913E-02  0.112867E-01  0.135234E-01  0.163457E-01  0.198220E-01  0.239957E-01
  0.288622E-01  0.343394E-01  0.402392E-01  0.462530E-01  0.519600E-01  0.568679E-01
  0.604839E-01  0.624055E-01  0.624055E-01  0.604839E-01  0.568679E-01  0.519600E-01
  0.462530E-01  0.402392E-01  0.343394E-01  0.288622E-01  0.268728E-01  0.225144E-01
  0.188058E-01  0.157331E-01  0.132479E-01  0.112867E-01  0.978353E-02  0.867820E-02
  0.792256E-02  0.748257E-02  0.733812E-02  0.748257E-02  0.792256E-02  0.867820E-02
  0.978353E-02  0.112867E-01  0.132479E-01  0.157331E-01  0.188058E-01  0.225144E-01
  0.268728E-01  0.318344E-01  0.372637E-01  0.429191E-01  0.484545E-01  0.534452E-01
  0.574387E-01  0.600270E-01  0.609241E-01  0.600270E-01  0.574387E-01  0.534452E-01
  0.484545E-01  0.429191E-01  0.372637E-01  0.318344E-01  0.268728E-01  0.225144E-01
  0.190284E-01  0.160803E-01  0.136492E-01  0.116928E-01  0.101599E-01  0.899932E-02
  0.816718E-02  0.763053E-02  0.736764E-02  0.736764E-02  0.763053E-02  0.816718E-02
  0.899932E-02  0.101599E-01  0.116928E-01  0.136492E-01  0.160803E-01  0.190284E-01
  0.225144E-01  0.265194E-01  0.309628E-01  0.356826E-01  0.404300E-01  0.448813E-01
  0.486709E-01  0.514420E-01  0.529079E-01  0.529079E-01  0.514420E-01  0.486709E-01
  0.448813E-01  0.404300E-01  0.356826E-01  0.309628E-01  0.265194E-01  0.225144E-01
  0.188058E-01  0.160803E-01  0.137871E-01  0.119053E-01  0.103998E-01  0.923096E-02
  0.836144E-02  0.776152E-02  0.741010E-02  0.729440E-02  0.741010E-02  0.776152E-02
  0.836144E-02  0.923096E-02  0.103998E-01  0.119053E-01  0.137871E-01  0.160803E-01
  0.188058E-01  0.219592E-01  0.254951E-01  0.293104E-01  0.332346E-01  0.370331E-01
  0.404255E-01  0.431200E-01  0.448574E-01  0.454580E-01  0.448574E-01  0.431200E-01
  0.404255E-01  0.370331E-01  0.332346E-01  0.293104E-01  0.254951E-01  0.219592E-01
  0.188058E-01  0.157331E-01  0.136492E-01  0.119053E-01  0.104823E-01  0.935240E-02
  0.848651E-02  0.785937E-02  0.745202E-02  0.725166E-02  0.725166E-02  0.745202E-02
  0.785937E-02  0.848651E-02  0.935240E-02  0.104823E-01  0.119053E-01  0.136492E-01
  0.157331E-01  0.181593E-01  0.209031E-01  0.239012E-01  0.270414E-01  0.301609E-01
  0.330549E-01  0.354977E-01  0.372727E-01  0.382080E-01  0.382080E-01  0.372727E-01
  0.354977E-01  0.330549E-01  0.301609E-01  0.270414E-01  0.239012E-01  0.209031E-01
  0.181593E-01  0.157331E-01  0.132479E-01  0.116928E-01  0.103998E-01  0.935240E-02
  0.852969E-02  0.791169E-02  0.748219E-02  0.722943E-02  0.714603E-02  0.722943E-02
  0.748219E-02  0.791169E-02  0.852969E-02  0.935240E-02  0.103998E-01  0.116928E-01
  0.132479E-01  0.150706E-01  0.171487E-01  0.194440E-01  0.218850E-01  0.243623E-01
  0.267323E-01  0.288285E-01  0.304811E-01  0.315413E-01  0.319068E-01  0.315413E-01
  0.304811E-01  0.288285E-01  0.267323E-01  0.243623E-01  0.218850E-01  0.194440E-01
  0.171487E-01  0.150706E-01  0.132479E-01  0.112867E-01  0.101599E-01  0.923096E-02
  0.848651E-02  0.791169E-02  0.749313E-02  0.722027E-02  0.708578E-02  0.708578E-02
  0.722027E-02  0.749313E-02  0.791169E-02  0.848651E-02  0.923096E-02  0.101599E-01
  0.112867E-01  0.126185E-01  0.141508E-01  0.158619E-01  0.177071E-01  0.196148E-01
  0.214873E-01  0.232066E-01  0.246455E-01  0.256847E-01  0.262302E-01  0.262302E-01
  0.256847E-01  0.246455E-01  0.232066E-01  0.214873E-01  0.196148E-01  0.177071E-01
  0.158619E-01  0.141508E-01  0.126185E-01  0.112867E-01  0.978353E-02  0.899932E-02
  0.836144E-02  0.785937E-02  0.748219E-02  0.722027E-02  0.706623E-02  0.701541E-02
  0.706623E-02  0.722027E-02  0.748219E-02  0.785937E-02  0.836144E-02  0.899932E-02
  0.978353E-02  0.107214E-01  0.118135E-01  0.130488E-01  0.144009E-01  0.158243E-01
  0.172542E-01  0.186088E-01  0.197969E-01  0.207273E-01  0.213214E-01  0.215258E-01
  0.213214E-01  0.207273E-01  0.197969E-01  0.186088E-01  0.172542E-01  0.158243E-01
  0.144009E-01  0.130488E-01  0.118135E-01  0.107214E-01  0.978353E-02  0.867820E-02
  0.816718E-02  0.776152E-02  0.745202E-02  0.722943E-02  0.708578E-02  0.701541E-02
  0.701541E-02  0.708578E-02  0.722943E-02  0.745202E-02  0.776152E-02  0.816718E-02
  0.867820E-02  0.930200E-02  0.100420E-01  0.108944E-01  0.118451E-01  0.128668E-01
  0.139177E-01  0.149427E-01  0.158779E-01  0.166561E-01  0.172157E-01  0.175087E-01
  0.175087E-01  0.172157E-01  0.166561E-01  0.158779E-01  0.149427E-01  0.139177E-01
  0.128668E-01  0.118451E-01  0.108944E-01  0.100420E-01  0.930200E-02  0.867820E-02
  0.792256E-02  0.763053E-02  0.741010E-02  0.725166E-02  0.714603E-02  0.708578E-02
  0.706623E-02  0.708578E-02  0.714603E-02  0.725166E-02  0.741010E-02  0.763053E-02
  0.792256E-02  0.829470E-02  0.875270E-02  0.929768E-02  0.992377E-02  0.106160E-01
  0.113489E-01  0.120866E-01  0.127854E-01  0.133973E-01  0.138755E-01  0.141805E-01
  0.142854E-01  0.141805E-01  0.138755E-01  0.133973E-01  0.127854E-01  0.120866E-01
  0.113489E-01  0.106160E-01  0.992377E-02  0.929768E-02  0.875270E-02  0.829470E-02
  0.792256E-02  0.748257E-02  0.736764E-02  0.729440E-02  0.725166E-02  0.722943E-02
  0.722027E-02  0.722027E-02  0.722943E-02  0.725166E-02  0.729440E-02  0.736764E-02
  0.748257E-02  0.765000E-02  0.787877E-02  0.817406E-02  0.853592E-02  0.895781E-02
  0.942554E-02  0.991698E-02  0.104031E-01  0.108505E-01  0.112247E-01  0.114946E-01
  0.116362E-01  0.116362E-01  0.114946E-01  0.112247E-01  0.108505E-01  0.104031E-01
  0.991698E-02  0.942554E-02  0.895781E-02  0.853592E-02  0.817406E-02  0.787877E-02
  0.765000E-02  0.748257E-02  0.733812E-02  0.736764E-02  0.741010E-02  0.745202E-02
  0.748219E-02  0.749313E-02  0.748219E-02  0.745202E-02  0.741010E-02  0.736764E-02
  0.733812E-02  0.733556E-02  0.737277E-02  0.745951E-02  0.760104E-02  0.779715E-02
  0.804156E-02  0.832170E-02  0.861916E-02  0.891116E-02  0.917299E-02  0.938084E-02
  0.951463E-02  0.956083E-02  0.951463E-02  0.938084E-02  0.917299E-02  0.891116E-02
  0.861916E-02  0.832170E-02  0.804156E-02  0.779715E-02  0.760104E-02  0.745951E-02
  0.737277E-02  0.733556E-02  0.733812E-02  0.748257E-02  0.763053E-02  0.776152E-02
  0.785937E-02  0.791169E-02  0.791169E-02  0.785937E-02  0.776152E-02  0.763053E-02
  0.748257E-02  0.733556E-02  0.720711E-02  0.711232E-02  0.706210E-02  0.706210E-02
  0.711232E-02  0.720711E-02  0.733556E-02  0.748257E-02  0.763053E-02  0.776152E-02
  0.785937E-02  0.791169E-02  0.791169E-02  0.785937E-02  0.776152E-02  0.763053E-02
  0.748257E-02  0.733556E-02  0.720711E-02  0.711232E-02  0.706210E-02  0.706210E-02
  0.711232E-02  0.720711E-02  0.733556E-02  0.748257E-02  0.792256E-02  0.816718E-02
  0.836144E-02  0.848651E-02  0.852969E-02  0.848651E-02  0.836144E-02  0.816718E-02
  0.792256E-02  0.765000E-02  0.737277E-02  0.711232E-02  0.688602E-02  0.670585E-02
  0.657785E-02  0.650224E-02  0.647379E-02  0.648284E-02  0.651684E-02  0.656217E-02
  0.660583E-02  0.663695E-02  0.664819E-02  0.663695E-02  0.660583E-02  0.656217E-02
  0.651684E-02  0.648284E-02  0.647379E-02  0.650224E-02  0.657785E-02  0.670585E-02
  0.688602E-02  0.711232E-02  0.737277E-02  0.765000E-02  0.792256E-02  0.867820E-02
  0.899932E-02  0.923096E-02  0.935240E-02  0.935240E-02  0.923096E-02  0.899932E-02
  0.867820E-02  0.829470E-02  0.787877E-02  0.745951E-02  0.706210E-02  0.670585E-02
  0.640343E-02  0.616092E-02  0.597818E-02  0.584988E-02  0.576706E-02  0.571901E-02
  0.569489E-02  0.568506E-02  0.568215E-02  0.568215E-02  0.568506E-02  0.569489E-02
  0.571901E-02  0.576706E-02  0.584988E-02  0.597818E-02  0.616092E-02  0.640343E-02
  0.670585E-02  0.706210E-02  0.745951E-02  0.787877E-02  0.829470E-02  0.867820E-02
  0.978353E-02  0.101599E-01  0.103998E-01  0.104823E-01  0.103998E-01  0.101599E-01
  0.978353E-02  0.930200E-02  0.875270E-02  0.817406E-02  0.760104E-02  0.706210E-02
  0.657785E-02  0.616092E-02  0.581646E-02  0.554320E-02  0.533512E-02  0.518347E-02
  0.507863E-02  0.501147E-02  0.497451E-02  0.496277E-02  0.497451E-02  0.501147E-02
  0.507863E-02  0.518347E-02  0.533512E-02  0.554320E-02  0.581646E-02  0.616092E-02
  0.657785E-02  0.706210E-02  0.760104E-02  0.817406E-02  0.875270E-02  0.930200E-02
  0.978353E-02  0.112867E-01  0.116928E-01  0.119053E-01  0.119053E-01  0.116928E-01
  0.112867E-01  0.107214E-01  0.100420E-01  0.929768E-02  0.853592E-02  0.779715E-02
  0.711232E-02  0.650224E-02  0.597818E-02  0.554320E-02  0.519406E-02  0.492358E-02
  0.472262E-02  0.458186E-02  0.449309E-02  0.445028E-02  0.445028E-02  0.449309E-02
  0.458186E-02  0.472262E-02  0.492358E-02  0.519406E-02  0.554320E-02  0.597818E-02
  0.650224E-02  0.711232E-02  0.779715E-02  0.853592E-02  0.929768E-02  0.100420E-01
  0.107214E-01  0.112867E-01  0.132479E-01  0.136492E-01  0.137871E-01  0.136492E-01
  0.132479E-01  0.126185E-01  0.118135E-01  0.108944E-01  0.992377E-02  0.895781E-02
  0.804156E-02  0.720711E-02  0.647379E-02  0.584988E-02  0.533512E-02  0.492358E-02
  0.460624E-02  0.437297E-02  0.421413E-02  0.412204E-02  0.409188E-02  0.412204E-02
  0.421413E-02  0.437297E-02  0.460624E-02  0.492358E-02  0.533512E-02  0.584988E-02
  0.647379E-02  0.720711E-02  0.804156E-02  0.895781E-02  0.992377E-02  0.108944E-01
  0.118135E-01  0.126185E-01  0.132479E-01  0.157331E-01  0.160803E-01  0.160803E-01
  0.157331E-01  0.150706E-01  0.141508E-01  0.130488E-01  0.118451E-01  0.106160E-01
  0.942554E-02  0.832170E-02  0.733556E-02  0.648284E-02  0.576706E-02  0.518347E-02
  0.472262E-02  0.437297E-02  0.412284E-02  0.396209E-02  0.388353E-02  0.388353E-02
  0.396209E-02  0.412284E-02  0.437297E-02  0.472262E-02  0.518347E-02  0.576706E-02
  0.648284E-02  0.733556E-02  0.832170E-02  0.942554E-02  0.106160E-01  0.118451E-01
  0.130488E-01  0.141508E-01  0.150706E-01  0.157331E-01  0.188058E-01  0.190284E-01
  0.188058E-01  0.181593E-01  0.171487E-01  0.158619E-01  0.144009E-01  0.128668E-01
  0.113489E-01  0.991698E-02  0.861916E-02  0.748257E-02  0.651684E-02  0.571901E-02
  0.507863E-02  0.458186E-02  0.421413E-02  0.396209E-02  0.381522E-02  0.376700E-02
  0.381522E-02  0.396209E-02  0.421413E-02  0.458186E-02  0.507863E-02  0.571901E-02
  0.651684E-02  0.748257E-02  0.861916E-02  0.991698E-02  0.113489E-01  0.128668E-01
  0.144009E-01  0.158619E-01  0.171487E-01  0.181593E-01  0.188058E-01  0.225144E-01
  0.225144E-01  0.219592E-01  0.209031E-01  0.194440E-01  0.177071E-01  0.158243E-01
  0.139177E-01  0.120866E-01  0.104031E-01  0.891116E-02  0.763053E-02  0.656217E-02
  0.569489E-02  0.501147E-02  0.449309E-02  0.412204E-02  0.388353E-02  0.376700E-02
  0.376700E-02  0.388353E-02  0.412204E-02  0.449309E-02  0.501147E-02  0.569489E-02
  0.656217E-02  0.763053E-02  0.891116E-02  0.104031E-01  0.120866E-01  0.139177E-01
  0.158243E-01  0.177071E-01  0.194440E-01  0.209031E-01  0.219592E-01  0.225144E-01
  0.268728E-01  0.265194E-01  0.254951E-01  0.239012E-01  0.218850E-01  0.196148E-01
  0.172542E-01  0.149427E-01  0.127854E-01  0.108505E-01  0.917299E-02  0.776152E-02
  0.660583E-02  0.568506E-02  0.497451E-02  0.445028E-02  0.409188E-02  0.388353E-02
  0.381522E-02  0.388353E-02  0.409188E-02  0.445028E-02  0.497451E-02  0.568506E-02
  0.660583E-02  0.776152E-02  0.917299E-02  0.108505E-01  0.127854E-01  0.149427E-01
  0.172542E-01  0.196148E-01  0.218850E-01  0.239012E-01  0.254951E-01  0.265194E-01
  0.268728E-01  0.318344E-01  0.309628E-01  0.293104E-01  0.270414E-01  0.243623E-01
  0.214873E-01  0.186088E-01  0.158779E-01  0.133973E-01  0.112247E-01  0.938084E-02
  0.785937E-02  0.663695E-02  0.568215E-02  0.496277E-02  0.445028E-02  0.412204E-02
  0.396209E-02  0.396209E-02  0.412204E-02  0.445028E-02  0.496277E-02  0.568215E-02
  0.663695E-02  0.785937E-02  0.938084E-02  0.112247E-01  0.133973E-01  0.158779E-01
  0.186088E-01  0.214873E-01  0.243623E-01  0.270414E-01  0.293104E-01  0.309628E-01
  0.318344E-01  0.318344E-01  0.372637E-01  0.356826E-01  0.332346E-01  0.301609E-01
  0.267323E-01  0.232066E-01  0.197969E-01  0.166561E-01  0.138755E-01  0.114946E-01
  0.951463E-02  0.791169E-02  0.664819E-02  0.568215E-02  0.497451E-02  0.449309E-02
  0.421413E-02  0.412284E-02  0.421413E-02  0.449309E-02  0.497451E-02  0.568215E-02
  0.664819E-02  0.791169E-02  0.951463E-02  0.114946E-01  0.138755E-01  0.166561E-01
  0.197969E-01  0.232066E-01  0.267323E-01  0.301609E-01  0.332346E-01  0.356826E-01
  0.372637E-01  0.378107E-01  0.372637E-01  0.429191E-01  0.404300E-01  0.370331E-01
  0.330549E-01  0.288285E-01  0.246455E-01  0.207273E-01  0.172157E-01  0.141805E-01
  0.116362E-01  0.956083E-02  0.791169E-02  0.663695E-02  0.568506E-02  0.501147E-02
  0.458186E-02  0.437297E-02  0.437297E-02  0.458186E-02  0.501147E-02  0.568506E-02
  0.663695E-02  0.791169E-02  0.956083E-02  0.116362E-01  0.141805E-01  0.172157E-01
  0.207273E-01  0.246455E-01  0.288285E-01  0.330549E-01  0.370331E-01  0.404300E-01
  0.429191E-01  0.442373E-01  0.442373E-01  0.429191E-01  0.484545E-01  0.448813E-01
  0.404255E-01  0.354977E-01  0.304811E-01  0.256847E-01  0.213214E-01  0.175087E-01
  0.142854E-01  0.116362E-01  0.951463E-02  0.785937E-02  0.660583E-02  0.569489E-02
  0.507863E-02  0.472262E-02  0.460624E-02  0.472262E-02  0.507863E-02  0.569489E-02
  0.660583E-02  0.785937E-02  0.951463E-02  0.116362E-01  0.142854E-01  0.175087E-01
  0.213214E-01  0.256847E-01  0.304811E-01  0.354977E-01  0.404255E-01  0.448813E-01
  0.484545E-01  0.507738E-01  0.515782E-01  0.507738E-01  0.484545E-01  0.534452E-01
  0.486709E-01  0.431200E-01  0.372727E-01  0.315413E-01  0.262302E-01  0.215258E-01
  0.175087E-01  0.141805E-01  0.114946E-01  0.938084E-02  0.776152E-02  0.656217E-02
  0.571901E-02  0.518347E-02  0.492358E-02  0.492358E-02  0.518347E-02  0.571901E-02
  0.656217E-02  0.776152E-02  0.938084E-02  0.114946E-01  0.141805E-01  0.175087E-01
  0.215258E-01  0.262302E-01  0.315413E-01  0.372727E-01  0.431200E-01  0.486709E-01
  0.534452E-01  0.569632E-01  0.588329E-01  0.588329E-01  0.569632E-01  0.534452E-01
  0.574387E-01  0.514420E-01  0.448574E-01  0.382080E-01  0.319068E-01  0.262302E-01
  0.213214E-01  0.172157E-01  0.138755E-01  0.112247E-01  0.917299E-02  0.763053E-02
  0.651684E-02  0.576706E-02  0.533512E-02  0.519406E-02  0.533512E-02  0.576706E-02
  0.651684E-02  0.763053E-02  0.917299E-02  0.112247E-01  0.138755E-01  0.172157E-01
  0.213214E-01  0.262302E-01  0.319068E-01  0.382080E-01  0.448574E-01  0.514420E-01
  0.574387E-01  0.622761E-01  0.654290E-01  0.665249E-01  0.654290E-01  0.622761E-01
  0.574387E-01  0.600270E-01  0.529079E-01  0.454580E-01  0.382080E-01  0.315413E-01
  0.256847E-01  0.207273E-01  0.166561E-01  0.133973E-01  0.108505E-01  0.891116E-02
  0.748257E-02  0.648284E-02  0.584988E-02  0.554320E-02  0.554320E-02  0.584988E-02
  0.648284E-02  0.748257E-02  0.891116E-02  0.108505E-01  0.133973E-01  0.166561E-01
  0.207273E-01  0.256847E-01  0.315413E-01  0.382080E-01  0.454580E-01  0.529079E-01
  0.600270E-01  0.661851E-01  0.707429E-01  0.731719E-01  0.731719E-01  0.707429E-01
  0.661851E-01  0.600270E-01  0.609241E-01  0.529079E-01  0.448574E-01  0.372727E-01
  0.304811E-01  0.246455E-01  0.197969E-01  0.158779E-01  0.127854E-01  0.104031E-01
  0.861916E-02  0.733556E-02  0.647379E-02  0.597818E-02  0.581646E-02  0.597818E-02
  0.647379E-02  0.733556E-02  0.861916E-02  0.104031E-01  0.127854E-01  0.158779E-01
  0.197969E-01  0.246455E-01  0.304811E-01  0.372727E-01  0.448574E-01  0.529079E-01
  0.609241E-01  0.682608E-01  0.742032E-01  0.780875E-01  0.794397E-01  0.780875E-01
  0.742032E-01  0.682608E-01  0.609241E-01  0.600270E-01  0.514420E-01  0.431200E-01
  0.354977E-01  0.288285E-01  0.232066E-01  0.186088E-01  0.149427E-01  0.120866E-01
  0.991698E-02  0.832170E-02  0.720711E-02  0.650224E-02  0.616092E-02  0.616092E-02
  0.650224E-02  0.720711E-02  0.832170E-02  0.991698E-02  0.120866E-01  0.149427E-01
  0.186088E-01  0.232066E-01  0.288285E-01  0.354977E-01  0.431200E-01  0.514420E-01
  0.600270E-01  0.682608E-01  0.754054E-01  0.807059E-01  0.835350E-01  0.835350E-01
  0.807059E-01  0.754054E-01  0.682608E-01  0.600270E-01  0.574387E-01  0.486709E-01
  0.404255E-01  0.330549E-01  0.267323E-01  0.214873E-01  0.172542E-01  0.139177E-01
  0.113489E-01  0.942554E-02  0.804156E-02  0.711232E-02  0.657785E-02  0.640343E-02
  0.657785E-02  0.711232E-02  0.804156E-02  0.942554E-02  0.113489E-01  0.139177E-01
  0.172542E-01  0.214873E-01  0.267323E-01  0.330549E-01  0.404255E-01  0.486709E-01
  0.574387E-01  0.661851E-01  0.742032E-01  0.807059E-01  0.849604E-01  0.864422E-01
  0.849604E-01  0.807059E-01  0.742032E-01  0.661851E-01  0.574387E-01  0.534452E-01
  0.448813E-01  0.370331E-01  0.301609E-01  0.243623E-01  0.196148E-01  0.158243E-01
  0.128668E-01  0.106160E-01  0.895781E-02  0.779715E-02  0.706210E-02  0.670585E-02
  0.670585E-02  0.706210E-02  0.779715E-02  0.895781E-02  0.106160E-01  0.128668E-01
  0.158243E-01  0.196148E-01  0.243623E-01  0.301609E-01  0.370331E-01  0.448813E-01
  0.534452E-01  0.622761E-01  0.707429E-01  0.780875E-01  0.835350E-01  0.864422E-01
  0.864422E-01  0.835350E-01  0.780875E-01  0.707429E-01  0.622761E-01  0.534452E-01
  0.484545E-01  0.404300E-01  0.332346E-01  0.270414E-01  0.218850E-01  0.177071E-01
  0.144009E-01  0.118451E-01  0.992377E-02  0.853592E-02  0.760104E-02  0.706210E-02
  0.688602E-02  0.706210E-02  0.760104E-02  0.853592E-02  0.992377E-02  0.118451E-01
  0.144009E-01  0.177071E-01  0.218850E-01  0.270414E-01  0.332346E-01  0.404300E-01
  0.484545E-01  0.569632E-01  0.654290E-01  0.731719E-01  0.794397E-01  0.835350E-01
  0.849604E-01  0.835350E-01  0.794397E-01  0.731719E-01  0.654290E-01  0.569632E-01
  0.484545E-01  0.429191E-01  0.356826E-01  0.293104E-01  0.239012E-01  0.194440E-01
  0.158619E-01  0.130488E-01  0.108944E-01  0.929768E-02  0.817406E-02  0.745951E-02
  0.711232E-02  0.711232E-02  0.745951E-02  0.817406E-02  0.929768E-02  0.108944E-01
  0.130488E-01  0.158619E-01  0.194440E-01  0.239012E-01  0.293104E-01  0.356826E-01
  0.429191E-01  0.507738E-01  0.588329E-01  0.665249E-01  0.731719E-01  0.780875E-01
  0.807059E-01  0.807059E-01  0.780875E-01  0.731719E-01  0.665249E-01  0.588329E-01
  0.507738E-01  0.429191E-01  0.372637E-01  0.309628E-01  0.254951E-01  0.209031E-01
  0.171487E-01  0.141508E-01  0.118135E-01  0.100420E-01  0.875270E-02  0.787877E-02
  0.737277E-02  0.720711E-02  0.737277E-02  0.787877E-02  0.875270E-02  0.100420E-01
  0.118135E-01  0.141508E-01  0.171487E-01  0.209031E-01  0.254951E-01  0.309628E-01
  0.372637E-01  0.442373E-01  0.515782E-01  0.588329E-01  0.654290E-01  0.707429E-01
  0.742032E-01  0.754054E-01  0.742032E-01  0.707429E-01  0.654290E-01  0.588329E-01
  0.515782E-01  0.442373E-01  0.372637E-01  0.318344E-01  0.265194E-01  0.219592E-01
  0.181593E-01  0.150706E-01  0.126185E-01  0.107214E-01  0.930200E-02  0.829470E-02
  0.765000E-02  0.733556E-02  0.733556E-02  0.765000E-02  0.829470E-02  0.930200E-02
  0.107214E-01  0.126185E-01  0.150706E-01  0.181593E-01  0.219592E-01  0.265194E-01
  0.318344E-01  0.378107E-01  0.442373E-01  0.507738E-01  0.569632E-01  0.622761E-01
  0.661851E-01  0.682608E-01  0.682608E-01  0.661851E-01  0.622761E-01  0.569632E-01
  0.507738E-01  0.442373E-01  0.378107E-01  0.318344E-01  0.268728E-01  0.225144E-01
  0.188058E-01  0.157331E-01  0.132479E-01  0.112867E-01  0.978353E-02  0.867820E-02
  0.792256E-02  0.748257E-02  0.733812E-02  0.748257E-02  0.792256E-02  0.867820E-02
  0.978353E-02  0.112867E-01  0.132479E-01  0.157331E-01  0.188058E-01  0.225144E-01
  0.268728E-01  0.318344E-01  0.372637E-01  0.429191E-01  0.484545E-01  0.534452E-01
  0.574387E-01  0.600270E-01  0.609241E-01  0.600270E-01  0.574387E-01  0.534452E-01
  0.484545E-01  0.429191E-01  0.372637E-01  0.318344E-01  0.268728E-01  0.256898E-01
  0.217826E-01  0.184709E-01  0.157331E-01  0.135234E-01  0.117870E-01  0.104694E-01
  0.952289E-02  0.891116E-02  0.861087E-02  0.861087E-02  0.891116E-02  0.952289E-02
  0.104694E-01  0.117870E-01  0.135234E-01  0.157331E-01  0.184709E-01  0.217826E-01
  0.256898E-01  0.301662E-01  0.351117E-01  0.403349E-01  0.455524E-01  0.504091E-01
  0.545156E-01  0.575017E-01  0.590754E-01  0.590754E-01  0.575017E-01  0.545156E-01
  0.504091E-01  0.455524E-01  0.403349E-01  0.351117E-01  0.301662E-01  0.256898E-01
  0.217826E-01  0.186895E-01  0.160803E-01  0.139323E-01  0.122085E-01  0.108663E-01
  0.986539E-02  0.917299E-02  0.876633E-02  0.863222E-02  0.876633E-02  0.917299E-02
  0.986539E-02  0.108663E-01  0.122085E-01  0.139323E-01  0.160803E-01  0.186895E-01
  0.217826E-01  0.253532E-01  0.293458E-01  0.336372E-01  0.380281E-01  0.422523E-01
  0.460015E-01  0.489627E-01  0.508640E-01  0.515197E-01  0.508640E-01  0.489627E-01
  0.460015E-01  0.422523E-01  0.380281E-01  0.336372E-01  0.293458E-01  0.253532E-01
  0.217826E-01  0.184709E-01  0.160803E-01  0.140729E-01  0.124291E-01  0.111195E-01
  0.101126E-01  0.938084E-02  0.890390E-02  0.866870E-02  0.866870E-02  0.890390E-02
  0.938084E-02  0.101126E-01  0.111195E-01  0.124291E-01  0.140729E-01  0.160803E-01
  0.184709E-01  0.212463E-01  0.243775E-01  0.277898E-01  0.313514E-01  0.348735E-01
  0.381241E-01  0.408539E-01  0.428288E-01  0.438662E-01  0.438662E-01  0.428288E-01
  0.408539E-01  0.381241E-01  0.348735E-01  0.313514E-01  0.277898E-01  0.243775E-01
  0.212463E-01  0.184709E-01  0.157331E-01  0.139323E-01  0.124291E-01  0.112066E-01
  0.102423E-01  0.951463E-02  0.900650E-02  0.870635E-02  0.860713E-02  0.870635E-02
  0.900650E-02  0.951463E-02  0.102423E-01  0.112066E-01  0.124291E-01  0.139323E-01
  0.157331E-01  0.178359E-01  0.202258E-01  0.228587E-01  0.256512E-01  0.284765E-01
  0.311693E-01  0.335413E-01  0.354038E-01  0.365948E-01  0.370047E-01  0.365948E-01
  0.354038E-01  0.335413E-01  0.311693E-01  0.284765E-01  0.256512E-01  0.228587E-01
  0.202258E-01  0.178359E-01  0.157331E-01  0.135234E-01  0.122085E-01  0.111195E-01
  0.102423E-01  0.956083E-02  0.906127E-02  0.873380E-02  0.857185E-02  0.857185E-02
  0.873380E-02  0.906127E-02  0.956083E-02  0.102423E-01  0.111195E-01  0.122085E-01
  0.135234E-01  0.150706E-01  0.168432E-01  0.188156E-01  0.209362E-01  0.231227E-01
  0.252629E-01  0.272219E-01  0.288564E-01  0.300334E-01  0.306499E-01  0.306499E-01
  0.300334E-01  0.288564E-01  0.272219E-01  0.252629E-01  0.231227E-01  0.209362E-01
  0.188156E-01  0.168432E-01  0.150706E-01  0.135234E-01  0.117870E-01  0.108663E-01
  0.101126E-01  0.951463E-02  0.906127E-02  0.874378E-02  0.855595E-02  0.849382E-02
  0.855595E-02  0.874378E-02  0.906127E-02  0.951463E-02  0.101126E-01  0.108663E-01
  0.117870E-01  0.128822E-01  0.141508E-01  0.155792E-01  0.171361E-01  0.187694E-01
  0.204050E-01  0.219505E-01  0.233027E-01  0.243589E-01  0.250321E-01  0.252633E-01
  0.250321E-01  0.243589E-01  0.233027E-01  0.219505E-01  0.204050E-01  0.187694E-01
  0.171361E-01  0.155792E-01  0.141508E-01  0.128822E-01  0.117870E-01  0.104694E-01
  0.986539E-02  0.938084E-02  0.900650E-02  0.873380E-02  0.855595E-02  0.846825E-02
  0.846825E-02  0.855595E-02  0.873380E-02  0.900650E-02  0.938084E-02  0.986539E-02
  0.104694E-01  0.112007E-01  0.120622E-01  0.130488E-01  0.141434E-01  0.153142E-01
  0.165133E-01  0.176791E-01  0.187397E-01  0.196203E-01  0.202523E-01  0.205826E-01
  0.205826E-01  0.202523E-01  0.196203E-01  0.187397E-01  0.176791E-01  0.165133E-01
  0.153142E-01  0.141434E-01  0.130488E-01  0.120622E-01  0.112007E-01  0.104694E-01
  0.952289E-02  0.917299E-02  0.890390E-02  0.870635E-02  0.857185E-02  0.849382E-02
  0.846825E-02  0.849382E-02  0.857185E-02  0.870635E-02  0.890390E-02  0.917299E-02
  0.952289E-02  0.996203E-02  0.104962E-01  0.111263E-01  0.118451E-01  0.126353E-01
  0.134674E-01  0.143012E-01  0.150880E-01  0.157751E-01  0.163108E-01  0.166517E-01
  0.167687E-01  0.166517E-01  0.163108E-01  0.157751E-01  0.150880E-01  0.143012E-01
  0.134674E-01  0.126353E-01  0.118451E-01  0.111263E-01  0.104962E-01  0.996203E-02
  0.952289E-02  0.891116E-02  0.876633E-02  0.866870E-02  0.860713E-02  0.857185E-02
  0.855595E-02  0.855595E-02  0.857185E-02  0.860713E-02  0.866870E-02  0.876633E-02
  0.891116E-02  0.911392E-02  0.938336E-02  0.972478E-02  0.101381E-01  0.106160E-01
  0.111423E-01  0.116922E-01  0.122337E-01  0.127303E-01  0.131445E-01  0.134424E-01
  0.135983E-01  0.135983E-01  0.134424E-01  0.131445E-01  0.127303E-01  0.122337E-01
  0.116922E-01  0.111423E-01  0.106160E-01  0.101381E-01  0.972478E-02  0.938336E-02
  0.911392E-02  0.891116E-02  0.861087E-02  0.863222E-02  0.866870E-02  0.870635E-02
  0.873380E-02  0.874378E-02  0.873380E-02  0.870635E-02  0.866870E-02  0.863222E-02
  0.861087E-02  0.861916E-02  0.867011E-02  0.877367E-02  0.893533E-02  0.915490E-02
  0.942554E-02  0.973353E-02  0.100589E-01  0.103772E-01  0.106619E-01  0.108871E-01
  0.110318E-01  0.110816E-01  0.110318E-01  0.108871E-01  0.106619E-01  0.103772E-01
  0.100589E-01  0.973353E-02  0.942554E-02  0.915490E-02  0.893533E-02  0.877367E-02
  0.867011E-02  0.861916E-02  0.861087E-02  0.861087E-02  0.876633E-02  0.890390E-02
  0.900650E-02  0.906127E-02  0.906127E-02  0.900650E-02  0.890390E-02  0.876633E-02
  0.861087E-02  0.845649E-02  0.832170E-02  0.822228E-02  0.816961E-02  0.816961E-02
  0.822228E-02  0.832170E-02  0.845649E-02  0.861087E-02  0.876633E-02  0.890390E-02
  0.900650E-02  0.906127E-02  0.906127E-02  0.900650E-02  0.890390E-02  0.876633E-02
  0.861087E-02  0.845649E-02  0.832170E-02  0.822228E-02  0.816961E-02  0.816961E-02
  0.822228E-02  0.832170E-02  0.845649E-02  0.861087E-02  0.891116E-02  0.917299E-02
  0.938084E-02  0.951463E-02  0.956083E-02  0.951463E-02  0.938084E-02  0.917299E-02
  0.891116E-02  0.861916E-02  0.832170E-02  0.804156E-02  0.779715E-02  0.760104E-02
  0.745951E-02  0.737277E-02  0.733556E-02  0.733812E-02  0.736764E-02  0.741010E-02
  0.745202E-02  0.748219E-02  0.749313E-02  0.748219E-02  0.745202E-02  0.741010E-02
  0.736764E-02  0.733812E-02  0.733556E-02  0.737277E-02  0.745951E-02  0.760104E-02
  0.779715E-02  0.804156E-02  0.832170E-02  0.861916E-02  0.891116E-02  0.952289E-02
  0.986539E-02  0.101126E-01  0.102423E-01  0.102423E-01  0.101126E-01  0.986539E-02
  0.952289E-02  0.911392E-02  0.867011E-02  0.822228E-02  0.779715E-02  0.741512E-02
  0.708945E-02  0.682644E-02  0.662601E-02  0.648284E-02  0.638793E-02  0.633045E-02
  0.629943E-02  0.628509E-02  0.627995E-02  0.627995E-02  0.628509E-02  0.629943E-02
  0.633045E-02  0.638793E-02  0.648284E-02  0.662601E-02  0.682644E-02  0.708945E-02
  0.741512E-02  0.779715E-02  0.822228E-02  0.867011E-02  0.911392E-02  0.952289E-02
  0.104694E-01  0.108663E-01  0.111195E-01  0.112066E-01  0.111195E-01  0.108663E-01
  0.104694E-01  0.996203E-02  0.938336E-02  0.877367E-02  0.816961E-02  0.760104E-02
  0.708945E-02  0.664799E-02  0.628206E-02  0.599045E-02  0.576706E-02  0.560300E-02
  0.548855E-02  0.541457E-02  0.537354E-02  0.536045E-02  0.537354E-02  0.541457E-02
  0.548855E-02  0.560300E-02  0.576706E-02  0.599045E-02  0.628206E-02  0.664799E-02
  0.708945E-02  0.760104E-02  0.816961E-02  0.877367E-02  0.938336E-02  0.996203E-02
  0.104694E-01  0.117870E-01  0.122085E-01  0.124291E-01  0.124291E-01  0.122085E-01
  0.117870E-01  0.112007E-01  0.104962E-01  0.972478E-02  0.893533E-02  0.816961E-02
  0.745951E-02  0.682644E-02  0.628206E-02  0.582963E-02  0.546590E-02  0.518347E-02
  0.497304E-02  0.482520E-02  0.473173E-02  0.468658E-02  0.468658E-02  0.473173E-02
  0.482520E-02  0.497304E-02  0.518347E-02  0.546590E-02  0.582963E-02  0.628206E-02
  0.682644E-02  0.745951E-02  0.816961E-02  0.893533E-02  0.972478E-02  0.104962E-01
  0.112007E-01  0.117870E-01  0.135234E-01  0.139323E-01  0.140729E-01  0.139323E-01
  0.135234E-01  0.128822E-01  0.120622E-01  0.111263E-01  0.101381E-01  0.915490E-02
  0.822228E-02  0.737277E-02  0.662601E-02  0.599045E-02  0.546590E-02  0.504635E-02
  0.472262E-02  0.448443E-02  0.432210E-02  0.422792E-02  0.419706E-02  0.422792E-02
  0.432210E-02  0.448443E-02  0.472262E-02  0.504635E-02  0.546590E-02  0.599045E-02
  0.662601E-02  0.737277E-02  0.822228E-02  0.915490E-02  0.101381E-01  0.111263E-01
  0.120622E-01  0.128822E-01  0.135234E-01  0.157331E-01  0.160803E-01  0.160803E-01
  0.157331E-01  0.150706E-01  0.141508E-01  0.130488E-01  0.118451E-01  0.106160E-01
  0.942554E-02  0.832170E-02  0.733556E-02  0.648284E-02  0.576706E-02  0.518347E-02
  0.472262E-02  0.437297E-02  0.412284E-02  0.396209E-02  0.388353E-02  0.388353E-02
  0.396209E-02  0.412284E-02  0.437297E-02  0.472262E-02  0.518347E-02  0.576706E-02
  0.648284E-02  0.733556E-02  0.832170E-02  0.942554E-02  0.106160E-01  0.118451E-01
  0.130488E-01  0.141508E-01  0.150706E-01  0.157331E-01  0.184709E-01  0.186895E-01
  0.184709E-01  0.178359E-01  0.168432E-01  0.155792E-01  0.141434E-01  0.126353E-01
  0.111423E-01  0.973353E-02  0.845649E-02  0.733812E-02  0.638793E-02  0.560300E-02
  0.497304E-02  0.448443E-02  0.412284E-02  0.387509E-02  0.373079E-02  0.368342E-02
  0.373079E-02  0.387509E-02  0.412284E-02  0.448443E-02  0.497304E-02  0.560300E-02
  0.638793E-02  0.733812E-02  0.845649E-02  0.973353E-02  0.111423E-01  0.126353E-01
  0.141434E-01  0.155792E-01  0.168432E-01  0.178359E-01  0.184709E-01  0.217826E-01
  0.217826E-01  0.212463E-01  0.202258E-01  0.188156E-01  0.171361E-01  0.153142E-01
  0.134674E-01  0.116922E-01  0.100589E-01  0.861087E-02  0.736764E-02  0.633045E-02
  0.548855E-02  0.482520E-02  0.432210E-02  0.396209E-02  0.373079E-02  0.361785E-02
  0.361785E-02  0.373079E-02  0.396209E-02  0.432210E-02  0.482520E-02  0.548855E-02
  0.633045E-02  0.736764E-02  0.861087E-02  0.100589E-01  0.116922E-01  0.134674E-01
  0.153142E-01  0.171361E-01  0.188156E-01  0.202258E-01  0.212463E-01  0.217826E-01
  0.256898E-01  0.253532E-01  0.243775E-01  0.228587E-01  0.209362E-01  0.187694E-01
  0.165133E-01  0.143012E-01  0.122337E-01  0.103772E-01  0.876633E-02  0.741010E-02
  0.629943E-02  0.541457E-02  0.473173E-02  0.422792E-02  0.388353E-02  0.368342E-02
  0.361785E-02  0.368342E-02  0.388353E-02  0.422792E-02  0.473173E-02  0.541457E-02
  0.629943E-02  0.741010E-02  0.876633E-02  0.103772E-01  0.122337E-01  0.143012E-01
  0.165133E-01  0.187694E-01  0.209362E-01  0.228587E-01  0.243775E-01  0.253532E-01
  0.256898E-01  0.301662E-01  0.293458E-01  0.277898E-01  0.256512E-01  0.231227E-01
  0.204050E-01  0.176791E-01  0.150880E-01  0.127303E-01  0.106619E-01  0.890390E-02
  0.745202E-02  0.628509E-02  0.537354E-02  0.468658E-02  0.419706E-02  0.388353E-02
  0.373079E-02  0.373079E-02  0.388353E-02  0.419706E-02  0.468658E-02  0.537354E-02
  0.628509E-02  0.745202E-02  0.890390E-02  0.106619E-01  0.127303E-01  0.150880E-01
  0.176791E-01  0.204050E-01  0.231227E-01  0.256512E-01  0.277898E-01  0.293458E-01
  0.301662E-01  0.301662E-01  0.351117E-01  0.336372E-01  0.313514E-01  0.284765E-01
  0.252629E-01  0.219505E-01  0.187397E-01  0.157751E-01  0.131445E-01  0.108871E-01
  0.900650E-02  0.748219E-02  0.627995E-02  0.536045E-02  0.468658E-02  0.422792E-02
  0.396209E-02  0.387509E-02  0.396209E-02  0.422792E-02  0.468658E-02  0.536045E-02
  0.627995E-02  0.748219E-02  0.900650E-02  0.108871E-01  0.131445E-01  0.157751E-01
  0.187397E-01  0.219505E-01  0.252629E-01  0.284765E-01  0.313514E-01  0.336372E-01
  0.351117E-01  0.356215E-01  0.351117E-01  0.403349E-01  0.380281E-01  0.348735E-01
  0.311693E-01  0.272219E-01  0.233027E-01  0.196203E-01  0.163108E-01  0.134424E-01
  0.110318E-01  0.906127E-02  0.749313E-02  0.627995E-02  0.537354E-02  0.473173E-02
  0.432210E-02  0.412284E-02  0.412284E-02  0.432210E-02  0.473173E-02  0.537354E-02
  0.627995E-02  0.749313E-02  0.906127E-02  0.110318E-01  0.134424E-01  0.163108E-01
  0.196203E-01  0.233027E-01  0.272219E-01  0.311693E-01  0.348735E-01  0.380281E-01
  0.403349E-01  0.415549E-01  0.415549E-01  0.403349E-01  0.455524E-01  0.422523E-01
  0.381241E-01  0.335413E-01  0.288564E-01  0.243589E-01  0.202523E-01  0.166517E-01
  0.135983E-01  0.110816E-01  0.906127E-02  0.748219E-02  0.628509E-02  0.541457E-02
  0.482520E-02  0.448443E-02  0.437297E-02  0.448443E-02  0.482520E-02  0.541457E-02
  0.628509E-02  0.748219E-02  0.906127E-02  0.110816E-01  0.135983E-01  0.166517E-01
  0.202523E-01  0.243589E-01  0.288564E-01  0.335413E-01  0.381241E-01  0.422523E-01
  0.455524E-01  0.476896E-01  0.484300E-01  0.476896E-01  0.455524E-01  0.504091E-01
  0.460015E-01  0.408539E-01  0.354038E-01  0.300334E-01  0.250321E-01  0.205826E-01
  0.167687E-01  0.135983E-01  0.110318E-01  0.900650E-02  0.745202E-02  0.629943E-02
  0.548855E-02  0.497304E-02  0.472262E-02  0.472262E-02  0.497304E-02  0.548855E-02
  0.629943E-02  0.745202E-02  0.900650E-02  0.110318E-01  0.135983E-01  0.167687E-01
  0.205826E-01  0.250321E-01  0.300334E-01  0.354038E-01  0.408539E-01  0.460015E-01
  0.504091E-01  0.536455E-01  0.553618E-01  0.553618E-01  0.536455E-01  0.504091E-01
  0.545156E-01  0.489627E-01  0.428288E-01  0.365948E-01  0.306499E-01  0.252633E-01
  0.205826E-01  0.166517E-01  0.134424E-01  0.108871E-01  0.890390E-02  0.741010E-02
  0.633045E-02  0.560300E-02  0.518347E-02  0.504635E-02  0.518347E-02  0.560300E-02
  0.633045E-02  0.741010E-02  0.890390E-02  0.108871E-01  0.134424E-01  0.166517E-01
  0.205826E-01  0.252633E-01  0.306499E-01  0.365948E-01  0.428288E-01  0.489627E-01
  0.545156E-01  0.589724E-01  0.618667E-01  0.628708E-01  0.618667E-01  0.589724E-01
  0.545156E-01  0.575017E-01  0.508640E-01  0.438662E-01  0.370047E-01  0.306499E-01
  0.250321E-01  0.202523E-01  0.163108E-01  0.131445E-01  0.106619E-01  0.876633E-02
  0.736764E-02  0.638793E-02  0.576706E-02  0.546590E-02  0.546590E-02  0.576706E-02
  0.638793E-02  0.736764E-02  0.876633E-02  0.106619E-01  0.131445E-01  0.163108E-01
  0.202523E-01  0.250321E-01  0.306499E-01  0.370047E-01  0.438662E-01  0.508640E-01
  0.575017E-01  0.632050E-01  0.674035E-01  0.696333E-01  0.696333E-01  0.674035E-01
  0.632050E-01  0.575017E-01  0.590754E-01  0.515197E-01  0.438662E-01  0.365948E-01
  0.300334E-01  0.243589E-01  0.196203E-01  0.157751E-01  0.127303E-01  0.103772E-01
  0.861087E-02  0.733812E-02  0.648284E-02  0.599045E-02  0.582963E-02  0.599045E-02
  0.648284E-02  0.733812E-02  0.861087E-02  0.103772E-01  0.127303E-01  0.157751E-01
  0.196203E-01  0.243589E-01  0.300334E-01  0.365948E-01  0.438662E-01  0.515197E-01
  0.590754E-01  0.659339E-01  0.714496E-01  0.750361E-01  0.762812E-01  0.750361E-01
  0.714496E-01  0.659339E-01  0.590754E-01  0.590754E-01  0.508640E-01  0.428288E-01
  0.354038E-01  0.288564E-01  0.233027E-01  0.187397E-01  0.150880E-01  0.122337E-01
  0.100589E-01  0.845649E-02  0.733556E-02  0.662601E-02  0.628206E-02  0.628206E-02
  0.662601E-02  0.733556E-02  0.845649E-02  0.100589E-01  0.122337E-01  0.150880E-01
  0.187397E-01  0.233027E-01  0.288564E-01  0.354038E-01  0.428288E-01  0.508640E-01
  0.590754E-01  0.668771E-01  0.735884E-01  0.785329E-01  0.811602E-01  0.811602E-01
  0.785329E-01  0.735884E-01  0.668771E-01  0.590754E-01  0.575017E-01  0.489627E-01
  0.408539E-01  0.335413E-01  0.272219E-01  0.219505E-01  0.176791E-01  0.143012E-01
  0.116922E-01  0.973353E-02  0.832170E-02  0.737277E-02  0.682644E-02  0.664799E-02
  0.682644E-02  0.737277E-02  0.832170E-02  0.973353E-02  0.116922E-01  0.143012E-01
  0.176791E-01  0.219505E-01  0.272219E-01  0.335413E-01  0.408539E-01  0.489627E-01
  0.575017E-01  0.659339E-01  0.735884E-01  0.797439E-01  0.837465E-01  0.851361E-01
  0.837465E-01  0.797439E-01  0.735884E-01  0.659339E-01  0.575017E-01  0.545156E-01
  0.460015E-01  0.381241E-01  0.311693E-01  0.252629E-01  0.204050E-01  0.165133E-01
  0.134674E-01  0.111423E-01  0.942554E-02  0.822228E-02  0.745951E-02  0.708945E-02
  0.708945E-02  0.745951E-02  0.822228E-02  0.942554E-02  0.111423E-01  0.134674E-01
  0.165133E-01  0.204050E-01  0.252629E-01  0.311693E-01  0.381241E-01  0.460015E-01
  0.545156E-01  0.632050E-01  0.714496E-01  0.785329E-01  0.837465E-01  0.865154E-01
  0.865154E-01  0.837465E-01  0.785329E-01  0.714496E-01  0.632050E-01  0.545156E-01
  0.504091E-01  0.422523E-01  0.348735E-01  0.284765E-01  0.231227E-01  0.187694E-01
  0.153142E-01  0.126353E-01  0.106160E-01  0.915490E-02  0.816961E-02  0.760104E-02
  0.741512E-02  0.760104E-02  0.816961E-02  0.915490E-02  0.106160E-01  0.126353E-01
  0.153142E-01  0.187694E-01  0.231227E-01  0.284765E-01  0.348735E-01  0.422523E-01
  0.504091E-01  0.589724E-01  0.674035E-01  0.750361E-01  0.811602E-01  0.851361E-01
  0.865154E-01  0.851361E-01  0.811602E-01  0.750361E-01  0.674035E-01  0.589724E-01
  0.504091E-01  0.455524E-01  0.380281E-01  0.313514E-01  0.256512E-01  0.209362E-01
  0.171361E-01  0.141434E-01  0.118451E-01  0.101381E-01  0.893533E-02  0.816961E-02
  0.779715E-02  0.779715E-02  0.816961E-02  0.893533E-02  0.101381E-01  0.118451E-01
  0.141434E-01  0.171361E-01  0.209362E-01  0.256512E-01  0.313514E-01  0.380281E-01
  0.455524E-01  0.536455E-01  0.618667E-01  0.696333E-01  0.762812E-01  0.811602E-01
  0.837465E-01  0.837465E-01  0.811602E-01  0.762812E-01  0.696333E-01  0.618667E-01
  0.536455E-01  0.455524E-01  0.403349E-01  0.336372E-01  0.277898E-01  0.228587E-01
  0.188156E-01  0.155792E-01  0.130488E-01  0.111263E-01  0.972478E-02  0.877367E-02
  0.822228E-02  0.804156E-02  0.822228E-02  0.877367E-02  0.972478E-02  0.111263E-01
  0.130488E-01  0.155792E-01  0.188156E-01  0.228587E-01  0.277898E-01  0.336372E-01
  0.403349E-01  0.476896E-01  0.553618E-01  0.628708E-01  0.696333E-01  0.750361E-01
  0.785329E-01  0.797439E-01  0.785329E-01  0.750361E-01  0.696333E-01  0.628708E-01
  0.553618E-01  0.476896E-01  0.403349E-01  0.351117E-01  0.293458E-01  0.243775E-01
  0.202258E-01  0.168432E-01  0.141508E-01  0.120622E-01  0.104962E-01  0.938336E-02
  0.867011E-02  0.832170E-02  0.832170E-02  0.867011E-02  0.938336E-02  0.104962E-01
  0.120622E-01  0.141508E-01  0.168432E-01  0.202258E-01  0.243775E-01  0.293458E-01
  0.351117E-01  0.415549E-01  0.484300E-01  0.553618E-01  0.618667E-01  0.674035E-01
  0.714496E-01  0.735884E-01  0.735884E-01  0.714496E-01  0.674035E-01  0.618667E-01
  0.553618E-01  0.484300E-01  0.415549E-01  0.351117E-01  0.301662E-01  0.253532E-01
  0.212463E-01  0.178359E-01  0.150706E-01  0.128822E-01  0.112007E-01  0.996203E-02
  0.911392E-02  0.861916E-02  0.845649E-02  0.861916E-02  0.911392E-02  0.996203E-02
  0.112007E-01  0.128822E-01  0.150706E-01  0.178359E-01  0.212463E-01  0.253532E-01
  0.301662E-01  0.356215E-01  0.415549E-01  0.476896E-01  0.536455E-01  0.589724E-01
  0.632050E-01  0.659339E-01  0.668771E-01  0.659339E-01  0.632050E-01  0.589724E-01
  0.536455E-01  0.476896E-01  0.415549E-01  0.356215E-01  0.301662E-01  0.256898E-01
  0.217826E-01  0.184709E-01  0.157331E-01  0.135234E-01  0.117870E-01  0.104694E-01
  0.952289E-02  0.891116E-02  0.861087E-02  0.861087E-02  0.891116E-02  0.952289E-02
  0.104694E-01  0.117870E-01  0.135234E-01  0.157331E-01  0.184709E-01  0.217826E-01
  0.256898E-01  0.301662E-01  0.351117E-01  0.403349E-01  0.455524E-01  0.504091E-01
  0.545156E-01  0.575017E-01  0.590754E-01  0.590754E-01  0.575017E-01  0.545156E-01
  0.504091E-01  0.455524E-01  0.403349E-01  0.351117E-01  0.301662E-01  0.256898E-01
  0.252973E-01  0.217826E-01  0.188058E-01  0.163457E-01  0.143630E-01  0.128134E-01
  0.116543E-01  0.108505E-01  0.103772E-01  0.102209E-01  0.103772E-01  0.108505E-01
  0.116543E-01  0.128134E-01  0.143630E-01  0.163457E-01  0.188058E-01  0.217826E-01
  0.252973E-01  0.293317E-01  0.338044E-01  0.385542E-01  0.433411E-01  0.478670E-01
  0.518117E-01  0.548749E-01  0.568156E-01  0.574800E-01  0.568156E-01  0.548749E-01
  0.518117E-01  0.478670E-01  0.433411E-01  0.385542E-01  0.338044E-01  0.293317E-01
  0.252973E-01  0.217826E-01  0.190284E-01  0.167059E-01  0.147951E-01  0.132659E-01
  0.120855E-01  0.112247E-01  0.106619E-01  0.103835E-01  0.103835E-01  0.106619E-01
  0.112247E-01  0.120855E-01  0.132659E-01  0.147951E-01  0.167059E-01  0.190284E-01
  0.217826E-01  0.249662E-01  0.285372E-01  0.323960E-01  0.363776E-01  0.402604E-01
  0.437894E-01  0.467080E-01  0.487920E-01  0.498769E-01  0.498769E-01  0.487920E-01
  0.467080E-01  0.437894E-01  0.402604E-01  0.363776E-01  0.323960E-01  0.285372E-01
  0.249662E-01  0.217826E-01  0.188058E-01  0.167059E-01  0.149437E-01  0.135029E-01
  0.123607E-01  0.114946E-01  0.108871E-01  0.105268E-01  0.104074E-01  0.105268E-01
  0.108871E-01  0.114946E-01  0.123607E-01  0.135029E-01  0.149437E-01  0.167059E-01
  0.188058E-01  0.212463E-01  0.240067E-01  0.270299E-01  0.302106E-01  0.333951E-01
  0.363931E-01  0.389997E-01  0.410217E-01  0.423022E-01  0.427406E-01  0.423022E-01
  0.410217E-01  0.389997E-01  0.363931E-01  0.333951E-01  0.302106E-01  0.270299E-01
  0.240067E-01  0.212463E-01  0.188058E-01  0.163457E-01  0.147951E-01  0.135029E-01
  0.124553E-01  0.116362E-01  0.110318E-01  0.106332E-01  0.104352E-01  0.104352E-01
  0.106332E-01  0.110318E-01  0.116362E-01  0.124553E-01  0.135029E-01  0.147951E-01
  0.163457E-01  0.181593E-01  0.202258E-01  0.225129E-01  0.249570E-01  0.274583E-01
  0.298843E-01  0.320820E-01  0.338965E-01  0.351910E-01  0.358647E-01  0.358647E-01
  0.351910E-01  0.338965E-01  0.320820E-01  0.298843E-01  0.274583E-01  0.249570E-01
  0.225129E-01  0.202258E-01  0.181593E-01  0.163457E-01  0.143630E-01  0.132659E-01
  0.123607E-01  0.116362E-01  0.110816E-01  0.106897E-01  0.104562E-01  0.103787E-01
  0.104562E-01  0.106897E-01  0.110816E-01  0.116362E-01  0.123607E-01  0.132659E-01
  0.143630E-01  0.156585E-01  0.171487E-01  0.188156E-01  0.206216E-01  0.225044E-01
  0.243769E-01  0.261325E-01  0.276556E-01  0.288360E-01  0.295832E-01  0.298390E-01
  0.295832E-01  0.288360E-01  0.276556E-01  0.261325E-01  0.243769E-01  0.225044E-01
  0.206216E-01  0.188156E-01  0.171487E-01  0.156585E-01  0.143630E-01  0.128134E-01
  0.120855E-01  0.114946E-01  0.110318E-01  0.106897E-01  0.104639E-01  0.103518E-01
  0.103518E-01  0.104639E-01  0.106897E-01  0.110318E-01  0.114946E-01  0.120855E-01
  0.128134E-01  0.136859E-01  0.147047E-01  0.158619E-01  0.171361E-01  0.184892E-01
  0.198659E-01  0.211953E-01  0.223969E-01  0.233881E-01  0.240952E-01  0.244631E-01
  0.244631E-01  0.240952E-01  0.233881E-01  0.223969E-01  0.211953E-01  0.198659E-01
  0.184892E-01  0.171361E-01  0.158619E-01  0.147047E-01  0.136859E-01  0.128134E-01
  0.116543E-01  0.112247E-01  0.108871E-01  0.106332E-01  0.104562E-01  0.103518E-01
  0.103172E-01  0.103518E-01  0.104562E-01  0.106332E-01  0.108871E-01  0.112247E-01
  0.116543E-01  0.121843E-01  0.128204E-01  0.135625E-01  0.144009E-01  0.153142E-01
  0.162680E-01  0.172165E-01  0.181058E-01  0.188777E-01  0.194764E-01  0.198556E-01
  0.199855E-01  0.198556E-01  0.194764E-01  0.188777E-01  0.181058E-01  0.172165E-01
  0.162680E-01  0.153142E-01  0.144009E-01  0.135625E-01  0.128204E-01  0.121843E-01
  0.116543E-01  0.108505E-01  0.106619E-01  0.105268E-01  0.104352E-01  0.103787E-01
  0.103518E-01  0.103518E-01  0.103787E-01  0.104352E-01  0.105268E-01  0.106619E-01
  0.108505E-01  0.111031E-01  0.114289E-01  0.118332E-01  0.123157E-01  0.128668E-01
  0.134674E-01  0.140888E-01  0.146957E-01  0.152485E-01  0.157070E-01  0.160351E-01
  0.162062E-01  0.162062E-01  0.160351E-01  0.157070E-01  0.152485E-01  0.146957E-01
  0.140888E-01  0.134674E-01  0.128668E-01  0.123157E-01  0.118332E-01  0.114289E-01
  0.111031E-01  0.108505E-01  0.103772E-01  0.103835E-01  0.104074E-01  0.104352E-01
  0.104562E-01  0.104639E-01  0.104562E-01  0.104352E-01  0.104074E-01  0.103835E-01
  0.103772E-01  0.104031E-01  0.104745E-01  0.106019E-01  0.107917E-01  0.110434E-01
  0.113489E-01  0.116922E-01  0.120513E-01  0.123997E-01  0.127092E-01  0.129527E-01
  0.131083E-01  0.131618E-01  0.131083E-01  0.129527E-01  0.127092E-01  0.123997E-01
  0.120513E-01  0.116922E-01  0.113489E-01  0.110434E-01  0.107917E-01  0.106019E-01
  0.104745E-01  0.104031E-01  0.103772E-01  0.102209E-01  0.103835E-01  0.105268E-01
  0.106332E-01  0.106897E-01  0.106897E-01  0.106332E-01  0.105268E-01  0.103835E-01
  0.102209E-01  0.100589E-01  0.991698E-02  0.981183E-02  0.975590E-02  0.975590E-02
  0.981183E-02  0.991698E-02  0.100589E-01  0.102209E-01  0.103835E-01  0.105268E-01
  0.106332E-01  0.106897E-01  0.106897E-01  0.106332E-01  0.105268E-01  0.103835E-01
  0.102209E-01  0.100589E-01  0.991698E-02  0.981183E-02  0.975590E-02  0.975590E-02
  0.981183E-02  0.991698E-02  0.100589E-01  0.102209E-01  0.103772E-01  0.106619E-01
  0.108871E-01  0.110318E-01  0.110816E-01  0.110318E-01  0.108871E-01  0.106619E-01
  0.103772E-01  0.100589E-01  0.973353E-02  0.942554E-02  0.915490E-02  0.893533E-02
  0.877367E-02  0.867011E-02  0.861916E-02  0.861087E-02  0.863222E-02  0.866870E-02
  0.870635E-02  0.873380E-02  0.874378E-02  0.873380E-02  0.870635E-02  0.866870E-02
  0.863222E-02  0.861087E-02  0.861916E-02  0.867011E-02  0.877367E-02  0.893533E-02
  0.915490E-02  0.942554E-02  0.973353E-02  0.100589E-01  0.103772E-01  0.108505E-01
  0.112247E-01  0.114946E-01  0.116362E-01  0.116362E-01  0.114946E-01  0.112247E-01
  0.108505E-01  0.104031E-01  0.991698E-02  0.942554E-02  0.895781E-02  0.853592E-02
  0.817406E-02  0.787877E-02  0.765000E-02  0.748257E-02  0.736764E-02  0.729440E-02
  0.725166E-02  0.722943E-02  0.722027E-02  0.722027E-02  0.722943E-02  0.725166E-02
  0.729440E-02  0.736764E-02  0.748257E-02  0.765000E-02  0.787877E-02  0.817406E-02
  0.853592E-02  0.895781E-02  0.942554E-02  0.991698E-02  0.104031E-01  0.108505E-01
  0.116543E-01  0.120855E-01  0.123607E-01  0.124553E-01  0.123607E-01  0.120855E-01
  0.116543E-01  0.111031E-01  0.104745E-01  0.981183E-02  0.915490E-02  0.853592E-02
  0.797790E-02  0.749460E-02  0.709155E-02  0.676762E-02  0.651684E-02  0.633045E-02
  0.619872E-02  0.611240E-02  0.606393E-02  0.604834E-02  0.606393E-02  0.611240E-02
  0.619872E-02  0.633045E-02  0.651684E-02  0.676762E-02  0.709155E-02  0.749460E-02
  0.797790E-02  0.853592E-02  0.915490E-02  0.981183E-02  0.104745E-01  0.111031E-01
  0.116543E-01  0.128134E-01  0.132659E-01  0.135029E-01  0.135029E-01  0.132659E-01
  0.128134E-01  0.121843E-01  0.114289E-01  0.106019E-01  0.975590E-02  0.893533E-02
  0.817406E-02  0.749460E-02  0.690906E-02  0.642083E-02  0.602664E-02  0.571901E-02
  0.548855E-02  0.532575E-02  0.522231E-02  0.517217E-02  0.517217E-02  0.522231E-02
  0.532575E-02  0.548855E-02  0.571901E-02  0.602664E-02  0.642083E-02  0.690906E-02
  0.749460E-02  0.817406E-02  0.893533E-02  0.975590E-02  0.106019E-01  0.114289E-01
  0.121843E-01  0.128134E-01  0.143630E-01  0.147951E-01  0.149437E-01  0.147951E-01
  0.143630E-01  0.136859E-01  0.128204E-01  0.118332E-01  0.107917E-01  0.975590E-02
  0.877367E-02  0.787877E-02  0.709155E-02  0.642083E-02  0.586645E-02  0.542220E-02
  0.507863E-02  0.482520E-02  0.465206E-02  0.455139E-02  0.451838E-02  0.455139E-02
  0.465206E-02  0.482520E-02  0.507863E-02  0.542220E-02  0.586645E-02  0.642083E-02
  0.709155E-02  0.787877E-02  0.877367E-02  0.975590E-02  0.107917E-01  0.118332E-01
  0.128204E-01  0.136859E-01  0.143630E-01  0.163457E-01  0.167059E-01  0.167059E-01
  0.163457E-01  0.156585E-01  0.147047E-01  0.135625E-01  0.123157E-01  0.110434E-01
  0.981183E-02  0.867011E-02  0.765000E-02  0.676762E-02  0.602664E-02  0.542220E-02
  0.494456E-02  0.458186E-02  0.432210E-02  0.415499E-02  0.407324E-02  0.407324E-02
  0.415499E-02  0.432210E-02  0.458186E-02  0.494456E-02  0.542220E-02  0.602664E-02
  0.676762E-02  0.765000E-02  0.867011E-02  0.981183E-02  0.110434E-01  0.123157E-01
  0.135625E-01  0.147047E-01  0.156585E-01  0.163457E-01  0.188058E-01  0.190284E-01
  0.188058E-01  0.181593E-01  0.171487E-01  0.158619E-01  0.144009E-01  0.128668E-01
  0.113489E-01  0.991698E-02  0.861916E-02  0.748257E-02  0.651684E-02  0.571901E-02
  0.507863E-02  0.458186E-02  0.421413E-02  0.396209E-02  0.381522E-02  0.376700E-02
  0.381522E-02  0.396209E-02  0.421413E-02  0.458186E-02  0.507863E-02  0.571901E-02
  0.651684E-02  0.748257E-02  0.861916E-02  0.991698E-02  0.113489E-01  0.128668E-01
  0.144009E-01  0.158619E-01  0.171487E-01  0.181593E-01  0.188058E-01  0.217826E-01
  0.217826E-01  0.212463E-01  0.202258E-01  0.188156E-01  0.171361E-01  0.153142E-01
  0.134674E-01  0.116922E-01  0.100589E-01  0.861087E-02  0.736764E-02  0.633045E-02
  0.548855E-02  0.482520E-02  0.432210E-02  0.396209E-02  0.373079E-02  0.361785E-02
  0.361785E-02  0.373079E-02  0.396209E-02  0.432210E-02  0.482520E-02  0.548855E-02
  0.633045E-02  0.736764E-02  0.861087E-02  0.100589E-01  0.116922E-01  0.134674E-01
  0.153142E-01  0.171361E-01  0.188156E-01  0.202258E-01  0.212463E-01  0.217826E-01
  0.252973E-01  0.249662E-01  0.240067E-01  0.225129E-01  0.206216E-01  0.184892E-01
  0.162680E-01  0.140888E-01  0.120513E-01  0.102209E-01  0.863222E-02  0.729440E-02
  0.619872E-02  0.532575E-02  0.465206E-02  0.415499E-02  0.381522E-02  0.361785E-02
  0.355319E-02  0.361785E-02  0.381522E-02  0.415499E-02  0.465206E-02  0.532575E-02
  0.619872E-02  0.729440E-02  0.863222E-02  0.102209E-01  0.120513E-01  0.140888E-01
  0.162680E-01  0.184892E-01  0.206216E-01  0.225129E-01  0.240067E-01  0.249662E-01
  0.252973E-01  0.293317E-01  0.285372E-01  0.270299E-01  0.249570E-01  0.225044E-01
  0.198659E-01  0.172165E-01  0.146957E-01  0.123997E-01  0.103835E-01  0.866870E-02
  0.725166E-02  0.611240E-02  0.522231E-02  0.455139E-02  0.407324E-02  0.376700E-02
  0.361785E-02  0.361785E-02  0.376700E-02  0.407324E-02  0.455139E-02  0.522231E-02
  0.611240E-02  0.725166E-02  0.866870E-02  0.103835E-01  0.123997E-01  0.146957E-01
  0.172165E-01  0.198659E-01  0.225044E-01  0.249570E-01  0.270299E-01  0.285372E-01
  0.293317E-01  0.293317E-01  0.338044E-01  0.323960E-01  0.302106E-01  0.274583E-01
  0.243769E-01  0.211953E-01  0.181058E-01  0.152485E-01  0.127092E-01  0.105268E-01
  0.870635E-02  0.722943E-02  0.606393E-02  0.517217E-02  0.451838E-02  0.407324E-02
  0.381522E-02  0.373079E-02  0.381522E-02  0.407324E-02  0.451838E-02  0.517217E-02
  0.606393E-02  0.722943E-02  0.870635E-02  0.105268E-01  0.127092E-01  0.152485E-01
  0.181058E-01  0.211953E-01  0.243769E-01  0.274583E-01  0.302106E-01  0.323960E-01
  0.338044E-01  0.342911E-01  0.338044E-01  0.385542E-01  0.363776E-01  0.333951E-01
  0.298843E-01  0.261325E-01  0.223969E-01  0.188777E-01  0.157070E-01  0.129527E-01
  0.106332E-01  0.873380E-02  0.722027E-02  0.604834E-02  0.517217E-02  0.455139E-02
  0.415499E-02  0.396209E-02  0.396209E-02  0.415499E-02  0.455139E-02  0.517217E-02
  0.604834E-02  0.722027E-02  0.873380E-02  0.106332E-01  0.129527E-01  0.157070E-01
  0.188777E-01  0.223969E-01  0.261325E-01  0.298843E-01  0.333951E-01  0.363776E-01
  0.385542E-01  0.397039E-01  0.397039E-01  0.385542E-01  0.433411E-01  0.402604E-01
  0.363931E-01  0.320820E-01  0.276556E-01  0.233881E-01  0.194764E-01  0.160351E-01
  0.131083E-01  0.106897E-01  0.874378E-02  0.722027E-02  0.606393E-02  0.522231E-02
  0.465206E-02  0.432210E-02  0.421413E-02  0.432210E-02  0.465206E-02  0.522231E-02
  0.606393E-02  0.722027E-02  0.874378E-02  0.106897E-01  0.131083E-01  0.160351E-01
  0.194764E-01  0.233881E-01  0.276556E-01  0.320820E-01  0.363931E-01  0.402604E-01
  0.433411E-01  0.453310E-01  0.460194E-01  0.453310E-01  0.433411E-01  0.478670E-01
  0.437894E-01  0.389997E-01  0.338965E-01  0.288360E-01  0.240952E-01  0.198556E-01
  0.162062E-01  0.131618E-01  0.106897E-01  0.873380E-02  0.722943E-02  0.611240E-02
  0.532575E-02  0.482520E-02  0.458186E-02  0.458186E-02  0.482520E-02  0.532575E-02
  0.611240E-02  0.722943E-02  0.873380E-02  0.106897E-01  0.131618E-01  0.162062E-01
  0.198556E-01  0.240952E-01  0.288360E-01  0.338965E-01  0.389997E-01  0.437894E-01
  0.478670E-01  0.508473E-01  0.524229E-01  0.524229E-01  0.508473E-01  0.478670E-01
  0.518117E-01  0.467080E-01  0.410217E-01  0.351910E-01  0.295832E-01  0.244631E-01
  0.199855E-01  0.162062E-01  0.131083E-01  0.106332E-01  0.870635E-02  0.725166E-02
  0.619872E-02  0.548855E-02  0.507863E-02  0.494456E-02  0.507863E-02  0.548855E-02
  0.619872E-02  0.725166E-02  0.870635E-02  0.106332E-01  0.131083E-01  0.162062E-01
  0.199855E-01  0.244631E-01  0.295832E-01  0.351910E-01  0.410217E-01  0.467080E-01
  0.518117E-01  0.558770E-01  0.585020E-01  0.594099E-01  0.585020E-01  0.558770E-01
  0.518117E-01  0.548749E-01  0.487920E-01  0.423022E-01  0.358647E-01  0.298390E-01
  0.244631E-01  0.198556E-01  0.160351E-01  0.129527E-01  0.105268E-01  0.866870E-02
  0.729440E-02  0.633045E-02  0.571901E-02  0.542220E-02  0.542220E-02  0.571901E-02
  0.633045E-02  0.729440E-02  0.866870E-02  0.105268E-01  0.129527E-01  0.160351E-01
  0.198556E-01  0.244631E-01  0.298390E-01  0.358647E-01  0.423022E-01  0.487920E-01
  0.548749E-01  0.600428E-01  0.638116E-01  0.658007E-01  0.658007E-01  0.638116E-01
  0.600428E-01  0.548749E-01  0.568156E-01  0.498769E-01  0.427406E-01  0.358647E-01
  0.295832E-01  0.240952E-01  0.194764E-01  0.157070E-01  0.127092E-01  0.103835E-01
  0.863222E-02  0.736764E-02  0.651684E-02  0.602664E-02  0.586645E-02  0.602664E-02
  0.651684E-02  0.736764E-02  0.863222E-02  0.103835E-01  0.127092E-01  0.157070E-01
  0.194764E-01  0.240952E-01  0.295832E-01  0.358647E-01  0.427406E-01  0.498769E-01
  0.568156E-01  0.630182E-01  0.679382E-01  0.711044E-01  0.721976E-01  0.711044E-01
  0.679382E-01  0.630182E-01  0.568156E-01  0.574800E-01  0.498769E-01  0.423022E-01
  0.351910E-01  0.288360E-01  0.233881E-01  0.188777E-01  0.152485E-01  0.123997E-01
  0.102209E-01  0.861087E-02  0.748257E-02  0.676762E-02  0.642083E-02  0.642083E-02
  0.676762E-02  0.748257E-02  0.861087E-02  0.102209E-01  0.123997E-01  0.152485E-01
  0.188777E-01  0.233881E-01  0.288360E-01  0.351910E-01  0.423022E-01  0.498769E-01
  0.574800E-01  0.645673E-01  0.705538E-01  0.748986E-01  0.771851E-01  0.771851E-01
  0.748986E-01  0.705538E-01  0.645673E-01  0.574800E-01  0.568156E-01  0.487920E-01
  0.410217E-01  0.338965E-01  0.276556E-01  0.223969E-01  0.181058E-01  0.146957E-01
  0.120513E-01  0.100589E-01  0.861916E-02  0.765000E-02  0.709155E-02  0.690906E-02
  0.709155E-02  0.765000E-02  0.861916E-02  0.100589E-01  0.120513E-01  0.146957E-01
  0.181058E-01  0.223969E-01  0.276556E-01  0.338965E-01  0.410217E-01  0.487920E-01
  0.568156E-01  0.645673E-01  0.714495E-01  0.768766E-01  0.803558E-01  0.815550E-01
  0.803558E-01  0.768766E-01  0.714495E-01  0.645673E-01  0.568156E-01  0.548749E-01
  0.467080E-01  0.389997E-01  0.320820E-01  0.261325E-01  0.211953E-01  0.172165E-01
  0.140888E-01  0.116922E-01  0.991698E-02  0.867011E-02  0.787877E-02  0.749460E-02
  0.749460E-02  0.787877E-02  0.867011E-02  0.991698E-02  0.116922E-01  0.140888E-01
  0.172165E-01  0.211953E-01  0.261325E-01  0.320820E-01  0.389997E-01  0.467080E-01
  0.548749E-01  0.630182E-01  0.705538E-01  0.768766E-01  0.814438E-01  0.838414E-01
  0.838414E-01  0.814438E-01  0.768766E-01  0.705538E-01  0.630182E-01  0.548749E-01
  0.518117E-01  0.437894E-01  0.363931E-01  0.298843E-01  0.243769E-01  0.198659E-01
  0.162680E-01  0.134674E-01  0.113489E-01  0.981183E-02  0.877367E-02  0.817406E-02
  0.797790E-02  0.817406E-02  0.877367E-02  0.981183E-02  0.113489E-01  0.134674E-01
  0.162680E-01  0.198659E-01  0.243769E-01  0.298843E-01  0.363931E-01  0.437894E-01
  0.518117E-01  0.600428E-01  0.679382E-01  0.748986E-01  0.803558E-01  0.838414E-01
  0.850407E-01  0.838414E-01  0.803558E-01  0.748986E-01  0.679382E-01  0.600428E-01
  0.518117E-01  0.478670E-01  0.402604E-01  0.333951E-01  0.274583E-01  0.225044E-01
  0.184892E-01  0.153142E-01  0.128668E-01  0.110434E-01  0.975590E-02  0.893533E-02
  0.853592E-02  0.853592E-02  0.893533E-02  0.975590E-02  0.110434E-01  0.128668E-01
  0.153142E-01  0.184892E-01  0.225044E-01  0.274583E-01  0.333951E-01  0.402604E-01
  0.478670E-01  0.558770E-01  0.638116E-01  0.711044E-01  0.771851E-01  0.815550E-01
  0.838414E-01  0.838414E-01  0.815550E-01  0.771851E-01  0.711044E-01  0.638116E-01
  0.558770E-01  0.478670E-01  0.433411E-01  0.363776E-01  0.302106E-01  0.249570E-01
  0.206216E-01  0.171361E-01  0.144009E-01  0.123157E-01  0.107917E-01  0.975590E-02
  0.915490E-02  0.895781E-02  0.915490E-02  0.975590E-02  0.107917E-01  0.123157E-01
  0.144009E-01  0.171361E-01  0.206216E-01  0.249570E-01  0.302106E-01  0.363776E-01
  0.433411E-01  0.508473E-01  0.585020E-01  0.658007E-01  0.721976E-01  0.771851E-01
  0.803558E-01  0.814438E-01  0.803558E-01  0.771851E-01  0.721976E-01  0.658007E-01
  0.585020E-01  0.508473E-01  0.433411E-01  0.385542E-01  0.323960E-01  0.270299E-01
  0.225129E-01  0.188156E-01  0.158619E-01  0.135625E-01  0.118332E-01  0.106019E-01
  0.981183E-02  0.942554E-02  0.942554E-02  0.981183E-02  0.106019E-01  0.118332E-01
  0.135625E-01  0.158619E-01  0.188156E-01  0.225129E-01  0.270299E-01  0.323960E-01
  0.385542E-01  0.453310E-01  0.524229E-01  0.594099E-01  0.658007E-01  0.711044E-01
  0.748986E-01  0.768766E-01  0.768766E-01  0.748986E-01  0.711044E-01  0.658007E-01
  0.594099E-01  0.524229E-01  0.453310E-01  0.385542E-01  0.338044E-01  0.285372E-01
  0.240067E-01  0.202258E-01  0.171487E-01  0.147047E-01  0.128204E-01  0.114289E-01
  0.104745E-01  0.991698E-02  0.973353E-02  0.991698E-02  0.104745E-01  0.114289E-01
  0.128204E-01  0.147047E-01  0.171487E-01  0.202258E-01  0.240067E-01  0.285372E-01
  0.338044E-01  0.397039E-01  0.460194E-01  0.524229E-01  0.585020E-01  0.638116E-01
  0.679382E-01  0.705538E-01  0.714495E-01  0.705538E-01  0.679382E-01  0.638116E-01
  0.585020E-01  0.524229E-01  0.460194E-01  0.397039E-01  0.338044E-01  0.293317E-01
  0.249662E-01  0.212463E-01  0.181593E-01  0.156585E-01  0.136859E-01  0.121843E-01
  0.111031E-01  0.104031E-01  0.100589E-01  0.100589E-01  0.104031E-01  0.111031E-01
  0.121843E-01  0.136859E-01  0.156585E-01  0.181593E-01  0.212463E-01  0.249662E-01
  0.293317E-01  0.342911E-01  0.397039E-01  0.453310E-01  0.508473E-01  0.558770E-01
  0.600428E-01  0.630182E-01  0.645673E-01  0.645673E-01  0.630182E-01  0.600428E-01
  0.558770E-01  0.508473E-01  0.453310E-01  0.397039E-01  0.342911E-01  0.293317E-01
  0.252973E-01  0.217826E-01  0.188058E-01  0.163457E-01  0.143630E-01  0.128134E-01
  0.116543E-01  0.108505E-01  0.103772E-01  0.102209E-01  0.103772E-01  0.108505E-01
  0.116543E-01  0.128134E-01  0.143630E-01  0.163457E-01  0.188058E-01  0.217826E-01
  0.252973E-01  0.293317E-01  0.338044E-01  0.385542E-01  0.433411E-01  0.478670E-01
  0.518117E-01  0.548749E-01  0.568156E-01  0.574800E-01  0.568156E-01  0.548749E-01
  0.518117E-01  0.478670E-01  0.433411E-01  0.385542E-01  0.338044E-01  0.293317E-01
  0.252973E-01  0.256898E-01  0.225144E-01  0.198220E-01  0.175953E-01  0.158036E-01
  0.144142E-01  0.133973E-01  0.127303E-01  0.123997E-01  0.123997E-01  0.127303E-01
  0.133973E-01  0.144142E-01  0.158036E-01  0.175953E-01  0.198220E-01  0.225144E-01
  0.256898E-01  0.293317E-01  0.333654E-01  0.376421E-01  0.419419E-01  0.459997E-01
  0.495484E-01  0.523649E-01  0.543009E-01  0.552817E-01  0.552817E-01  0.543009E-01
  0.523649E-01  0.495484E-01  0.459997E-01  0.419419E-01  0.376421E-01  0.333654E-01
  0.293317E-01  0.256898E-01  0.225144E-01  0.200566E-01  0.179819E-01  0.162747E-01
  0.149131E-01  0.138755E-01  0.131445E-01  0.127092E-01  0.125645E-01  0.127092E-01
  0.131445E-01  0.138755E-01  0.149131E-01  0.162747E-01  0.179819E-01  0.200566E-01
  0.225144E-01  0.253532E-01  0.285372E-01  0.319794E-01  0.355338E-01  0.390057E-01
  0.421785E-01  0.448480E-01  0.468528E-01  0.480893E-01  0.485062E-01  0.480893E-01
  0.468528E-01  0.448480E-01  0.421785E-01  0.390057E-01  0.355338E-01  0.319794E-01
  0.285372E-01  0.253532E-01  0.225144E-01  0.198220E-01  0.179819E-01  0.164367E-01
  0.151745E-01  0.141805E-01  0.134424E-01  0.129527E-01  0.127084E-01  0.127084E-01
  0.129527E-01  0.134424E-01  0.141805E-01  0.151745E-01  0.164367E-01  0.179819E-01
  0.198220E-01  0.219592E-01  0.243775E-01  0.270299E-01  0.298281E-01  0.326412E-01
  0.353088E-01  0.376638E-01  0.395568E-01  0.408752E-01  0.415498E-01  0.415498E-01
  0.408752E-01  0.395568E-01  0.376638E-01  0.353088E-01  0.326412E-01  0.298281E-01
  0.270299E-01  0.243775E-01  0.219592E-01  0.198220E-01  0.175953E-01  0.162747E-01
  0.151745E-01  0.142854E-01  0.135983E-01  0.131083E-01  0.128142E-01  0.127161E-01
  0.128142E-01  0.131083E-01  0.135983E-01  0.142854E-01  0.151745E-01  0.162747E-01
  0.175953E-01  0.191404E-01  0.209031E-01  0.228587E-01  0.249570E-01  0.271173E-01
  0.292309E-01  0.311738E-01  0.328235E-01  0.340757E-01  0.348551E-01  0.351194E-01
  0.348551E-01  0.340757E-01  0.328235E-01  0.311738E-01  0.292309E-01  0.271173E-01
  0.249570E-01  0.228587E-01  0.209031E-01  0.191404E-01  0.175953E-01  0.158036E-01
  0.149131E-01  0.141805E-01  0.135983E-01  0.131618E-01  0.128701E-01  0.127239E-01
  0.127239E-01  0.128701E-01  0.131618E-01  0.135983E-01  0.141805E-01  0.149131E-01
  0.158036E-01  0.168580E-01  0.180754E-01  0.194440E-01  0.209362E-01  0.225044E-01
  0.240805E-01  0.255803E-01  0.269134E-01  0.279945E-01  0.287539E-01  0.291449E-01
  0.291449E-01  0.287539E-01  0.279945E-01  0.269134E-01  0.255803E-01  0.240805E-01
  0.225044E-01  0.209362E-01  0.194440E-01  0.180754E-01  0.168580E-01  0.158036E-01
  0.144142E-01  0.138755E-01  0.134424E-01  0.131083E-01  0.128701E-01  0.127270E-01
  0.126793E-01  0.127270E-01  0.128701E-01  0.131083E-01  0.134424E-01  0.138755E-01
  0.144142E-01  0.150659E-01  0.158354E-01  0.167202E-01  0.177071E-01  0.187694E-01
  0.198659E-01  0.209429E-01  0.219393E-01  0.227923E-01  0.234453E-01  0.238546E-01
  0.239940E-01  0.238546E-01  0.234453E-01  0.227923E-01  0.219393E-01  0.209429E-01
  0.198659E-01  0.187694E-01  0.177071E-01  0.167202E-01  0.158354E-01  0.150659E-01
  0.144142E-01  0.133973E-01  0.131445E-01  0.129527E-01  0.128142E-01  0.127239E-01
  0.126793E-01  0.126793E-01  0.127239E-01  0.128142E-01  0.129527E-01  0.131445E-01
  0.133973E-01  0.137207E-01  0.141237E-01  0.146117E-01  0.151827E-01  0.158243E-01
  0.165133E-01  0.172165E-01  0.178943E-01  0.185039E-01  0.190037E-01  0.193578E-01
  0.195412E-01  0.195412E-01  0.193578E-01  0.190037E-01  0.185039E-01  0.178943E-01
  0.172165E-01  0.165133E-01  0.158243E-01  0.151827E-01  0.146117E-01  0.141237E-01
  0.137207E-01  0.133973E-01  0.127303E-01  0.127092E-01  0.127084E-01  0.127161E-01
  0.127239E-01  0.127270E-01  0.127239E-01  0.127161E-01  0.127084E-01  0.127092E-01
  0.127303E-01  0.127854E-01  0.128880E-01  0.130498E-01  0.132774E-01  0.135701E-01
  0.139177E-01  0.143012E-01  0.146957E-01  0.150732E-01  0.154043E-01  0.156623E-01
  0.158257E-01  0.158816E-01  0.158257E-01  0.156623E-01  0.154043E-01  0.150732E-01
  0.146957E-01  0.143012E-01  0.139177E-01  0.135701E-01  0.132774E-01  0.130498E-01
  0.128880E-01  0.127854E-01  0.127303E-01  0.123997E-01  0.125645E-01  0.127084E-01
  0.128142E-01  0.128701E-01  0.128701E-01  0.128142E-01  0.127084E-01  0.125645E-01
  0.123997E-01  0.122337E-01  0.120866E-01  0.119764E-01  0.119173E-01  0.119173E-01
  0.119764E-01  0.120866E-01  0.122337E-01  0.123997E-01  0.125645E-01  0.127084E-01
  0.128142E-01  0.128701E-01  0.128701E-01  0.128142E-01  0.127084E-01  0.125645E-01
  0.123997E-01  0.122337E-01  0.120866E-01  0.119764E-01  0.119173E-01  0.119173E-01
  0.119764E-01  0.120866E-01  0.122337E-01  0.123997E-01  0.123997E-01  0.127092E-01
  0.129527E-01  0.131083E-01  0.131618E-01  0.131083E-01  0.129527E-01  0.127092E-01
  0.123997E-01  0.120513E-01  0.116922E-01  0.113489E-01  0.110434E-01  0.107917E-01
  0.106019E-01  0.104745E-01  0.104031E-01  0.103772E-01  0.103835E-01  0.104074E-01
  0.104352E-01  0.104562E-01  0.104639E-01  0.104562E-01  0.104352E-01  0.104074E-01
  0.103835E-01  0.103772E-01  0.104031E-01  0.104745E-01  0.106019E-01  0.107917E-01
  0.110434E-01  0.113489E-01  0.116922E-01  0.120513E-01  0.123997E-01  0.127303E-01
  0.131445E-01  0.134424E-01  0.135983E-01  0.135983E-01  0.134424E-01  0.131445E-01
  0.127303E-01  0.122337E-01  0.116922E-01  0.111423E-01  0.106160E-01  0.101381E-01
  0.972478E-02  0.938336E-02  0.911392E-02  0.891116E-02  0.876633E-02  0.866870E-02
  0.860713E-02  0.857185E-02  0.855595E-02  0.855595E-02  0.857185E-02  0.860713E-02
  0.866870E-02  0.876633E-02  0.891116E-02  0.911392E-02  0.938336E-02  0.972478E-02
  0.101381E-01  0.106160E-01  0.111423E-01  0.116922E-01  0.122337E-01  0.127303E-01
  0.133973E-01  0.138755E-01  0.141805E-01  0.142854E-01  0.141805E-01  0.138755E-01
  0.133973E-01  0.127854E-01  0.120866E-01  0.113489E-01  0.106160E-01  0.992377E-02
  0.929768E-02  0.875270E-02  0.829470E-02  0.792256E-02  0.763053E-02  0.741010E-02
  0.725166E-02  0.714603E-02  0.708578E-02  0.706623E-02  0.708578E-02  0.714603E-02
  0.725166E-02  0.741010E-02  0.763053E-02  0.792256E-02  0.829470E-02  0.875270E-02
  0.929768E-02  0.992377E-02  0.106160E-01  0.113489E-01  0.120866E-01  0.127854E-01
  0.133973E-01  0.144142E-01  0.149131E-01  0.151745E-01  0.151745E-01  0.149131E-01
  0.144142E-01  0.137207E-01  0.128880E-01  0.119764E-01  0.110434E-01  0.101381E-01
  0.929768E-02  0.854636E-02  0.789687E-02  0.735256E-02  0.691011E-02  0.656217E-02
  0.629943E-02  0.611240E-02  0.599274E-02  0.593446E-02  0.593446E-02  0.599274E-02
  0.611240E-02  0.629943E-02  0.656217E-02  0.691011E-02  0.735256E-02  0.789687E-02
  0.854636E-02  0.929768E-02  0.101381E-01  0.110434E-01  0.119764E-01  0.128880E-01
  0.137207E-01  0.144142E-01  0.158036E-01  0.162747E-01  0.164367E-01  0.162747E-01
  0.158036E-01  0.150659E-01  0.141237E-01  0.130498E-01  0.119173E-01  0.107917E-01
  0.972478E-02  0.875270E-02  0.789687E-02  0.716628E-02  0.656057E-02  0.607332E-02
  0.569489E-02  0.541457E-02  0.522231E-02  0.511019E-02  0.507335E-02  0.511019E-02
  0.522231E-02  0.541457E-02  0.569489E-02  0.607332E-02  0.656057E-02  0.716628E-02
  0.789687E-02  0.875270E-02  0.972478E-02  0.107917E-01  0.119173E-01  0.130498E-01
  0.141237E-01  0.150659E-01  0.158036E-01  0.175953E-01  0.179819E-01  0.179819E-01
  0.175953E-01  0.168580E-01  0.158354E-01  0.146117E-01  0.132774E-01  0.119173E-01
  0.106019E-01  0.938336E-02  0.829470E-02  0.735256E-02  0.656057E-02  0.591353E-02
  0.540127E-02  0.501147E-02  0.473173E-02  0.455139E-02  0.446305E-02  0.446305E-02
  0.455139E-02  0.473173E-02  0.501147E-02  0.540127E-02  0.591353E-02  0.656057E-02
  0.735256E-02  0.829470E-02  0.938336E-02  0.106019E-01  0.119173E-01  0.132774E-01
  0.146117E-01  0.158354E-01  0.168580E-01  0.175953E-01  0.198220E-01  0.200566E-01
  0.198220E-01  0.191404E-01  0.180754E-01  0.167202E-01  0.151827E-01  0.135701E-01
  0.119764E-01  0.104745E-01  0.911392E-02  0.792256E-02  0.691011E-02  0.607332E-02
  0.540127E-02  0.487957E-02  0.449309E-02  0.422792E-02  0.407324E-02  0.402241E-02
  0.407324E-02  0.422792E-02  0.449309E-02  0.487957E-02  0.540127E-02  0.607332E-02
  0.691011E-02  0.792256E-02  0.911392E-02  0.104745E-01  0.119764E-01  0.135701E-01
  0.151827E-01  0.167202E-01  0.180754E-01  0.191404E-01  0.198220E-01  0.225144E-01
  0.225144E-01  0.219592E-01  0.209031E-01  0.194440E-01  0.177071E-01  0.158243E-01
  0.139177E-01  0.120866E-01  0.104031E-01  0.891116E-02  0.763053E-02  0.656217E-02
  0.569489E-02  0.501147E-02  0.449309E-02  0.412204E-02  0.388353E-02  0.376700E-02
  0.376700E-02  0.388353E-02  0.412204E-02  0.449309E-02  0.501147E-02  0.569489E-02
  0.656217E-02  0.763053E-02  0.891116E-02  0.104031E-01  0.120866E-01  0.139177E-01
  0.158243E-01  0.177071E-01  0.194440E-01  0.209031E-01  0.219592E-01  0.225144E-01
  0.256898E-01  0.253532E-01  0.243775E-01  0.228587E-01  0.209362E-01  0.187694E-01
  0.165133E-01  0.143012E-01  0.122337E-01  0.103772E-01  0.876633E-02  0.741010E-02
  0.629943E-02  0.541457E-02  0.473173E-02  0.422792E-02  0.388353E-02  0.368342E-02
  0.361785E-02  0.368342E-02  0.388353E-02  0.422792E-02  0.473173E-02  0.541457E-02
  0.629943E-02  0.741010E-02  0.876633E-02  0.103772E-01  0.122337E-01  0.143012E-01
  0.165133E-01  0.187694E-01  0.209362E-01  0.228587E-01  0.243775E-01  0.253532E-01
  0.256898E-01  0.293317E-01  0.285372E-01  0.270299E-01  0.249570E-01  0.225044E-01
  0.198659E-01  0.172165E-01  0.146957E-01  0.123997E-01  0.103835E-01  0.866870E-02
  0.725166E-02  0.611240E-02  0.522231E-02  0.455139E-02  0.407324E-02  0.376700E-02
  0.361785E-02  0.361785E-02  0.376700E-02  0.407324E-02  0.455139E-02  0.522231E-02
  0.611240E-02  0.725166E-02  0.866870E-02  0.103835E-01  0.123997E-01  0.146957E-01
  0.172165E-01  0.198659E-01  0.225044E-01  0.249570E-01  0.270299E-01  0.285372E-01
  0.293317E-01  0.293317E-01  0.333654E-01  0.319794E-01  0.298281E-01  0.271173E-01
  0.240805E-01  0.209429E-01  0.178943E-01  0.150732E-01  0.125645E-01  0.104074E-01
  0.860713E-02  0.714603E-02  0.599274E-02  0.511019E-02  0.446305E-02  0.402241E-02
  0.376700E-02  0.368342E-02  0.376700E-02  0.402241E-02  0.446305E-02  0.511019E-02
  0.599274E-02  0.714603E-02  0.860713E-02  0.104074E-01  0.125645E-01  0.150732E-01
  0.178943E-01  0.209429E-01  0.240805E-01  0.271173E-01  0.298281E-01  0.319794E-01
  0.333654E-01  0.338443E-01  0.333654E-01  0.376421E-01  0.355338E-01  0.326412E-01
  0.292309E-01  0.255803E-01  0.219393E-01  0.185039E-01  0.154043E-01  0.127084E-01
  0.104352E-01  0.857185E-02  0.708578E-02  0.593446E-02  0.507335E-02  0.446305E-02
  0.407324E-02  0.388353E-02  0.388353E-02  0.407324E-02  0.446305E-02  0.507335E-02
  0.593446E-02  0.708578E-02  0.857185E-02  0.104352E-01  0.127084E-01  0.154043E-01
  0.185039E-01  0.219393E-01  0.255803E-01  0.292309E-01  0.326412E-01  0.355338E-01
  0.376421E-01  0.387548E-01  0.387548E-01  0.376421E-01  0.419419E-01  0.390057E-01
  0.353088E-01  0.311738E-01  0.269134E-01  0.227923E-01  0.190037E-01  0.156623E-01
  0.128142E-01  0.104562E-01  0.855595E-02  0.706623E-02  0.593446E-02  0.511019E-02
  0.455139E-02  0.422792E-02  0.412204E-02  0.422792E-02  0.455139E-02  0.511019E-02
  0.593446E-02  0.706623E-02  0.855595E-02  0.104562E-01  0.128142E-01  0.156623E-01
  0.190037E-01  0.227923E-01  0.269134E-01  0.311738E-01  0.353088E-01  0.390057E-01
  0.419419E-01  0.438342E-01  0.444881E-01  0.438342E-01  0.419419E-01  0.459997E-01
  0.421785E-01  0.376638E-01  0.328235E-01  0.279945E-01  0.234453E-01  0.193578E-01
  0.158257E-01  0.128701E-01  0.104639E-01  0.855595E-02  0.708578E-02  0.599274E-02
  0.522231E-02  0.473173E-02  0.449309E-02  0.449309E-02  0.473173E-02  0.522231E-02
  0.599274E-02  0.708578E-02  0.855595E-02  0.104639E-01  0.128701E-01  0.158257E-01
  0.193578E-01  0.234453E-01  0.279945E-01  0.328235E-01  0.376638E-01  0.421785E-01
  0.459997E-01  0.487790E-01  0.502435E-01  0.502435E-01  0.487790E-01  0.459997E-01
  0.495484E-01  0.448480E-01  0.395568E-01  0.340757E-01  0.287539E-01  0.238546E-01
  0.195412E-01  0.158816E-01  0.128701E-01  0.104562E-01  0.857185E-02  0.714603E-02
  0.611240E-02  0.541457E-02  0.501147E-02  0.487957E-02  0.501147E-02  0.541457E-02
  0.611240E-02  0.714603E-02  0.857185E-02  0.104562E-01  0.128701E-01  0.158816E-01
  0.195412E-01  0.238546E-01  0.287539E-01  0.340757E-01  0.395568E-01  0.448480E-01
  0.495484E-01  0.532575E-01  0.556352E-01  0.564543E-01  0.556352E-01  0.532575E-01
  0.495484E-01  0.523649E-01  0.468528E-01  0.408752E-01  0.348551E-01  0.291449E-01
  0.239940E-01  0.195412E-01  0.158257E-01  0.128142E-01  0.104352E-01  0.860713E-02
  0.725166E-02  0.629943E-02  0.569489E-02  0.540127E-02  0.540127E-02  0.569489E-02
  0.629943E-02  0.725166E-02  0.860713E-02  0.104352E-01  0.128142E-01  0.158257E-01
  0.195412E-01  0.239940E-01  0.291449E-01  0.348551E-01  0.408752E-01  0.468528E-01
  0.523649E-01  0.569731E-01  0.602877E-01  0.620209E-01  0.620209E-01  0.602877E-01
  0.569731E-01  0.523649E-01  0.543009E-01  0.480893E-01  0.415498E-01  0.351194E-01
  0.291449E-01  0.238546E-01  0.193578E-01  0.156623E-01  0.127084E-01  0.104074E-01
  0.866870E-02  0.741010E-02  0.656217E-02  0.607332E-02  0.591353E-02  0.607332E-02
  0.656217E-02  0.741010E-02  0.866870E-02  0.104074E-01  0.127084E-01  0.156623E-01
  0.193578E-01  0.238546E-01  0.291449E-01  0.351194E-01  0.415498E-01  0.480893E-01
  0.543009E-01  0.597184E-01  0.639181E-01  0.665736E-01  0.674816E-01  0.665736E-01
  0.639181E-01  0.597184E-01  0.543009E-01  0.552817E-01  0.485062E-01  0.415498E-01
  0.348551E-01  0.287539E-01  0.234453E-01  0.190037E-01  0.154043E-01  0.125645E-01
  0.103835E-01  0.876633E-02  0.763053E-02  0.691011E-02  0.656057E-02  0.656057E-02
  0.691011E-02  0.763053E-02  0.876633E-02  0.103835E-01  0.125645E-01  0.154043E-01
  0.190037E-01  0.234453E-01  0.287539E-01  0.348551E-01  0.415498E-01  0.485062E-01
  0.552817E-01  0.613872E-01  0.663732E-01  0.698908E-01  0.717080E-01  0.717080E-01
  0.698908E-01  0.663732E-01  0.613872E-01  0.552817E-01  0.552817E-01  0.480893E-01
  0.408752E-01  0.340757E-01  0.279945E-01  0.227923E-01  0.185039E-01  0.150732E-01
  0.123997E-01  0.103772E-01  0.891116E-02  0.792256E-02  0.735256E-02  0.716628E-02
  0.735256E-02  0.792256E-02  0.891116E-02  0.103772E-01  0.123997E-01  0.150732E-01
  0.185039E-01  0.227923E-01  0.279945E-01  0.340757E-01  0.408752E-01  0.480893E-01
  0.552817E-01  0.619451E-01  0.676030E-01  0.718885E-01  0.745563E-01  0.754621E-01
  0.745563E-01  0.718885E-01  0.676030E-01  0.619451E-01  0.552817E-01  0.543009E-01
  0.468528E-01  0.395568E-01  0.328235E-01  0.269134E-01  0.219393E-01  0.178943E-01
  0.146957E-01  0.122337E-01  0.104031E-01  0.911392E-02  0.829470E-02  0.789687E-02
  0.789687E-02  0.829470E-02  0.911392E-02  0.104031E-01  0.122337E-01  0.146957E-01
  0.178943E-01  0.219393E-01  0.269134E-01  0.328235E-01  0.395568E-01  0.468528E-01
  0.543009E-01  0.613872E-01  0.676030E-01  0.725536E-01  0.759846E-01  0.777409E-01
  0.777409E-01  0.759846E-01  0.725536E-01  0.676030E-01  0.613872E-01  0.543009E-01
  0.523649E-01  0.448480E-01  0.376638E-01  0.311738E-01  0.255803E-01  0.209429E-01
  0.172165E-01  0.143012E-01  0.120866E-01  0.104745E-01  0.938336E-02  0.875270E-02
  0.854636E-02  0.875270E-02  0.938336E-02  0.104745E-01  0.120866E-01  0.143012E-01
  0.172165E-01  0.209429E-01  0.255803E-01  0.311738E-01  0.376638E-01  0.448480E-01
  0.523649E-01  0.597184E-01  0.663732E-01  0.718885E-01  0.759846E-01  0.785051E-01
  0.793570E-01  0.785051E-01  0.759846E-01  0.718885E-01  0.663732E-01  0.597184E-01
  0.523649E-01  0.495484E-01  0.421785E-01  0.353088E-01  0.292309E-01  0.240805E-01
  0.198659E-01  0.165133E-01  0.139177E-01  0.119764E-01  0.106019E-01  0.972478E-02
  0.929768E-02  0.929768E-02  0.972478E-02  0.106019E-01  0.119764E-01  0.139177E-01
  0.165133E-01  0.198659E-01  0.240805E-01  0.292309E-01  0.353088E-01  0.421785E-01
  0.495484E-01  0.569731E-01  0.639181E-01  0.698908E-01  0.745563E-01  0.777409E-01
  0.793570E-01  0.793570E-01  0.777409E-01  0.745563E-01  0.698908E-01  0.639181E-01
  0.569731E-01  0.495484E-01  0.459997E-01  0.390057E-01  0.326412E-01  0.271173E-01
  0.225044E-01  0.187694E-01  0.158243E-01  0.135701E-01  0.119173E-01  0.107917E-01
  0.101381E-01  0.992377E-02  0.101381E-01  0.107917E-01  0.119173E-01  0.135701E-01
  0.158243E-01  0.187694E-01  0.225044E-01  0.271173E-01  0.326412E-01  0.390057E-01
  0.459997E-01  0.532575E-01  0.602877E-01  0.665736E-01  0.717080E-01  0.754621E-01
  0.777409E-01  0.785051E-01  0.777409E-01  0.754621E-01  0.717080E-01  0.665736E-01
  0.602877E-01  0.532575E-01  0.459997E-01  0.419419E-01  0.355338E-01  0.298281E-01
  0.249570E-01  0.209362E-01  0.177071E-01  0.151827E-01  0.132774E-01  0.119173E-01
  0.110434E-01  0.106160E-01  0.106160E-01  0.110434E-01  0.119173E-01  0.132774E-01
  0.151827E-01  0.177071E-01  0.209362E-01  0.249570E-01  0.298281E-01  0.355338E-01
  0.419419E-01  0.487790E-01  0.556352E-01  0.620209E-01  0.674816E-01  0.717080E-01
  0.745563E-01  0.759846E-01  0.759846E-01  0.745563E-01  0.717080E-01  0.674816E-01
  0.620209E-01  0.556352E-01  0.487790E-01  0.419419E-01  0.376421E-01  0.319794E-01
  0.270299E-01  0.228587E-01  0.194440E-01  0.167202E-01  0.146117E-01  0.130498E-01
  0.119764E-01  0.113489E-01  0.111423E-01  0.113489E-01  0.119764E-01  0.130498E-01
  0.146117E-01  0.167202E-01  0.194440E-01  0.228587E-01  0.270299E-01  0.319794E-01
  0.376421E-01  0.438342E-01  0.502435E-01  0.564543E-01  0.620209E-01  0.665736E-01
  0.698908E-01  0.718885E-01  0.725536E-01  0.718885E-01  0.698908E-01  0.665736E-01
  0.620209E-01  0.564543E-01  0.502435E-01  0.438342E-01  0.376421E-01  0.333654E-01
  0.285372E-01  0.243775E-01  0.209031E-01  0.180754E-01  0.158354E-01  0.141237E-01
  0.128880E-01  0.120866E-01  0.116922E-01  0.116922E-01  0.120866E-01  0.128880E-01
  0.141237E-01  0.158354E-01  0.180754E-01  0.209031E-01  0.243775E-01  0.285372E-01
  0.333654E-01  0.387548E-01  0.444881E-01  0.502435E-01  0.556352E-01  0.602877E-01
  0.639181E-01  0.663732E-01  0.676030E-01  0.676030E-01  0.663732E-01  0.639181E-01
  0.602877E-01  0.556352E-01  0.502435E-01  0.444881E-01  0.387548E-01  0.333654E-01
  0.293317E-01  0.253532E-01  0.219592E-01  0.191404E-01  0.168580E-01  0.150659E-01
  0.137207E-01  0.127854E-01  0.122337E-01  0.120513E-01  0.122337E-01  0.127854E-01
  0.137207E-01  0.150659E-01  0.168580E-01  0.191404E-01  0.219592E-01  0.253532E-01
  0.293317E-01  0.338443E-01  0.387548E-01  0.438342E-01  0.487790E-01  0.532575E-01
  0.569731E-01  0.597184E-01  0.613872E-01  0.619451E-01  0.613872E-01  0.597184E-01
  0.569731E-01  0.532575E-01  0.487790E-01  0.438342E-01  0.387548E-01  0.338443E-01
  0.293317E-01  0.256898E-01  0.225144E-01  0.198220E-01  0.175953E-01  0.158036E-01
  0.144142E-01  0.133973E-01  0.127303E-01  0.123997E-01  0.123997E-01  0.127303E-01
  0.133973E-01  0.144142E-01  0.158036E-01  0.175953E-01  0.198220E-01  0.225144E-01
  0.256898E-01  0.293317E-01  0.333654E-01  0.376421E-01  0.419419E-01  0.459997E-01
  0.495484E-01  0.523649E-01  0.543009E-01  0.552817E-01  0.552817E-01  0.543009E-01
  0.523649E-01  0.495484E-01  0.459997E-01  0.419419E-01  0.376421E-01  0.333654E-01
  0.293317E-01  0.256898E-01  0.268728E-01  0.239957E-01  0.215508E-01  0.195261E-01
  0.179012E-01  0.166561E-01  0.157751E-01  0.152485E-01  0.150732E-01  0.152485E-01
  0.157751E-01  0.166561E-01  0.179012E-01  0.195261E-01  0.215508E-01  0.239957E-01
  0.268728E-01  0.301662E-01  0.338044E-01  0.376421E-01  0.414614E-01  0.450023E-01
  0.480180E-01  0.503393E-01  0.519159E-01  0.528013E-01  0.530828E-01  0.528013E-01
  0.519159E-01  0.503393E-01  0.480180E-01  0.450023E-01  0.414614E-01  0.376421E-01
  0.338044E-01  0.301662E-01  0.268728E-01  0.239957E-01  0.218059E-01  0.199527E-01
  0.184265E-01  0.172157E-01  0.163108E-01  0.157070E-01  0.154043E-01  0.154043E-01
  0.157070E-01  0.163108E-01  0.172157E-01  0.184265E-01  0.199527E-01  0.218059E-01
  0.239957E-01  0.265194E-01  0.293458E-01  0.323960E-01  0.355338E-01  0.385758E-01
  0.413227E-01  0.436027E-01  0.453100E-01  0.464178E-01  0.469546E-01  0.469546E-01
  0.464178E-01  0.453100E-01  0.436027E-01  0.413227E-01  0.385758E-01  0.355338E-01
  0.323960E-01  0.293458E-01  0.265194E-01  0.239957E-01  0.215508E-01  0.199527E-01
  0.186073E-01  0.175087E-01  0.166517E-01  0.160351E-01  0.156623E-01  0.155373E-01
  0.156623E-01  0.160351E-01  0.166517E-01  0.175087E-01  0.186073E-01  0.199527E-01
  0.215508E-01  0.234026E-01  0.254951E-01  0.277898E-01  0.302106E-01  0.326412E-01
  0.349384E-01  0.369588E-01  0.385879E-01  0.397597E-01  0.404561E-01  0.406858E-01
  0.404561E-01  0.397597E-01  0.385879E-01  0.369588E-01  0.349384E-01  0.326412E-01
  0.302106E-01  0.277898E-01  0.254951E-01  0.234026E-01  0.215508E-01  0.195261E-01
  0.184265E-01  0.175087E-01  0.167687E-01  0.162062E-01  0.158257E-01  0.156334E-01
  0.156334E-01  0.158257E-01  0.162062E-01  0.167687E-01  0.175087E-01  0.184265E-01
  0.195261E-01  0.208102E-01  0.222745E-01  0.239012E-01  0.256512E-01  0.274583E-01
  0.292309E-01  0.308645E-01  0.322616E-01  0.333482E-01  0.340824E-01  0.344498E-01
  0.344498E-01  0.340824E-01  0.333482E-01  0.322616E-01  0.308645E-01  0.292309E-01
  0.274583E-01  0.256512E-01  0.239012E-01  0.222745E-01  0.208102E-01  0.195261E-01
  0.179012E-01  0.172157E-01  0.166517E-01  0.162062E-01  0.158816E-01  0.156834E-01
  0.156167E-01  0.156834E-01  0.158816E-01  0.162062E-01  0.166517E-01  0.172157E-01
  0.179012E-01  0.187131E-01  0.196536E-01  0.207170E-01  0.218850E-01  0.231227E-01
  0.243769E-01  0.255803E-01  0.266616E-01  0.275575E-01  0.282213E-01  0.286265E-01
  0.287624E-01  0.286265E-01  0.282213E-01  0.275575E-01  0.266616E-01  0.255803E-01
  0.243769E-01  0.231227E-01  0.218850E-01  0.207170E-01  0.196536E-01  0.187131E-01
  0.179012E-01  0.166561E-01  0.163108E-01  0.160351E-01  0.158257E-01  0.156834E-01
  0.156112E-01  0.156112E-01  0.156834E-01  0.158257E-01  0.160351E-01  0.163108E-01
  0.166561E-01  0.170787E-01  0.175865E-01  0.181833E-01  0.188646E-01  0.196148E-01
  0.204050E-01  0.211953E-01  0.219393E-01  0.225910E-01  0.231108E-01  0.234704E-01
  0.236534E-01  0.236534E-01  0.234704E-01  0.231108E-01  0.225910E-01  0.219393E-01
  0.211953E-01  0.204050E-01  0.196148E-01  0.188646E-01  0.181833E-01  0.175865E-01
  0.170787E-01  0.166561E-01  0.157751E-01  0.157070E-01  0.156623E-01  0.156334E-01
  0.156167E-01  0.156112E-01  0.156167E-01  0.156334E-01  0.156623E-01  0.157070E-01
  0.157751E-01  0.158779E-01  0.160287E-01  0.162395E-01  0.165171E-01  0.168595E-01
  0.172542E-01  0.176791E-01  0.181058E-01  0.185039E-01  0.188446E-01  0.191039E-01
  0.192653E-01  0.193200E-01  0.192653E-01  0.191039E-01  0.188446E-01  0.185039E-01
  0.181058E-01  0.176791E-01  0.172542E-01  0.168595E-01  0.165171E-01  0.162395E-01
  0.160287E-01  0.158779E-01  0.157751E-01  0.152485E-01  0.154043E-01  0.155373E-01
  0.156334E-01  0.156834E-01  0.156834E-01  0.156334E-01  0.155373E-01  0.154043E-01
  0.152485E-01  0.150880E-01  0.149427E-01  0.148320E-01  0.147720E-01  0.147720E-01
  0.148320E-01  0.149427E-01  0.150880E-01  0.152485E-01  0.154043E-01  0.155373E-01
  0.156334E-01  0.156834E-01  0.156834E-01  0.156334E-01  0.155373E-01  0.154043E-01
  0.152485E-01  0.150880E-01  0.149427E-01  0.148320E-01  0.147720E-01  0.147720E-01
  0.148320E-01  0.149427E-01  0.150880E-01  0.152485E-01  0.150732E-01  0.154043E-01
  0.156623E-01  0.158257E-01  0.158816E-01  0.158257E-01  0.156623E-01  0.154043E-01
  0.150732E-01  0.146957E-01  0.143012E-01  0.139177E-01  0.135701E-01  0.132774E-01
  0.130498E-01  0.128880E-01  0.127854E-01  0.127303E-01  0.127092E-01  0.127084E-01
  0.127161E-01  0.127239E-01  0.127270E-01  0.127239E-01  0.127161E-01  0.127084E-01
  0.127092E-01  0.127303E-01  0.127854E-01  0.128880E-01  0.130498E-01  0.132774E-01
  0.135701E-01  0.139177E-01  0.143012E-01  0.146957E-01  0.150732E-01  0.152485E-01
  0.157070E-01  0.160351E-01  0.162062E-01  0.162062E-01  0.160351E-01  0.157070E-01
  0.152485E-01  0.146957E-01  0.140888E-01  0.134674E-01  0.128668E-01  0.123157E-01
  0.118332E-01  0.114289E-01  0.111031E-01  0.108505E-01  0.106619E-01  0.105268E-01
  0.104352E-01  0.103787E-01  0.103518E-01  0.103518E-01  0.103787E-01  0.104352E-01
  0.105268E-01  0.106619E-01  0.108505E-01  0.111031E-01  0.114289E-01  0.118332E-01
  0.123157E-01  0.128668E-01  0.134674E-01  0.140888E-01  0.146957E-01  0.152485E-01
  0.157751E-01  0.163108E-01  0.166517E-01  0.167687E-01  0.166517E-01  0.163108E-01
  0.157751E-01  0.150880E-01  0.143012E-01  0.134674E-01  0.126353E-01  0.118451E-01
  0.111263E-01  0.104962E-01  0.996203E-02  0.952289E-02  0.917299E-02  0.890390E-02
  0.870635E-02  0.857185E-02  0.849382E-02  0.846825E-02  0.849382E-02  0.857185E-02
  0.870635E-02  0.890390E-02  0.917299E-02  0.952289E-02  0.996203E-02  0.104962E-01
  0.111263E-01  0.118451E-01  0.126353E-01  0.134674E-01  0.143012E-01  0.150880E-01
  0.157751E-01  0.166561E-01  0.172157E-01  0.175087E-01  0.175087E-01  0.172157E-01
  0.166561E-01  0.158779E-01  0.149427E-01  0.139177E-01  0.128668E-01  0.118451E-01
  0.108944E-01  0.100420E-01  0.930200E-02  0.867820E-02  0.816718E-02  0.776152E-02
  0.745202E-02  0.722943E-02  0.708578E-02  0.701541E-02  0.701541E-02  0.708578E-02
  0.722943E-02  0.745202E-02  0.776152E-02  0.816718E-02  0.867820E-02  0.930200E-02
  0.100420E-01  0.108944E-01  0.118451E-01  0.128668E-01  0.139177E-01  0.149427E-01
  0.158779E-01  0.166561E-01  0.179012E-01  0.184265E-01  0.186073E-01  0.184265E-01
  0.179012E-01  0.170787E-01  0.160287E-01  0.148320E-01  0.135701E-01  0.123157E-01
  0.111263E-01  0.100420E-01  0.908606E-02  0.826793E-02  0.758691E-02  0.703618E-02
  0.660583E-02  0.628509E-02  0.606393E-02  0.593446E-02  0.589185E-02  0.593446E-02
  0.606393E-02  0.628509E-02  0.660583E-02  0.703618E-02  0.758691E-02  0.826793E-02
  0.908606E-02  0.100420E-01  0.111263E-01  0.123157E-01  0.135701E-01  0.148320E-01
  0.160287E-01  0.170787E-01  0.179012E-01  0.195261E-01  0.199527E-01  0.199527E-01
  0.195261E-01  0.187131E-01  0.175865E-01  0.162395E-01  0.147720E-01  0.132774E-01
  0.118332E-01  0.104962E-01  0.930200E-02  0.826793E-02  0.739728E-02  0.668414E-02
  0.611767E-02  0.568506E-02  0.537354E-02  0.517217E-02  0.507335E-02  0.507335E-02
  0.517217E-02  0.537354E-02  0.568506E-02  0.611767E-02  0.668414E-02  0.739728E-02
  0.826793E-02  0.930200E-02  0.104962E-01  0.118332E-01  0.132774E-01  0.147720E-01
  0.162395E-01  0.175865E-01  0.187131E-01  0.195261E-01  0.215508E-01  0.218059E-01
  0.215508E-01  0.208102E-01  0.196536E-01  0.181833E-01  0.165171E-01  0.147720E-01
  0.130498E-01  0.114289E-01  0.996203E-02  0.867820E-02  0.758691E-02  0.668414E-02
  0.595806E-02  0.539348E-02  0.497451E-02  0.468658E-02  0.451838E-02  0.446305E-02
  0.451838E-02  0.468658E-02  0.497451E-02  0.539348E-02  0.595806E-02  0.668414E-02
  0.758691E-02  0.867820E-02  0.996203E-02  0.114289E-01  0.130498E-01  0.147720E-01
  0.165171E-01  0.181833E-01  0.196536E-01  0.208102E-01  0.215508E-01  0.239957E-01
  0.239957E-01  0.234026E-01  0.222745E-01  0.207170E-01  0.188646E-01  0.168595E-01
  0.148320E-01  0.128880E-01  0.111031E-01  0.952289E-02  0.816718E-02  0.703618E-02
  0.611767E-02  0.539348E-02  0.484389E-02  0.445028E-02  0.419706E-02  0.407324E-02
  0.407324E-02  0.419706E-02  0.445028E-02  0.484389E-02  0.539348E-02  0.611767E-02
  0.703618E-02  0.816718E-02  0.952289E-02  0.111031E-01  0.128880E-01  0.148320E-01
  0.168595E-01  0.188646E-01  0.207170E-01  0.222745E-01  0.234026E-01  0.239957E-01
  0.268728E-01  0.265194E-01  0.254951E-01  0.239012E-01  0.218850E-01  0.196148E-01
  0.172542E-01  0.149427E-01  0.127854E-01  0.108505E-01  0.917299E-02  0.776152E-02
  0.660583E-02  0.568506E-02  0.497451E-02  0.445028E-02  0.409188E-02  0.388353E-02
  0.381522E-02  0.388353E-02  0.409188E-02  0.445028E-02  0.497451E-02  0.568506E-02
  0.660583E-02  0.776152E-02  0.917299E-02  0.108505E-01  0.127854E-01  0.149427E-01
  0.172542E-01  0.196148E-01  0.218850E-01  0.239012E-01  0.254951E-01  0.265194E-01
  0.268728E-01  0.301662E-01  0.293458E-01  0.277898E-01  0.256512E-01  0.231227E-01
  0.204050E-01  0.176791E-01  0.150880E-01  0.127303E-01  0.106619E-01  0.890390E-02
  0.745202E-02  0.628509E-02  0.537354E-02  0.468658E-02  0.419706E-02  0.388353E-02
  0.373079E-02  0.373079E-02  0.388353E-02  0.419706E-02  0.468658E-02  0.537354E-02
  0.628509E-02  0.745202E-02  0.890390E-02  0.106619E-01  0.127303E-01  0.150880E-01
  0.176791E-01  0.204050E-01  0.231227E-01  0.256512E-01  0.277898E-01  0.293458E-01
  0.301662E-01  0.301662E-01  0.338044E-01  0.323960E-01  0.302106E-01  0.274583E-01
  0.243769E-01  0.211953E-01  0.181058E-01  0.152485E-01  0.127092E-01  0.105268E-01
  0.870635E-02  0.722943E-02  0.606393E-02  0.517217E-02  0.451838E-02  0.407324E-02
  0.381522E-02  0.373079E-02  0.381522E-02  0.407324E-02  0.451838E-02  0.517217E-02
  0.606393E-02  0.722943E-02  0.870635E-02  0.105268E-01  0.127092E-01  0.152485E-01
  0.181058E-01  0.211953E-01  0.243769E-01  0.274583E-01  0.302106E-01  0.323960E-01
  0.338044E-01  0.342911E-01  0.338044E-01  0.376421E-01  0.355338E-01  0.326412E-01
  0.292309E-01  0.255803E-01  0.219393E-01  0.185039E-01  0.154043E-01  0.127084E-01
  0.104352E-01  0.857185E-02  0.708578E-02  0.593446E-02  0.507335E-02  0.446305E-02
  0.407324E-02  0.388353E-02  0.388353E-02  0.407324E-02  0.446305E-02  0.507335E-02
  0.593446E-02  0.708578E-02  0.857185E-02  0.104352E-01  0.127084E-01  0.154043E-01
  0.185039E-01  0.219393E-01  0.255803E-01  0.292309E-01  0.326412E-01  0.355338E-01
  0.376421E-01  0.387548E-01  0.387548E-01  0.376421E-01  0.414614E-01  0.385758E-01
  0.349384E-01  0.308645E-01  0.266616E-01  0.225910E-01  0.188446E-01  0.155373E-01
  0.127161E-01  0.103787E-01  0.849382E-02  0.701541E-02  0.589185E-02  0.507335E-02
  0.451838E-02  0.419706E-02  0.409188E-02  0.419706E-02  0.451838E-02  0.507335E-02
  0.589185E-02  0.701541E-02  0.849382E-02  0.103787E-01  0.127161E-01  0.155373E-01
  0.188446E-01  0.225910E-01  0.266616E-01  0.308645E-01  0.349384E-01  0.385758E-01
  0.414614E-01  0.433193E-01  0.439610E-01  0.433193E-01  0.414614E-01  0.450023E-01
  0.413227E-01  0.369588E-01  0.322616E-01  0.275575E-01  0.231108E-01  0.191039E-01
  0.156334E-01  0.127239E-01  0.103518E-01  0.846825E-02  0.701541E-02  0.593446E-02
  0.517217E-02  0.468658E-02  0.445028E-02  0.445028E-02  0.468658E-02  0.517217E-02
  0.593446E-02  0.701541E-02  0.846825E-02  0.103518E-01  0.127239E-01  0.156334E-01
  0.191039E-01  0.231108E-01  0.275575E-01  0.322616E-01  0.369588E-01  0.413227E-01
  0.450023E-01  0.476698E-01  0.490722E-01  0.490722E-01  0.476698E-01  0.450023E-01
  0.480180E-01  0.436027E-01  0.385879E-01  0.333482E-01  0.282213E-01  0.234704E-01
  0.192653E-01  0.156834E-01  0.127270E-01  0.103518E-01  0.849382E-02  0.708578E-02
  0.606393E-02  0.537354E-02  0.497451E-02  0.484389E-02  0.497451E-02  0.537354E-02
  0.606393E-02  0.708578E-02  0.849382E-02  0.103518E-01  0.127270E-01  0.156834E-01
  0.192653E-01  0.234704E-01  0.282213E-01  0.333482E-01  0.385879E-01  0.436027E-01
  0.480180E-01  0.514730E-01  0.536732E-01  0.544285E-01  0.536732E-01  0.514730E-01
  0.480180E-01  0.503393E-01  0.453100E-01  0.397597E-01  0.340824E-01  0.286265E-01
  0.236534E-01  0.193200E-01  0.156834E-01  0.127239E-01  0.103787E-01  0.857185E-02
  0.722943E-02  0.628509E-02  0.568506E-02  0.539348E-02  0.539348E-02  0.568506E-02
  0.628509E-02  0.722943E-02  0.857185E-02  0.103787E-01  0.127239E-01  0.156834E-01
  0.193200E-01  0.236534E-01  0.286265E-01  0.340824E-01  0.397597E-01  0.453100E-01
  0.503393E-01  0.544693E-01  0.573934E-01  0.589058E-01  0.589058E-01  0.573934E-01
  0.544693E-01  0.503393E-01  0.519159E-01  0.464178E-01  0.404561E-01  0.344498E-01
  0.287624E-01  0.236534E-01  0.192653E-01  0.156334E-01  0.127161E-01  0.104352E-01
  0.870635E-02  0.745202E-02  0.660583E-02  0.611767E-02  0.595806E-02  0.611767E-02
  0.660583E-02  0.745202E-02  0.870635E-02  0.104352E-01  0.127161E-01  0.156334E-01
  0.192653E-01  0.236534E-01  0.287624E-01  0.344498E-01  0.404561E-01  0.464178E-01
  0.519159E-01  0.565560E-01  0.600398E-01  0.621872E-01  0.629112E-01  0.621872E-01
  0.600398E-01  0.565560E-01  0.519159E-01  0.528013E-01  0.469546E-01  0.406858E-01
  0.344498E-01  0.286265E-01  0.234704E-01  0.191039E-01  0.155373E-01  0.127084E-01
  0.105268E-01  0.890390E-02  0.776152E-02  0.703618E-02  0.668414E-02  0.668414E-02
  0.703618E-02  0.776152E-02  0.890390E-02  0.105268E-01  0.127084E-01  0.155373E-01
  0.191039E-01  0.234704E-01  0.286265E-01  0.344498E-01  0.406858E-01  0.469546E-01
  0.528013E-01  0.578006E-01  0.616615E-01  0.642536E-01  0.655482E-01  0.655482E-01
  0.642536E-01  0.616615E-01  0.578006E-01  0.528013E-01  0.530828E-01  0.469546E-01
  0.404561E-01  0.340824E-01  0.282213E-01  0.231108E-01  0.188446E-01  0.154043E-01
  0.127092E-01  0.106619E-01  0.917299E-02  0.816718E-02  0.758691E-02  0.739728E-02
  0.758691E-02  0.816718E-02  0.917299E-02  0.106619E-01  0.127092E-01  0.154043E-01
  0.188446E-01  0.231108E-01  0.282213E-01  0.340824E-01  0.404561E-01  0.469546E-01
  0.530828E-01  0.583611E-01  0.624783E-01  0.653482E-01  0.670240E-01  0.675742E-01
  0.670240E-01  0.653482E-01  0.624783E-01  0.583611E-01  0.530828E-01  0.528013E-01
  0.464178E-01  0.397597E-01  0.333482E-01  0.275575E-01  0.225910E-01  0.185039E-01
  0.152485E-01  0.127303E-01  0.108505E-01  0.952289E-02  0.867820E-02  0.826793E-02
  0.826793E-02  0.867820E-02  0.952289E-02  0.108505E-01  0.127303E-01  0.152485E-01
  0.185039E-01  0.225910E-01  0.275575E-01  0.333482E-01  0.397597E-01  0.464178E-01
  0.528013E-01  0.583611E-01  0.627192E-01  0.657915E-01  0.677088E-01  0.686281E-01
  0.686281E-01  0.677088E-01  0.657915E-01  0.627192E-01  0.583611E-01  0.528013E-01
  0.519159E-01  0.453100E-01  0.385879E-01  0.322616E-01  0.266616E-01  0.219393E-01
  0.181058E-01  0.150880E-01  0.127854E-01  0.111031E-01  0.996203E-02  0.930200E-02
  0.908606E-02  0.930200E-02  0.996203E-02  0.111031E-01  0.127854E-01  0.150880E-01
  0.181058E-01  0.219393E-01  0.266616E-01  0.322616E-01  0.385879E-01  0.453100E-01
  0.519159E-01  0.578006E-01  0.624783E-01  0.657915E-01  0.679013E-01  0.690634E-01
  0.694366E-01  0.690634E-01  0.679013E-01  0.657915E-01  0.624783E-01  0.578006E-01
  0.519159E-01  0.503393E-01  0.436027E-01  0.369588E-01  0.308645E-01  0.255803E-01
  0.211953E-01  0.176791E-01  0.149427E-01  0.128880E-01  0.114289E-01  0.104962E-01
  0.100420E-01  0.100420E-01  0.104962E-01  0.114289E-01  0.128880E-01  0.149427E-01
  0.176791E-01  0.211953E-01  0.255803E-01  0.308645E-01  0.369588E-01  0.436027E-01
  0.503393E-01  0.565560E-01  0.616615E-01  0.653482E-01  0.677088E-01  0.690634E-01
  0.696836E-01  0.696836E-01  0.690634E-01  0.677088E-01  0.653482E-01  0.616615E-01
  0.565560E-01  0.503393E-01  0.480180E-01  0.413227E-01  0.349384E-01  0.292309E-01
  0.243769E-01  0.204050E-01  0.172542E-01  0.148320E-01  0.130498E-01  0.118332E-01
  0.111263E-01  0.108944E-01  0.111263E-01  0.118332E-01  0.130498E-01  0.148320E-01
  0.172542E-01  0.204050E-01  0.243769E-01  0.292309E-01  0.349384E-01  0.413227E-01
  0.480180E-01  0.544693E-01  0.600398E-01  0.642536E-01  0.670240E-01  0.686281E-01
  0.694366E-01  0.696836E-01  0.694366E-01  0.686281E-01  0.670240E-01  0.642536E-01
  0.600398E-01  0.544693E-01  0.480180E-01  0.450023E-01  0.385758E-01  0.326412E-01
  0.274583E-01  0.231227E-01  0.196148E-01  0.168595E-01  0.147720E-01  0.132774E-01
  0.123157E-01  0.118451E-01  0.118451E-01  0.123157E-01  0.132774E-01  0.147720E-01
  0.168595E-01  0.196148E-01  0.231227E-01  0.274583E-01  0.326412E-01  0.385758E-01
  0.450023E-01  0.514730E-01  0.573934E-01  0.621872E-01  0.655482E-01  0.675742E-01
  0.686281E-01  0.690634E-01  0.690634E-01  0.686281E-01  0.675742E-01  0.655482E-01
  0.621872E-01  0.573934E-01  0.514730E-01  0.450023E-01  0.414614E-01  0.355338E-01
  0.302106E-01  0.256512E-01  0.218850E-01  0.188646E-01  0.165171E-01  0.147720E-01
  0.135701E-01  0.128668E-01  0.126353E-01  0.128668E-01  0.135701E-01  0.147720E-01
  0.165171E-01  0.188646E-01  0.218850E-01  0.256512E-01  0.302106E-01  0.355338E-01
  0.414614E-01  0.476698E-01  0.536732E-01  0.589058E-01  0.629112E-01  0.655482E-01
  0.670240E-01  0.677088E-01  0.679013E-01  0.677088E-01  0.670240E-01  0.655482E-01
  0.629112E-01  0.589058E-01  0.536732E-01  0.476698E-01  0.414614E-01  0.376421E-01
  0.323960E-01  0.277898E-01  0.239012E-01  0.207170E-01  0.181833E-01  0.162395E-01
  0.148320E-01  0.139177E-01  0.134674E-01  0.134674E-01  0.139177E-01  0.148320E-01
  0.162395E-01  0.181833E-01  0.207170E-01  0.239012E-01  0.277898E-01  0.323960E-01
  0.376421E-01  0.433193E-01  0.490722E-01  0.544285E-01  0.589058E-01  0.621872E-01
  0.642536E-01  0.653482E-01  0.657915E-01  0.657915E-01  0.653482E-01  0.642536E-01
  0.621872E-01  0.589058E-01  0.544285E-01  0.490722E-01  0.433193E-01  0.376421E-01
  0.338044E-01  0.293458E-01  0.254951E-01  0.222745E-01  0.196536E-01  0.175865E-01
  0.160287E-01  0.149427E-01  0.143012E-01  0.140888E-01  0.143012E-01  0.149427E-01
  0.160287E-01  0.175865E-01  0.196536E-01  0.222745E-01  0.254951E-01  0.293458E-01
  0.338044E-01  0.387548E-01  0.439610E-01  0.490722E-01  0.536732E-01  0.573934E-01
  0.600398E-01  0.616615E-01  0.624783E-01  0.627192E-01  0.624783E-01  0.616615E-01
  0.600398E-01  0.573934E-01  0.536732E-01  0.490722E-01  0.439610E-01  0.387548E-01
  0.338044E-01  0.301662E-01  0.265194E-01  0.234026E-01  0.208102E-01  0.187131E-01
  0.170787E-01  0.158779E-01  0.150880E-01  0.146957E-01  0.146957E-01  0.150880E-01
  0.158779E-01  0.170787E-01  0.187131E-01  0.208102E-01  0.234026E-01  0.265194E-01
  0.301662E-01  0.342911E-01  0.387548E-01  0.433193E-01  0.476698E-01  0.514730E-01
  0.544693E-01  0.565560E-01  0.578006E-01  0.583611E-01  0.583611E-01  0.578006E-01
  0.565560E-01  0.544693E-01  0.514730E-01  0.476698E-01  0.433193E-01  0.387548E-01
  0.342911E-01  0.301662E-01  0.268728E-01  0.239957E-01  0.215508E-01  0.195261E-01
  0.179012E-01  0.166561E-01  0.157751E-01  0.152485E-01  0.150732E-01  0.152485E-01
  0.157751E-01  0.166561E-01  0.179012E-01  0.195261E-01  0.215508E-01  0.239957E-01
  0.268728E-01  0.301662E-01  0.338044E-01  0.376421E-01  0.414614E-01  0.450023E-01
  0.480180E-01  0.503393E-01  0.519159E-01  0.528013E-01  0.530828E-01  0.528013E-01
  0.519159E-01  0.503393E-01  0.480180E-01  0.450023E-01  0.414614E-01  0.376421E-01
  0.338044E-01  0.301662E-01  0.268728E-01  0.288622E-01  0.262592E-01  0.240400E-01
  0.221988E-01  0.207273E-01  0.196203E-01  0.188777E-01  0.185039E-01  0.185039E-01
  0.188777E-01  0.196203E-01  0.207273E-01  0.221988E-01  0.240400E-01  0.262592E-01
  0.288622E-01  0.318344E-01  0.351117E-01  0.385542E-01  0.419419E-01  0.450023E-01
  0.474742E-01  0.491959E-01  0.501780E-01  0.506023E-01  0.507239E-01  0.507239E-01
  0.506023E-01  0.501780E-01  0.491959E-01  0.474742E-01  0.450023E-01  0.419419E-01
  0.385542E-01  0.351117E-01  0.318344E-01  0.288622E-01  0.262592E-01  0.243241E-01
  0.226788E-01  0.213214E-01  0.202523E-01  0.194764E-01  0.190037E-01  0.188446E-01
  0.190037E-01  0.194764E-01  0.202523E-01  0.213214E-01  0.226788E-01  0.243241E-01
  0.262592E-01  0.284806E-01  0.309628E-01  0.336372E-01  0.363776E-01  0.390057E-01
  0.413227E-01  0.431624E-01  0.444460E-01  0.452097E-01  0.455769E-01  0.456805E-01
  0.455769E-01  0.452097E-01  0.444460E-01  0.431624E-01  0.413227E-01  0.390057E-01
  0.363776E-01  0.336372E-01  0.309628E-01  0.284806E-01  0.262592E-01  0.240400E-01
  0.226788E-01  0.215258E-01  0.205826E-01  0.198556E-01  0.193578E-01  0.191039E-01
  0.191039E-01  0.193578E-01  0.198556E-01  0.205826E-01  0.215258E-01  0.226788E-01
  0.240400E-01  0.256084E-01  0.273750E-01  0.293104E-01  0.313514E-01  0.333951E-01
  0.353088E-01  0.369588E-01  0.382473E-01  0.391413E-01  0.396739E-01  0.399135E-01
  0.399135E-01  0.396739E-01  0.391413E-01  0.382473E-01  0.369588E-01  0.353088E-01
  0.333951E-01  0.313514E-01  0.293104E-01  0.273750E-01  0.256084E-01  0.240400E-01
  0.221988E-01  0.213214E-01  0.205826E-01  0.199855E-01  0.195412E-01  0.192653E-01
  0.191715E-01  0.192653E-01  0.195412E-01  0.199855E-01  0.205826E-01  0.213214E-01
  0.221988E-01  0.232158E-01  0.243716E-01  0.256559E-01  0.270414E-01  0.284765E-01
  0.298843E-01  0.311738E-01  0.322616E-01  0.330943E-01  0.336592E-01  0.339771E-01
  0.340785E-01  0.339771E-01  0.336592E-01  0.330943E-01  0.322616E-01  0.311738E-01
  0.298843E-01  0.284765E-01  0.270414E-01  0.256559E-01  0.243716E-01  0.232158E-01
  0.221988E-01  0.207273E-01  0.202523E-01  0.198556E-01  0.195412E-01  0.193200E-01
  0.192051E-01  0.192051E-01  0.193200E-01  0.195412E-01  0.198556E-01  0.202523E-01
  0.207273E-01  0.212845E-01  0.219301E-01  0.226657E-01  0.234837E-01  0.243623E-01
  0.252629E-01  0.261325E-01  0.269134E-01  0.275575E-01  0.280370E-01  0.283469E-01
  0.284969E-01  0.284969E-01  0.283469E-01  0.280370E-01  0.275575E-01  0.269134E-01
  0.261325E-01  0.252629E-01  0.243623E-01  0.234837E-01  0.226657E-01  0.219301E-01
  0.212845E-01  0.207273E-01  0.196203E-01  0.194764E-01  0.193578E-01  0.192653E-01
  0.192051E-01  0.191841E-01  0.192051E-01  0.192653E-01  0.193578E-01  0.194764E-01
  0.196203E-01  0.197969E-01  0.200186E-01  0.202975E-01  0.206397E-01  0.210414E-01
  0.214873E-01  0.219505E-01  0.223969E-01  0.227923E-01  0.231108E-01  0.233385E-01
  0.234730E-01  0.235171E-01  0.234730E-01  0.233385E-01  0.231108E-01  0.227923E-01
  0.223969E-01  0.219505E-01  0.214873E-01  0.210414E-01  0.206397E-01  0.202975E-01
  0.200186E-01  0.197969E-01  0.196203E-01  0.188777E-01  0.190037E-01  0.191039E-01
  0.191715E-01  0.192051E-01  0.192051E-01  0.191715E-01  0.191039E-01  0.190037E-01
  0.188777E-01  0.187397E-01  0.186088E-01  0.185063E-01  0.184499E-01  0.184499E-01
  0.185063E-01  0.186088E-01  0.187397E-01  0.188777E-01  0.190037E-01  0.191039E-01
  0.191715E-01  0.192051E-01  0.192051E-01  0.191715E-01  0.191039E-01  0.190037E-01
  0.188777E-01  0.187397E-01  0.186088E-01  0.185063E-01  0.184499E-01  0.184499E-01
  0.185063E-01  0.186088E-01  0.187397E-01  0.188777E-01  0.185039E-01  0.188446E-01
  0.191039E-01  0.192653E-01  0.193200E-01  0.192653E-01  0.191039E-01  0.188446E-01
  0.185039E-01  0.181058E-01  0.176791E-01  0.172542E-01  0.168595E-01  0.165171E-01
  0.162395E-01  0.160287E-01  0.158779E-01  0.157751E-01  0.157070E-01  0.156623E-01
  0.156334E-01  0.156167E-01  0.156112E-01  0.156167E-01  0.156334E-01  0.156623E-01
  0.157070E-01  0.157751E-01  0.158779E-01  0.160287E-01  0.162395E-01  0.165171E-01
  0.168595E-01  0.172542E-01  0.176791E-01  0.181058E-01  0.185039E-01  0.185039E-01
  0.190037E-01  0.193578E-01  0.195412E-01  0.195412E-01  0.193578E-01  0.190037E-01
  0.185039E-01  0.178943E-01  0.172165E-01  0.165133E-01  0.158243E-01  0.151827E-01
  0.146117E-01  0.141237E-01  0.137207E-01  0.133973E-01  0.131445E-01  0.129527E-01
  0.128142E-01  0.127239E-01  0.126793E-01  0.126793E-01  0.127239E-01  0.128142E-01
  0.129527E-01  0.131445E-01  0.133973E-01  0.137207E-01  0.141237E-01  0.146117E-01
  0.151827E-01  0.158243E-01  0.165133E-01  0.172165E-01  0.178943E-01  0.185039E-01
  0.188777E-01  0.194764E-01  0.198556E-01  0.199855E-01  0.198556E-01  0.194764E-01
  0.188777E-01  0.181058E-01  0.172165E-01  0.162680E-01  0.153142E-01  0.144009E-01
  0.135625E-01  0.128204E-01  0.121843E-01  0.116543E-01  0.112247E-01  0.108871E-01
  0.106332E-01  0.104562E-01  0.103518E-01  0.103172E-01  0.103518E-01  0.104562E-01
  0.106332E-01  0.108871E-01  0.112247E-01  0.116543E-01  0.121843E-01  0.128204E-01
  0.135625E-01  0.144009E-01  0.153142E-01  0.162680E-01  0.172165E-01  0.181058E-01
  0.188777E-01  0.196203E-01  0.202523E-01  0.205826E-01  0.205826E-01  0.202523E-01
  0.196203E-01  0.187397E-01  0.176791E-01  0.165133E-01  0.153142E-01  0.141434E-01
  0.130488E-01  0.120622E-01  0.112007E-01  0.104694E-01  0.986539E-02  0.938084E-02
  0.900650E-02  0.873380E-02  0.855595E-02  0.846825E-02  0.846825E-02  0.855595E-02
  0.873380E-02  0.900650E-02  0.938084E-02  0.986539E-02  0.104694E-01  0.112007E-01
  0.120622E-01  0.130488E-01  0.141434E-01  0.153142E-01  0.165133E-01  0.176791E-01
  0.187397E-01  0.196203E-01  0.207273E-01  0.213214E-01  0.215258E-01  0.213214E-01
  0.207273E-01  0.197969E-01  0.186088E-01  0.172542E-01  0.158243E-01  0.144009E-01
  0.130488E-01  0.118135E-01  0.107214E-01  0.978353E-02  0.899932E-02  0.836144E-02
  0.785937E-02  0.748219E-02  0.722027E-02  0.706623E-02  0.701541E-02  0.706623E-02
  0.722027E-02  0.748219E-02  0.785937E-02  0.836144E-02  0.899932E-02  0.978353E-02
  0.107214E-01  0.118135E-01  0.130488E-01  0.144009E-01  0.158243E-01  0.172542E-01
  0.186088E-01  0.197969E-01  0.207273E-01  0.221988E-01  0.226788E-01  0.226788E-01
  0.221988E-01  0.212845E-01  0.200186E-01  0.185063E-01  0.168595E-01  0.151827E-01
  0.135625E-01  0.120622E-01  0.107214E-01  0.955913E-02  0.857856E-02  0.777290E-02
  0.713024E-02  0.663695E-02  0.627995E-02  0.604834E-02  0.593446E-02  0.593446E-02
  0.604834E-02  0.627995E-02  0.663695E-02  0.713024E-02  0.777290E-02  0.857856E-02
  0.955913E-02  0.107214E-01  0.120622E-01  0.135625E-01  0.151827E-01  0.168595E-01
  0.185063E-01  0.200186E-01  0.212845E-01  0.221988E-01  0.240400E-01  0.243241E-01
  0.240400E-01  0.232158E-01  0.219301E-01  0.202975E-01  0.184499E-01  0.165171E-01
  0.146117E-01  0.128204E-01  0.112007E-01  0.978353E-02  0.857856E-02  0.758054E-02
  0.677621E-02  0.614902E-02  0.568215E-02  0.536045E-02  0.517217E-02  0.511019E-02
  0.517217E-02  0.536045E-02  0.568215E-02  0.614902E-02  0.677621E-02  0.758054E-02
  0.857856E-02  0.978353E-02  0.112007E-01  0.128204E-01  0.146117E-01  0.165171E-01
  0.184499E-01  0.202975E-01  0.219301E-01  0.232158E-01  0.240400E-01  0.262592E-01
  0.262592E-01  0.256084E-01  0.243716E-01  0.226657E-01  0.206397E-01  0.184499E-01
  0.162395E-01  0.141237E-01  0.121843E-01  0.104694E-01  0.899932E-02  0.777290E-02
  0.677621E-02  0.598944E-02  0.539155E-02  0.496277E-02  0.468658E-02  0.455139E-02
  0.455139E-02  0.468658E-02  0.496277E-02  0.539155E-02  0.598944E-02  0.677621E-02
  0.777290E-02  0.899932E-02  0.104694E-01  0.121843E-01  0.141237E-01  0.162395E-01
  0.184499E-01  0.206397E-01  0.226657E-01  0.243716E-01  0.256084E-01  0.262592E-01
  0.288622E-01  0.284806E-01  0.273750E-01  0.256559E-01  0.234837E-01  0.210414E-01
  0.185063E-01  0.160287E-01  0.137207E-01  0.116543E-01  0.986539E-02  0.836144E-02
  0.713024E-02  0.614902E-02  0.539155E-02  0.483257E-02  0.445028E-02  0.422792E-02
  0.415499E-02  0.422792E-02  0.445028E-02  0.483257E-02  0.539155E-02  0.614902E-02
  0.713024E-02  0.836144E-02  0.986539E-02  0.116543E-01  0.137207E-01  0.160287E-01
  0.185063E-01  0.210414E-01  0.234837E-01  0.256559E-01  0.273750E-01  0.284806E-01
  0.288622E-01  0.318344E-01  0.309628E-01  0.293104E-01  0.270414E-01  0.243623E-01
  0.214873E-01  0.186088E-01  0.158779E-01  0.133973E-01  0.112247E-01  0.938084E-02
  0.785937E-02  0.663695E-02  0.568215E-02  0.496277E-02  0.445028E-02  0.412204E-02
  0.396209E-02  0.396209E-02  0.412204E-02  0.445028E-02  0.496277E-02  0.568215E-02
  0.663695E-02  0.785937E-02  0.938084E-02  0.112247E-01  0.133973E-01  0.158779E-01
  0.186088E-01  0.214873E-01  0.243623E-01  0.270414E-01  0.293104E-01  0.309628E-01
  0.318344E-01  0.318344E-01  0.351117E-01  0.336372E-01  0.313514E-01  0.284765E-01
  0.252629E-01  0.219505E-01  0.187397E-01  0.157751E-01  0.131445E-01  0.108871E-01
  0.900650E-02  0.748219E-02  0.627995E-02  0.536045E-02  0.468658E-02  0.422792E-02
  0.396209E-02  0.387509E-02  0.396209E-02  0.422792E-02  0.468658E-02  0.536045E-02
  0.627995E-02  0.748219E-02  0.900650E-02  0.108871E-01  0.131445E-01  0.157751E-01
  0.187397E-01  0.219505E-01  0.252629E-01  0.284765E-01  0.313514E-01  0.336372E-01
  0.351117E-01  0.356215E-01  0.351117E-01  0.385542E-01  0.363776E-01  0.333951E-01
  0.298843E-01  0.261325E-01  0.223969E-01  0.188777E-01  0.157070E-01  0.129527E-01
  0.106332E-01  0.873380E-02  0.722027E-02  0.604834E-02  0.517217E-02  0.455139E-02
  0.415499E-02  0.396209E-02  0.396209E-02  0.415499E-02  0.455139E-02  0.517217E-02
  0.604834E-02  0.722027E-02  0.873380E-02  0.106332E-01  0.129527E-01  0.157070E-01
  0.188777E-01  0.223969E-01  0.261325E-01  0.298843E-01  0.333951E-01  0.363776E-01
  0.385542E-01  0.397039E-01  0.397039E-01  0.385542E-01  0.419419E-01  0.390057E-01
  0.353088E-01  0.311738E-01  0.269134E-01  0.227923E-01  0.190037E-01  0.156623E-01
  0.128142E-01  0.104562E-01  0.855595E-02  0.706623E-02  0.593446E-02  0.511019E-02
  0.455139E-02  0.422792E-02  0.412204E-02  0.422792E-02  0.455139E-02  0.511019E-02
  0.593446E-02  0.706623E-02  0.855595E-02  0.104562E-01  0.128142E-01  0.156623E-01
  0.190037E-01  0.227923E-01  0.269134E-01  0.311738E-01  0.353088E-01  0.390057E-01
  0.419419E-01  0.438342E-01  0.444881E-01  0.438342E-01  0.419419E-01  0.450023E-01
  0.413227E-01  0.369588E-01  0.322616E-01  0.275575E-01  0.231108E-01  0.191039E-01
  0.156334E-01  0.127239E-01  0.103518E-01  0.846825E-02  0.701541E-02  0.593446E-02
  0.517217E-02  0.468658E-02  0.445028E-02  0.445028E-02  0.468658E-02  0.517217E-02
  0.593446E-02  0.701541E-02  0.846825E-02  0.103518E-01  0.127239E-01  0.156334E-01
  0.191039E-01  0.231108E-01  0.275575E-01  0.322616E-01  0.369588E-01  0.413227E-01
  0.450023E-01  0.476698E-01  0.490722E-01  0.490722E-01  0.476698E-01  0.450023E-01
  0.474742E-01  0.431624E-01  0.382473E-01  0.330943E-01  0.280370E-01  0.233385E-01
  0.191715E-01  0.156167E-01  0.126793E-01  0.103172E-01  0.846825E-02  0.706623E-02
  0.604834E-02  0.536045E-02  0.496277E-02  0.483257E-02  0.496277E-02  0.536045E-02
  0.604834E-02  0.706623E-02  0.846825E-02  0.103172E-01  0.126793E-01  0.156167E-01
  0.191715E-01  0.233385E-01  0.280370E-01  0.330943E-01  0.382473E-01  0.431624E-01
  0.474742E-01  0.508366E-01  0.529720E-01  0.537038E-01  0.529720E-01  0.508366E-01
  0.474742E-01  0.491959E-01  0.444460E-01  0.391413E-01  0.336592E-01  0.283469E-01
  0.234730E-01  0.192051E-01  0.156112E-01  0.126793E-01  0.103518E-01  0.855595E-02
  0.722027E-02  0.627995E-02  0.568215E-02  0.539155E-02  0.539155E-02  0.568215E-02
  0.627995E-02  0.722027E-02  0.855595E-02  0.103518E-01  0.126793E-01  0.156112E-01
  0.192051E-01  0.234730E-01  0.283469E-01  0.336592E-01  0.391413E-01  0.444460E-01
  0.491959E-01  0.530477E-01  0.557440E-01  0.571273E-01  0.571273E-01  0.557440E-01
  0.530477E-01  0.491959E-01  0.501780E-01  0.452097E-01  0.396739E-01  0.339771E-01
  0.284969E-01  0.235171E-01  0.192051E-01  0.156167E-01  0.127239E-01  0.104562E-01
  0.873380E-02  0.748219E-02  0.663695E-02  0.614902E-02  0.598944E-02  0.614902E-02
  0.663695E-02  0.748219E-02  0.873380E-02  0.104562E-01  0.127239E-01  0.156167E-01
  0.192051E-01  0.235171E-01  0.284969E-01  0.339771E-01  0.396739E-01  0.452097E-01
  0.501780E-01  0.542387E-01  0.571888E-01  0.589576E-01  0.595447E-01  0.589576E-01
  0.571888E-01  0.542387E-01  0.501780E-01  0.506023E-01  0.455769E-01  0.399135E-01
  0.340785E-01  0.284969E-01  0.234730E-01  0.191715E-01  0.156334E-01  0.128142E-01
  0.106332E-01  0.900650E-02  0.785937E-02  0.713024E-02  0.677621E-02  0.677621E-02
  0.713024E-02  0.785937E-02  0.900650E-02  0.106332E-01  0.128142E-01  0.156334E-01
  0.191715E-01  0.234730E-01  0.284969E-01  0.340785E-01  0.399135E-01  0.455769E-01
  0.506023E-01  0.546239E-01  0.574956E-01  0.592793E-01  0.601203E-01  0.601203E-01
  0.592793E-01  0.574956E-01  0.546239E-01  0.506023E-01  0.507239E-01  0.456805E-01
  0.399135E-01  0.339771E-01  0.283469E-01  0.233385E-01  0.191039E-01  0.156623E-01
  0.129527E-01  0.108871E-01  0.938084E-02  0.836144E-02  0.777290E-02  0.758054E-02
  0.777290E-02  0.836144E-02  0.938084E-02  0.108871E-01  0.129527E-01  0.156623E-01
  0.191039E-01  0.233385E-01  0.283469E-01  0.339771E-01  0.399135E-01  0.456805E-01
  0.507239E-01  0.546014E-01  0.571817E-01  0.586632E-01  0.593806E-01  0.595902E-01
  0.593806E-01  0.586632E-01  0.571817E-01  0.546014E-01  0.507239E-01  0.507239E-01
  0.455769E-01  0.396739E-01  0.336592E-01  0.280370E-01  0.231108E-01  0.190037E-01
  0.157070E-01  0.131445E-01  0.112247E-01  0.986539E-02  0.899932E-02  0.857856E-02
  0.857856E-02  0.899932E-02  0.986539E-02  0.112247E-01  0.131445E-01  0.157070E-01
  0.190037E-01  0.231108E-01  0.280370E-01  0.336592E-01  0.396739E-01  0.455769E-01
  0.507239E-01  0.545438E-01  0.568364E-01  0.578827E-01  0.582153E-01  0.582775E-01
  0.582775E-01  0.582153E-01  0.578827E-01  0.568364E-01  0.545438E-01  0.507239E-01
  0.506023E-01  0.452097E-01  0.391413E-01  0.330943E-01  0.275575E-01  0.227923E-01
  0.188777E-01  0.157751E-01  0.133973E-01  0.116543E-01  0.104694E-01  0.978353E-02
  0.955913E-02  0.978353E-02  0.104694E-01  0.116543E-01  0.133973E-01  0.157751E-01
  0.188777E-01  0.227923E-01  0.275575E-01  0.330943E-01  0.391413E-01  0.452097E-01
  0.506023E-01  0.546014E-01  0.568364E-01  0.575480E-01  0.574207E-01  0.571157E-01
  0.569845E-01  0.571157E-01  0.574207E-01  0.575480E-01  0.568364E-01  0.546014E-01
  0.506023E-01  0.501780E-01  0.444460E-01  0.382473E-01  0.322616E-01  0.269134E-01
  0.223969E-01  0.187397E-01  0.158779E-01  0.137207E-01  0.121843E-01  0.112007E-01
  0.107214E-01  0.107214E-01  0.112007E-01  0.121843E-01  0.137207E-01  0.158779E-01
  0.187397E-01  0.223969E-01  0.269134E-01  0.322616E-01  0.382473E-01  0.444460E-01
  0.501780E-01  0.546239E-01  0.571817E-01  0.578827E-01  0.574207E-01  0.566720E-01
  0.562020E-01  0.562020E-01  0.566720E-01  0.574207E-01  0.578827E-01  0.571817E-01
  0.546239E-01  0.501780E-01  0.491959E-01  0.431624E-01  0.369588E-01  0.311738E-01
  0.261325E-01  0.219505E-01  0.186088E-01  0.160287E-01  0.141237E-01  0.128204E-01
  0.120622E-01  0.118135E-01  0.120622E-01  0.128204E-01  0.141237E-01  0.160287E-01
  0.186088E-01  0.219505E-01  0.261325E-01  0.311738E-01  0.369588E-01  0.431624E-01
  0.491959E-01  0.542387E-01  0.574956E-01  0.586632E-01  0.582153E-01  0.571157E-01
  0.562020E-01  0.558693E-01  0.562020E-01  0.571157E-01  0.582153E-01  0.586632E-01
  0.574956E-01  0.542387E-01  0.491959E-01  0.474742E-01  0.413227E-01  0.353088E-01
  0.298843E-01  0.252629E-01  0.214873E-01  0.185063E-01  0.162395E-01  0.146117E-01
  0.135625E-01  0.130488E-01  0.130488E-01  0.135625E-01  0.146117E-01  0.162395E-01
  0.185063E-01  0.214873E-01  0.252629E-01  0.298843E-01  0.353088E-01  0.413227E-01
  0.474742E-01  0.530477E-01  0.571888E-01  0.592793E-01  0.593806E-01  0.582775E-01
  0.569845E-01  0.562020E-01  0.562020E-01  0.569845E-01  0.582775E-01  0.593806E-01
  0.592793E-01  0.571888E-01  0.530477E-01  0.474742E-01  0.450023E-01  0.390057E-01
  0.333951E-01  0.284765E-01  0.243623E-01  0.210414E-01  0.184499E-01  0.165171E-01
  0.151827E-01  0.144009E-01  0.141434E-01  0.144009E-01  0.151827E-01  0.165171E-01
  0.184499E-01  0.210414E-01  0.243623E-01  0.284765E-01  0.333951E-01  0.390057E-01
  0.450023E-01  0.508366E-01  0.557440E-01  0.589576E-01  0.601203E-01  0.595902E-01
  0.582775E-01  0.571157E-01  0.566720E-01  0.571157E-01  0.582775E-01  0.595902E-01
  0.601203E-01  0.589576E-01  0.557440E-01  0.508366E-01  0.450023E-01  0.419419E-01
  0.363776E-01  0.313514E-01  0.270414E-01  0.234837E-01  0.206397E-01  0.184499E-01
  0.168595E-01  0.158243E-01  0.153142E-01  0.153142E-01  0.158243E-01  0.168595E-01
  0.184499E-01  0.206397E-01  0.234837E-01  0.270414E-01  0.313514E-01  0.363776E-01
  0.419419E-01  0.476698E-01  0.529720E-01  0.571273E-01  0.595447E-01  0.601203E-01
  0.593806E-01  0.582153E-01  0.574207E-01  0.574207E-01  0.582153E-01  0.593806E-01
  0.601203E-01  0.595447E-01  0.571273E-01  0.529720E-01  0.476698E-01  0.419419E-01
  0.385542E-01  0.336372E-01  0.293104E-01  0.256559E-01  0.226657E-01  0.202975E-01
  0.185063E-01  0.172542E-01  0.165133E-01  0.162680E-01  0.165133E-01  0.172542E-01
  0.185063E-01  0.202975E-01  0.226657E-01  0.256559E-01  0.293104E-01  0.336372E-01
  0.385542E-01  0.438342E-01  0.490722E-01  0.537038E-01  0.571273E-01  0.589576E-01
  0.592793E-01  0.586632E-01  0.578827E-01  0.575480E-01  0.578827E-01  0.586632E-01
  0.592793E-01  0.589576E-01  0.571273E-01  0.537038E-01  0.490722E-01  0.438342E-01
  0.385542E-01  0.351117E-01  0.309628E-01  0.273750E-01  0.243716E-01  0.219301E-01
  0.200186E-01  0.186088E-01  0.176791E-01  0.172165E-01  0.172165E-01  0.176791E-01
  0.186088E-01  0.200186E-01  0.219301E-01  0.243716E-01  0.273750E-01  0.309628E-01
  0.351117E-01  0.397039E-01  0.444881E-01  0.490722E-01  0.529720E-01  0.557440E-01
  0.571888E-01  0.574956E-01  0.571817E-01  0.568364E-01  0.568364E-01  0.571817E-01
  0.574956E-01  0.571888E-01  0.557440E-01  0.529720E-01  0.490722E-01  0.444881E-01
  0.397039E-01  0.351117E-01  0.318344E-01  0.284806E-01  0.256084E-01  0.232158E-01
  0.212845E-01  0.197969E-01  0.187397E-01  0.181058E-01  0.178943E-01  0.181058E-01
  0.187397E-01  0.197969E-01  0.212845E-01  0.232158E-01  0.256084E-01  0.284806E-01
  0.318344E-01  0.356215E-01  0.397039E-01  0.438342E-01  0.476698E-01  0.508366E-01
  0.530477E-01  0.542387E-01  0.546239E-01  0.546014E-01  0.545438E-01  0.546014E-01
  0.546239E-01  0.542387E-01  0.530477E-01  0.508366E-01  0.476698E-01  0.438342E-01
  0.397039E-01  0.356215E-01  0.318344E-01  0.288622E-01  0.262592E-01  0.240400E-01
  0.221988E-01  0.207273E-01  0.196203E-01  0.188777E-01  0.185039E-01  0.185039E-01
  0.188777E-01  0.196203E-01  0.207273E-01  0.221988E-01  0.240400E-01  0.262592E-01
  0.288622E-01  0.318344E-01  0.351117E-01  0.385542E-01  0.419419E-01  0.450023E-01
  0.474742E-01  0.491959E-01  0.501780E-01  0.506023E-01  0.507239E-01  0.507239E-01
  0.506023E-01  0.501780E-01  0.491959E-01  0.474742E-01  0.450023E-01  0.419419E-01
  0.385542E-01  0.351117E-01  0.318344E-01  0.288622E-01  0.316852E-01  0.293520E-01
  0.273512E-01  0.256847E-01  0.243589E-01  0.233881E-01  0.227923E-01  0.225910E-01
  0.227923E-01  0.233881E-01  0.243589E-01  0.256847E-01  0.273512E-01  0.293520E-01
  0.316852E-01  0.343394E-01  0.372637E-01  0.403349E-01  0.433411E-01  0.459997E-01
  0.480180E-01  0.491959E-01  0.495387E-01  0.493009E-01  0.488983E-01  0.487128E-01
  0.488983E-01  0.493009E-01  0.495387E-01  0.491959E-01  0.480180E-01  0.459997E-01
  0.433411E-01  0.403349E-01  0.372637E-01  0.343394E-01  0.316852E-01  0.293520E-01
  0.276727E-01  0.262302E-01  0.250321E-01  0.240952E-01  0.234453E-01  0.231108E-01
  0.231108E-01  0.234453E-01  0.240952E-01  0.250321E-01  0.262302E-01  0.276727E-01
  0.293520E-01  0.312640E-01  0.333917E-01  0.356826E-01  0.380281E-01  0.402604E-01
  0.421785E-01  0.436027E-01  0.444460E-01  0.447669E-01  0.447609E-01  0.446735E-01
  0.446735E-01  0.447609E-01  0.447669E-01  0.444460E-01  0.436027E-01  0.421785E-01
  0.402604E-01  0.380281E-01  0.356826E-01  0.333917E-01  0.312640E-01  0.293520E-01
  0.273512E-01  0.262302E-01  0.252633E-01  0.244631E-01  0.238546E-01  0.234704E-01
  0.233385E-01  0.234704E-01  0.238546E-01  0.244631E-01  0.252633E-01  0.262302E-01
  0.273512E-01  0.286236E-01  0.300442E-01  0.315966E-01  0.332346E-01  0.348735E-01
  0.363931E-01  0.376638E-01  0.385879E-01  0.391413E-01  0.393886E-01  0.394547E-01
  0.394602E-01  0.394547E-01  0.393886E-01  0.391413E-01  0.385879E-01  0.376638E-01
  0.363931E-01  0.348735E-01  0.332346E-01  0.315966E-01  0.300442E-01  0.286236E-01
  0.273512E-01  0.256847E-01  0.250321E-01  0.244631E-01  0.239940E-01  0.236534E-01
  0.234730E-01  0.234730E-01  0.236534E-01  0.239940E-01  0.244631E-01  0.250321E-01
  0.256847E-01  0.264192E-01  0.272404E-01  0.281497E-01  0.291346E-01  0.301609E-01
  0.311693E-01  0.320820E-01  0.328235E-01  0.333482E-01  0.336592E-01  0.338058E-01
  0.338554E-01  0.338554E-01  0.338058E-01  0.336592E-01  0.333482E-01  0.328235E-01
  0.320820E-01  0.311693E-01  0.301609E-01  0.291346E-01  0.281497E-01  0.272404E-01
  0.264192E-01  0.256847E-01  0.243589E-01  0.240952E-01  0.238546E-01  0.236534E-01
  0.235171E-01  0.234687E-01  0.235171E-01  0.236534E-01  0.238546E-01  0.240952E-01
  0.243589E-01  0.246455E-01  0.249665E-01  0.253356E-01  0.257596E-01  0.262324E-01
  0.267323E-01  0.272219E-01  0.276556E-01  0.279945E-01  0.282213E-01  0.283469E-01
  0.284014E-01  0.284154E-01  0.284014E-01  0.283469E-01  0.282213E-01  0.279945E-01
  0.276556E-01  0.272219E-01  0.267323E-01  0.262324E-01  0.257596E-01  0.253356E-01
  0.249665E-01  0.246455E-01  0.243589E-01  0.233881E-01  0.234453E-01  0.234704E-01
  0.234730E-01  0.234687E-01  0.234687E-01  0.234730E-01  0.234704E-01  0.234453E-01
  0.233881E-01  0.233027E-01  0.232066E-01  0.231241E-01  0.230769E-01  0.230769E-01
  0.231241E-01  0.232066E-01  0.233027E-01  0.233881E-01  0.234453E-01  0.234704E-01
  0.234730E-01  0.234687E-01  0.234687E-01  0.234730E-01  0.234704E-01  0.234453E-01
  0.233881E-01  0.233027E-01  0.232066E-01  0.231241E-01  0.230769E-01  0.230769E-01
  0.231241E-01  0.232066E-01  0.233027E-01  0.233881E-01  0.227923E-01  0.231108E-01
  0.233385E-01  0.234730E-01  0.235171E-01  0.234730E-01  0.233385E-01  0.231108E-01
  0.227923E-01  0.223969E-01  0.219505E-01  0.214873E-01  0.210414E-01  0.206397E-01
  0.202975E-01  0.200186E-01  0.197969E-01  0.196203E-01  0.194764E-01  0.193578E-01
  0.192653E-01  0.192051E-01  0.191841E-01  0.192051E-01  0.192653E-01  0.193578E-01
  0.194764E-01  0.196203E-01  0.197969E-01  0.200186E-01  0.202975E-01  0.206397E-01
  0.210414E-01  0.214873E-01  0.219505E-01  0.223969E-01  0.227923E-01  0.225910E-01
  0.231108E-01  0.234704E-01  0.236534E-01  0.236534E-01  0.234704E-01  0.231108E-01
  0.225910E-01  0.219393E-01  0.211953E-01  0.204050E-01  0.196148E-01  0.188646E-01
  0.181833E-01  0.175865E-01  0.170787E-01  0.166561E-01  0.163108E-01  0.160351E-01
  0.158257E-01  0.156834E-01  0.156112E-01  0.156112E-01  0.156834E-01  0.158257E-01
  0.160351E-01  0.163108E-01  0.166561E-01  0.170787E-01  0.175865E-01  0.181833E-01
  0.188646E-01  0.196148E-01  0.204050E-01  0.211953E-01  0.219393E-01  0.225910E-01
  0.227923E-01  0.234453E-01  0.238546E-01  0.239940E-01  0.238546E-01  0.234453E-01
  0.227923E-01  0.219393E-01  0.209429E-01  0.198659E-01  0.187694E-01  0.177071E-01
  0.167202E-01  0.158354E-01  0.150659E-01  0.144142E-01  0.138755E-01  0.134424E-01
  0.131083E-01  0.128701E-01  0.127270E-01  0.126793E-01  0.127270E-01  0.128701E-01
  0.131083E-01  0.134424E-01  0.138755E-01  0.144142E-01  0.150659E-01  0.158354E-01
  0.167202E-01  0.177071E-01  0.187694E-01  0.198659E-01  0.209429E-01  0.219393E-01
  0.227923E-01  0.233881E-01  0.240952E-01  0.244631E-01  0.244631E-01  0.240952E-01
  0.233881E-01  0.223969E-01  0.211953E-01  0.198659E-01  0.184892E-01  0.171361E-01
  0.158619E-01  0.147047E-01  0.136859E-01  0.128134E-01  0.120855E-01  0.114946E-01
  0.110318E-01  0.106897E-01  0.104639E-01  0.103518E-01  0.103518E-01  0.104639E-01
  0.106897E-01  0.110318E-01  0.114946E-01  0.120855E-01  0.128134E-01  0.136859E-01
  0.147047E-01  0.158619E-01  0.171361E-01  0.184892E-01  0.198659E-01  0.211953E-01
  0.223969E-01  0.233881E-01  0.243589E-01  0.250321E-01  0.252633E-01  0.250321E-01
  0.243589E-01  0.233027E-01  0.219505E-01  0.204050E-01  0.187694E-01  0.171361E-01
  0.155792E-01  0.141508E-01  0.128822E-01  0.117870E-01  0.108663E-01  0.101126E-01
  0.951463E-02  0.906127E-02  0.874378E-02  0.855595E-02  0.849382E-02  0.855595E-02
  0.874378E-02  0.906127E-02  0.951463E-02  0.101126E-01  0.108663E-01  0.117870E-01
  0.128822E-01  0.141508E-01  0.155792E-01  0.171361E-01  0.187694E-01  0.204050E-01
  0.219505E-01  0.233027E-01  0.243589E-01  0.256847E-01  0.262302E-01  0.262302E-01
  0.256847E-01  0.246455E-01  0.232066E-01  0.214873E-01  0.196148E-01  0.177071E-01
  0.158619E-01  0.141508E-01  0.126185E-01  0.112867E-01  0.101599E-01  0.923096E-02
  0.848651E-02  0.791169E-02  0.749313E-02  0.722027E-02  0.708578E-02  0.708578E-02
  0.722027E-02  0.749313E-02  0.791169E-02  0.848651E-02  0.923096E-02  0.101599E-01
  0.112867E-01  0.126185E-01  0.141508E-01  0.158619E-01  0.177071E-01  0.196148E-01
  0.214873E-01  0.232066E-01  0.246455E-01  0.256847E-01  0.273512E-01  0.276727E-01
  0.273512E-01  0.264192E-01  0.249665E-01  0.231241E-01  0.210414E-01  0.188646E-01
  0.167202E-01  0.147047E-01  0.128822E-01  0.112867E-01  0.992880E-02  0.880241E-02
  0.789249E-02  0.718048E-02  0.664819E-02  0.627995E-02  0.606393E-02  0.599274E-02
  0.606393E-02  0.627995E-02  0.664819E-02  0.718048E-02  0.789249E-02  0.880241E-02
  0.992880E-02  0.112867E-01  0.128822E-01  0.147047E-01  0.167202E-01  0.188646E-01
  0.210414E-01  0.231241E-01  0.249665E-01  0.264192E-01  0.273512E-01  0.293520E-01
  0.293520E-01  0.286236E-01  0.272404E-01  0.253356E-01  0.230769E-01  0.206397E-01
  0.181833E-01  0.158354E-01  0.136859E-01  0.117870E-01  0.101599E-01  0.880241E-02
  0.769828E-02  0.682529E-02  0.616030E-02  0.568215E-02  0.537354E-02  0.522231E-02
  0.522231E-02  0.537354E-02  0.568215E-02  0.616030E-02  0.682529E-02  0.769828E-02
  0.880241E-02  0.101599E-01  0.117870E-01  0.136859E-01  0.158354E-01  0.181833E-01
  0.206397E-01  0.230769E-01  0.253356E-01  0.272404E-01  0.286236E-01  0.293520E-01
  0.316852E-01  0.312640E-01  0.300442E-01  0.281497E-01  0.257596E-01  0.230769E-01
  0.202975E-01  0.175865E-01  0.150659E-01  0.128134E-01  0.108663E-01  0.923096E-02
  0.789249E-02  0.682529E-02  0.600070E-02  0.539155E-02  0.497451E-02  0.473173E-02
  0.465206E-02  0.473173E-02  0.497451E-02  0.539155E-02  0.600070E-02  0.682529E-02
  0.789249E-02  0.923096E-02  0.108663E-01  0.128134E-01  0.150659E-01  0.175865E-01
  0.202975E-01  0.230769E-01  0.257596E-01  0.281497E-01  0.300442E-01  0.312640E-01
  0.316852E-01  0.343394E-01  0.333917E-01  0.315966E-01  0.291346E-01  0.262324E-01
  0.231241E-01  0.200186E-01  0.170787E-01  0.144142E-01  0.120855E-01  0.101126E-01
  0.848651E-02  0.718048E-02  0.616030E-02  0.539155E-02  0.484389E-02  0.449309E-02
  0.432210E-02  0.432210E-02  0.449309E-02  0.484389E-02  0.539155E-02  0.616030E-02
  0.718048E-02  0.848651E-02  0.101126E-01  0.120855E-01  0.144142E-01  0.170787E-01
  0.200186E-01  0.231241E-01  0.262324E-01  0.291346E-01  0.315966E-01  0.333917E-01
  0.343394E-01  0.343394E-01  0.372637E-01  0.356826E-01  0.332346E-01  0.301609E-01
  0.267323E-01  0.232066E-01  0.197969E-01  0.166561E-01  0.138755E-01  0.114946E-01
  0.951463E-02  0.791169E-02  0.664819E-02  0.568215E-02  0.497451E-02  0.449309E-02
  0.421413E-02  0.412284E-02  0.421413E-02  0.449309E-02  0.497451E-02  0.568215E-02
  0.664819E-02  0.791169E-02  0.951463E-02  0.114946E-01  0.138755E-01  0.166561E-01
  0.197969E-01  0.232066E-01  0.267323E-01  0.301609E-01  0.332346E-01  0.356826E-01
  0.372637E-01  0.378107E-01  0.372637E-01  0.403349E-01  0.380281E-01  0.348735E-01
  0.311693E-01  0.272219E-01  0.233027E-01  0.196203E-01  0.163108E-01  0.134424E-01
  0.110318E-01  0.906127E-02  0.749313E-02  0.627995E-02  0.537354E-02  0.473173E-02
  0.432210E-02  0.412284E-02  0.412284E-02  0.432210E-02  0.473173E-02  0.537354E-02
  0.627995E-02  0.749313E-02  0.906127E-02  0.110318E-01  0.134424E-01  0.163108E-01
  0.196203E-01  0.233027E-01  0.272219E-01  0.311693E-01  0.348735E-01  0.380281E-01
  0.403349E-01  0.415549E-01  0.415549E-01  0.403349E-01  0.433411E-01  0.402604E-01
  0.363931E-01  0.320820E-01  0.276556E-01  0.233881E-01  0.194764E-01  0.160351E-01
  0.131083E-01  0.106897E-01  0.874378E-02  0.722027E-02  0.606393E-02  0.522231E-02
  0.465206E-02  0.432210E-02  0.421413E-02  0.432210E-02  0.465206E-02  0.522231E-02
  0.606393E-02  0.722027E-02  0.874378E-02  0.106897E-01  0.131083E-01  0.160351E-01
  0.194764E-01  0.233881E-01  0.276556E-01  0.320820E-01  0.363931E-01  0.402604E-01
  0.433411E-01  0.453310E-01  0.460194E-01  0.453310E-01  0.433411E-01  0.459997E-01
  0.421785E-01  0.376638E-01  0.328235E-01  0.279945E-01  0.234453E-01  0.193578E-01
  0.158257E-01  0.128701E-01  0.104639E-01  0.855595E-02  0.708578E-02  0.599274E-02
  0.522231E-02  0.473173E-02  0.449309E-02  0.449309E-02  0.473173E-02  0.522231E-02
  0.599274E-02  0.708578E-02  0.855595E-02  0.104639E-01  0.128701E-01  0.158257E-01
  0.193578E-01  0.234453E-01  0.279945E-01  0.328235E-01  0.376638E-01  0.421785E-01
  0.459997E-01  0.487790E-01  0.502435E-01  0.502435E-01  0.487790E-01  0.459997E-01
  0.480180E-01  0.436027E-01  0.385879E-01  0.333482E-01  0.282213E-01  0.234704E-01
  0.192653E-01  0.156834E-01  0.127270E-01  0.103518E-01  0.849382E-02  0.708578E-02
  0.606393E-02  0.537354E-02  0.497451E-02  0.484389E-02  0.497451E-02  0.537354E-02
  0.606393E-02  0.708578E-02  0.849382E-02  0.103518E-01  0.127270E-01  0.156834E-01
  0.192653E-01  0.234704E-01  0.282213E-01  0.333482E-01  0.385879E-01  0.436027E-01
  0.480180E-01  0.514730E-01  0.536732E-01  0.544285E-01  0.536732E-01  0.514730E-01
  0.480180E-01  0.491959E-01  0.444460E-01  0.391413E-01  0.336592E-01  0.283469E-01
  0.234730E-01  0.192051E-01  0.156112E-01  0.126793E-01  0.103518E-01  0.855595E-02
  0.722027E-02  0.627995E-02  0.568215E-02  0.539155E-02  0.539155E-02  0.568215E-02
  0.627995E-02  0.722027E-02  0.855595E-02  0.103518E-01  0.126793E-01  0.156112E-01
  0.192051E-01  0.234730E-01  0.283469E-01  0.336592E-01  0.391413E-01  0.444460E-01
  0.491959E-01  0.530477E-01  0.557440E-01  0.571273E-01  0.571273E-01  0.557440E-01
  0.530477E-01  0.491959E-01  0.495387E-01  0.447669E-01  0.393886E-01  0.338058E-01
  0.284014E-01  0.234687E-01  0.191841E-01  0.156112E-01  0.127270E-01  0.104639E-01
  0.874378E-02  0.749313E-02  0.664819E-02  0.616030E-02  0.600070E-02  0.616030E-02
  0.664819E-02  0.749313E-02  0.874378E-02  0.104639E-01  0.127270E-01  0.156112E-01
  0.191841E-01  0.234687E-01  0.284014E-01  0.338058E-01  0.393886E-01  0.447669E-01
  0.495387E-01  0.533843E-01  0.561363E-01  0.577649E-01  0.583013E-01  0.577649E-01
  0.561363E-01  0.533843E-01  0.495387E-01  0.493009E-01  0.447609E-01  0.394547E-01
  0.338554E-01  0.284154E-01  0.234687E-01  0.192051E-01  0.156834E-01  0.128701E-01
  0.106897E-01  0.906127E-02  0.791169E-02  0.718048E-02  0.682529E-02  0.682529E-02
  0.718048E-02  0.791169E-02  0.906127E-02  0.106897E-01  0.128701E-01  0.156834E-01
  0.192051E-01  0.234687E-01  0.284154E-01  0.338554E-01  0.394547E-01  0.447609E-01
  0.493009E-01  0.527459E-01  0.550369E-01  0.563490E-01  0.569264E-01  0.569264E-01
  0.563490E-01  0.550369E-01  0.527459E-01  0.493009E-01  0.488983E-01  0.446735E-01
  0.394602E-01  0.338554E-01  0.284014E-01  0.234730E-01  0.192653E-01  0.158257E-01
  0.131083E-01  0.110318E-01  0.951463E-02  0.848651E-02  0.789249E-02  0.769828E-02
  0.789249E-02  0.848651E-02  0.951463E-02  0.110318E-01  0.131083E-01  0.158257E-01
  0.192653E-01  0.234730E-01  0.284014E-01  0.338554E-01  0.394602E-01  0.446735E-01
  0.488983E-01  0.517269E-01  0.531711E-01  0.536415E-01  0.536700E-01  0.536367E-01
  0.536700E-01  0.536415E-01  0.531711E-01  0.517269E-01  0.488983E-01  0.487128E-01
  0.446735E-01  0.394547E-01  0.338058E-01  0.283469E-01  0.234704E-01  0.193578E-01
  0.160351E-01  0.134424E-01  0.114946E-01  0.101126E-01  0.923096E-02  0.880241E-02
  0.880241E-02  0.923096E-02  0.101126E-01  0.114946E-01  0.134424E-01  0.160351E-01
  0.193578E-01  0.234704E-01  0.283469E-01  0.338058E-01  0.394547E-01  0.446735E-01
  0.487128E-01  0.509991E-01  0.515141E-01  0.508663E-01  0.499110E-01  0.492912E-01
  0.492912E-01  0.499110E-01  0.508663E-01  0.515141E-01  0.509991E-01  0.487128E-01
  0.488983E-01  0.447609E-01  0.393886E-01  0.336592E-01  0.282213E-01  0.234453E-01
  0.194764E-01  0.163108E-01  0.138755E-01  0.120855E-01  0.108663E-01  0.101599E-01
  0.992880E-02  0.101599E-01  0.108663E-01  0.120855E-01  0.138755E-01  0.163108E-01
  0.194764E-01  0.234453E-01  0.282213E-01  0.336592E-01  0.393886E-01  0.447609E-01
  0.488983E-01  0.509991E-01  0.508616E-01  0.491591E-01  0.470574E-01  0.455148E-01
  0.449698E-01  0.455148E-01  0.470574E-01  0.491591E-01  0.508616E-01  0.509991E-01
  0.488983E-01  0.493009E-01  0.447669E-01  0.391413E-01  0.333482E-01  0.279945E-01
  0.233881E-01  0.196203E-01  0.166561E-01  0.144142E-01  0.128134E-01  0.117870E-01
  0.112867E-01  0.112867E-01  0.117870E-01  0.128134E-01  0.144142E-01  0.166561E-01
  0.196203E-01  0.233881E-01  0.279945E-01  0.333482E-01  0.391413E-01  0.447669E-01
  0.493009E-01  0.517269E-01  0.515141E-01  0.491591E-01  0.460107E-01  0.434075E-01
  0.420342E-01  0.420342E-01  0.434075E-01  0.460107E-01  0.491591E-01  0.515141E-01
  0.517269E-01  0.493009E-01  0.495387E-01  0.444460E-01  0.385879E-01  0.328235E-01
  0.276556E-01  0.233027E-01  0.197969E-01  0.170787E-01  0.150659E-01  0.136859E-01
  0.128822E-01  0.126185E-01  0.128822E-01  0.136859E-01  0.150659E-01  0.170787E-01
  0.197969E-01  0.233027E-01  0.276556E-01  0.328235E-01  0.385879E-01  0.444460E-01
  0.495387E-01  0.527459E-01  0.531711E-01  0.508663E-01  0.470574E-01  0.434075E-01
  0.410251E-01  0.402303E-01  0.410251E-01  0.434075E-01  0.470574E-01  0.508663E-01
  0.531711E-01  0.527459E-01  0.495387E-01  0.491959E-01  0.436027E-01  0.376638E-01
  0.320820E-01  0.272219E-01  0.232066E-01  0.200186E-01  0.175865E-01  0.158354E-01
  0.147047E-01  0.141508E-01  0.141508E-01  0.147047E-01  0.158354E-01  0.175865E-01
  0.200186E-01  0.232066E-01  0.272219E-01  0.320820E-01  0.376638E-01  0.436027E-01
  0.491959E-01  0.533843E-01  0.550369E-01  0.536415E-01  0.499110E-01  0.455148E-01
  0.420342E-01  0.402303E-01  0.402303E-01  0.420342E-01  0.455148E-01  0.499110E-01
  0.536415E-01  0.550369E-01  0.533843E-01  0.491959E-01  0.480180E-01  0.421785E-01
  0.363931E-01  0.311693E-01  0.267323E-01  0.231241E-01  0.202975E-01  0.181833E-01
  0.167202E-01  0.158619E-01  0.155792E-01  0.158619E-01  0.167202E-01  0.181833E-01
  0.202975E-01  0.231241E-01  0.267323E-01  0.311693E-01  0.363931E-01  0.421785E-01
  0.480180E-01  0.530477E-01  0.561363E-01  0.563490E-01  0.536700E-01  0.492912E-01
  0.449698E-01  0.420342E-01  0.410251E-01  0.420342E-01  0.449698E-01  0.492912E-01
  0.536700E-01  0.563490E-01  0.561363E-01  0.530477E-01  0.480180E-01  0.459997E-01
  0.402604E-01  0.348735E-01  0.301609E-01  0.262324E-01  0.230769E-01  0.206397E-01
  0.188646E-01  0.177071E-01  0.171361E-01  0.171361E-01  0.177071E-01  0.188646E-01
  0.206397E-01  0.230769E-01  0.262324E-01  0.301609E-01  0.348735E-01  0.402604E-01
  0.459997E-01  0.514730E-01  0.557440E-01  0.577649E-01  0.569264E-01  0.536367E-01
  0.492912E-01  0.455148E-01  0.434075E-01  0.434075E-01  0.455148E-01  0.492912E-01
  0.536367E-01  0.569264E-01  0.577649E-01  0.557440E-01  0.514730E-01  0.459997E-01
  0.433411E-01  0.380281E-01  0.332346E-01  0.291346E-01  0.257596E-01  0.230769E-01
  0.210414E-01  0.196148E-01  0.187694E-01  0.184892E-01  0.187694E-01  0.196148E-01
  0.210414E-01  0.230769E-01  0.257596E-01  0.291346E-01  0.332346E-01  0.380281E-01
  0.433411E-01  0.487790E-01  0.536732E-01  0.571273E-01  0.583013E-01  0.569264E-01
  0.536700E-01  0.499110E-01  0.470574E-01  0.460107E-01  0.470574E-01  0.499110E-01
  0.536700E-01  0.569264E-01  0.583013E-01  0.571273E-01  0.536732E-01  0.487790E-01
  0.433411E-01  0.403349E-01  0.356826E-01  0.315966E-01  0.281497E-01  0.253356E-01
  0.231241E-01  0.214873E-01  0.204050E-01  0.198659E-01  0.198659E-01  0.204050E-01
  0.214873E-01  0.231241E-01  0.253356E-01  0.281497E-01  0.315966E-01  0.356826E-01
  0.403349E-01  0.453310E-01  0.502435E-01  0.544285E-01  0.571273E-01  0.577649E-01
  0.563490E-01  0.536415E-01  0.508663E-01  0.491591E-01  0.491591E-01  0.508663E-01
  0.536415E-01  0.563490E-01  0.577649E-01  0.571273E-01  0.544285E-01  0.502435E-01
  0.453310E-01  0.403349E-01  0.372637E-01  0.333917E-01  0.300442E-01  0.272404E-01
  0.249665E-01  0.232066E-01  0.219505E-01  0.211953E-01  0.209429E-01  0.211953E-01
  0.219505E-01  0.232066E-01  0.249665E-01  0.272404E-01  0.300442E-01  0.333917E-01
  0.372637E-01  0.415549E-01  0.460194E-01  0.502435E-01  0.536732E-01  0.557440E-01
  0.561363E-01  0.550369E-01  0.531711E-01  0.515141E-01  0.508616E-01  0.515141E-01
  0.531711E-01  0.550369E-01  0.561363E-01  0.557440E-01  0.536732E-01  0.502435E-01
  0.460194E-01  0.415549E-01  0.372637E-01  0.343394E-01  0.312640E-01  0.286236E-01
  0.264192E-01  0.246455E-01  0.233027E-01  0.223969E-01  0.219393E-01  0.219393E-01
  0.223969E-01  0.233027E-01  0.246455E-01  0.264192E-01  0.286236E-01  0.312640E-01
  0.343394E-01  0.378107E-01  0.415549E-01  0.453310E-01  0.487790E-01  0.514730E-01
  0.530477E-01  0.533843E-01  0.527459E-01  0.517269E-01  0.509991E-01  0.509991E-01
  0.517269E-01  0.527459E-01  0.533843E-01  0.530477E-01  0.514730E-01  0.487790E-01
  0.453310E-01  0.415549E-01  0.378107E-01  0.343394E-01  0.316852E-01  0.293520E-01
  0.273512E-01  0.256847E-01  0.243589E-01  0.233881E-01  0.227923E-01  0.225910E-01
  0.227923E-01  0.233881E-01  0.243589E-01  0.256847E-01  0.273512E-01  0.293520E-01
  0.316852E-01  0.343394E-01  0.372637E-01  0.403349E-01  0.433411E-01  0.459997E-01
  0.480180E-01  0.491959E-01  0.495387E-01  0.493009E-01  0.488983E-01  0.487128E-01
  0.488983E-01  0.493009E-01  0.495387E-01  0.491959E-01  0.480180E-01  0.459997E-01
  0.433411E-01  0.403349E-01  0.372637E-01  0.343394E-01  0.316852E-01  0.353829E-01
  0.333289E-01  0.315413E-01  0.300334E-01  0.288360E-01  0.279945E-01  0.275575E-01
  0.275575E-01  0.279945E-01  0.288360E-01  0.300334E-01  0.315413E-01  0.333289E-01
  0.353829E-01  0.376963E-01  0.402392E-01  0.429191E-01  0.455524E-01  0.478670E-01
  0.495484E-01  0.503393E-01  0.501780E-01  0.493009E-01  0.482099E-01  0.474762E-01
  0.474762E-01  0.482099E-01  0.493009E-01  0.501780E-01  0.503393E-01  0.495484E-01
  0.478670E-01  0.455524E-01  0.429191E-01  0.402392E-01  0.376963E-01  0.353829E-01
  0.333289E-01  0.319068E-01  0.306499E-01  0.295832E-01  0.287539E-01  0.282213E-01
  0.280370E-01  0.282213E-01  0.287539E-01  0.295832E-01  0.306499E-01  0.319068E-01
  0.333289E-01  0.349104E-01  0.366480E-01  0.385143E-01  0.404300E-01  0.422523E-01
  0.437894E-01  0.448480E-01  0.453100E-01  0.452097E-01  0.447609E-01  0.442905E-01
  0.440942E-01  0.442905E-01  0.447609E-01  0.452097E-01  0.453100E-01  0.448480E-01
  0.437894E-01  0.422523E-01  0.404300E-01  0.385143E-01  0.366480E-01  0.349104E-01
  0.333289E-01  0.315413E-01  0.306499E-01  0.298390E-01  0.291449E-01  0.286265E-01
  0.283469E-01  0.283469E-01  0.286265E-01  0.291449E-01  0.298390E-01  0.306499E-01
  0.315413E-01  0.325035E-01  0.335432E-01  0.346643E-01  0.358470E-01  0.370331E-01
  0.381241E-01  0.389997E-01  0.395568E-01  0.397597E-01  0.396739E-01  0.394547E-01
  0.392841E-01  0.392841E-01  0.394547E-01  0.396739E-01  0.397597E-01  0.395568E-01
  0.389997E-01  0.381241E-01  0.370331E-01  0.358470E-01  0.346643E-01  0.335432E-01
  0.325035E-01  0.315413E-01  0.300334E-01  0.295832E-01  0.291449E-01  0.287624E-01
  0.284969E-01  0.284014E-01  0.284969E-01  0.287624E-01  0.291449E-01  0.295832E-01
  0.300334E-01  0.304811E-01  0.309374E-01  0.314224E-01  0.319478E-01  0.325040E-01
  0.330549E-01  0.335413E-01  0.338965E-01  0.340757E-01  0.340824E-01  0.339771E-01
  0.338554E-01  0.338033E-01  0.338554E-01  0.339771E-01  0.340824E-01  0.340757E-01
  0.338965E-01  0.335413E-01  0.330549E-01  0.325040E-01  0.319478E-01  0.314224E-01
  0.309374E-01  0.304811E-01  0.300334E-01  0.288360E-01  0.287539E-01  0.286265E-01
  0.284969E-01  0.284154E-01  0.284154E-01  0.284969E-01  0.286265E-01  0.287539E-01
  0.288360E-01  0.288564E-01  0.288285E-01  0.287833E-01  0.287516E-01  0.287516E-01
  0.287833E-01  0.288285E-01  0.288564E-01  0.288360E-01  0.287539E-01  0.286265E-01
  0.284969E-01  0.284154E-01  0.284154E-01  0.284969E-01  0.286265E-01  0.287539E-01
  0.288360E-01  0.288564E-01  0.288285E-01  0.287833E-01  0.287516E-01  0.287516E-01
  0.287833E-01  0.288285E-01  0.288564E-01  0.288360E-01  0.279945E-01  0.282213E-01
  0.283469E-01  0.284014E-01  0.284154E-01  0.284014E-01  0.283469E-01  0.282213E-01
  0.279945E-01  0.276556E-01  0.272219E-01  0.267323E-01  0.262324E-01  0.257596E-01
  0.253356E-01  0.249665E-01  0.246455E-01  0.243589E-01  0.240952E-01  0.238546E-01
  0.236534E-01  0.235171E-01  0.234687E-01  0.235171E-01  0.236534E-01  0.238546E-01
  0.240952E-01  0.243589E-01  0.246455E-01  0.249665E-01  0.253356E-01  0.257596E-01
  0.262324E-01  0.267323E-01  0.272219E-01  0.276556E-01  0.279945E-01  0.275575E-01
  0.280370E-01  0.283469E-01  0.284969E-01  0.284969E-01  0.283469E-01  0.280370E-01
  0.275575E-01  0.269134E-01  0.261325E-01  0.252629E-01  0.243623E-01  0.234837E-01
  0.226657E-01  0.219301E-01  0.212845E-01  0.207273E-01  0.202523E-01  0.198556E-01
  0.195412E-01  0.193200E-01  0.192051E-01  0.192051E-01  0.193200E-01  0.195412E-01
  0.198556E-01  0.202523E-01  0.207273E-01  0.212845E-01  0.219301E-01  0.226657E-01
  0.234837E-01  0.243623E-01  0.252629E-01  0.261325E-01  0.269134E-01  0.275575E-01
  0.275575E-01  0.282213E-01  0.286265E-01  0.287624E-01  0.286265E-01  0.282213E-01
  0.275575E-01  0.266616E-01  0.255803E-01  0.243769E-01  0.231227E-01  0.218850E-01
  0.207170E-01  0.196536E-01  0.187131E-01  0.179012E-01  0.172157E-01  0.166517E-01
  0.162062E-01  0.158816E-01  0.156834E-01  0.156167E-01  0.156834E-01  0.158816E-01
  0.162062E-01  0.166517E-01  0.172157E-01  0.179012E-01  0.187131E-01  0.196536E-01
  0.207170E-01  0.218850E-01  0.231227E-01  0.243769E-01  0.255803E-01  0.266616E-01
  0.275575E-01  0.279945E-01  0.287539E-01  0.291449E-01  0.291449E-01  0.287539E-01
  0.279945E-01  0.269134E-01  0.255803E-01  0.240805E-01  0.225044E-01  0.209362E-01
  0.194440E-01  0.180754E-01  0.168580E-01  0.158036E-01  0.149131E-01  0.141805E-01
  0.135983E-01  0.131618E-01  0.128701E-01  0.127239E-01  0.127239E-01  0.128701E-01
  0.131618E-01  0.135983E-01  0.141805E-01  0.149131E-01  0.158036E-01  0.168580E-01
  0.180754E-01  0.194440E-01  0.209362E-01  0.225044E-01  0.240805E-01  0.255803E-01
  0.269134E-01  0.279945E-01  0.288360E-01  0.295832E-01  0.298390E-01  0.295832E-01
  0.288360E-01  0.276556E-01  0.261325E-01  0.243769E-01  0.225044E-01  0.206216E-01
  0.188156E-01  0.171487E-01  0.156585E-01  0.143630E-01  0.132659E-01  0.123607E-01
  0.116362E-01  0.110816E-01  0.106897E-01  0.104562E-01  0.103787E-01  0.104562E-01
  0.106897E-01  0.110816E-01  0.116362E-01  0.123607E-01  0.132659E-01  0.143630E-01
  0.156585E-01  0.171487E-01  0.188156E-01  0.206216E-01  0.225044E-01  0.243769E-01
  0.261325E-01  0.276556E-01  0.288360E-01  0.300334E-01  0.306499E-01  0.306499E-01
  0.300334E-01  0.288564E-01  0.272219E-01  0.252629E-01  0.231227E-01  0.209362E-01
  0.188156E-01  0.168432E-01  0.150706E-01  0.135234E-01  0.122085E-01  0.111195E-01
  0.102423E-01  0.956083E-02  0.906127E-02  0.873380E-02  0.857185E-02  0.857185E-02
  0.873380E-02  0.906127E-02  0.956083E-02  0.102423E-01  0.111195E-01  0.122085E-01
  0.135234E-01  0.150706E-01  0.168432E-01  0.188156E-01  0.209362E-01  0.231227E-01
  0.252629E-01  0.272219E-01  0.288564E-01  0.300334E-01  0.315413E-01  0.319068E-01
  0.315413E-01  0.304811E-01  0.288285E-01  0.267323E-01  0.243623E-01  0.218850E-01
  0.194440E-01  0.171487E-01  0.150706E-01  0.132479E-01  0.116928E-01  0.103998E-01
  0.935240E-02  0.852969E-02  0.791169E-02  0.748219E-02  0.722943E-02  0.714603E-02
  0.722943E-02  0.748219E-02  0.791169E-02  0.852969E-02  0.935240E-02  0.103998E-01
  0.116928E-01  0.132479E-01  0.150706E-01  0.171487E-01  0.194440E-01  0.218850E-01
  0.243623E-01  0.267323E-01  0.288285E-01  0.304811E-01  0.315413E-01  0.333289E-01
  0.333289E-01  0.325035E-01  0.309374E-01  0.287833E-01  0.262324E-01  0.234837E-01
  0.207170E-01  0.180754E-01  0.156585E-01  0.135234E-01  0.116928E-01  0.101643E-01
  0.891966E-02  0.793374E-02  0.718048E-02  0.663695E-02  0.628509E-02  0.611240E-02
  0.611240E-02  0.628509E-02  0.663695E-02  0.718048E-02  0.793374E-02  0.891966E-02
  0.101643E-01  0.116928E-01  0.135234E-01  0.156585E-01  0.180754E-01  0.207170E-01
  0.234837E-01  0.262324E-01  0.287833E-01  0.309374E-01  0.325035E-01  0.333289E-01
  0.353829E-01  0.349104E-01  0.335432E-01  0.314224E-01  0.287516E-01  0.257596E-01
  0.226657E-01  0.196536E-01  0.168580E-01  0.143630E-01  0.122085E-01  0.103998E-01
  0.891966E-02  0.773888E-02  0.682529E-02  0.614902E-02  0.568506E-02  0.541457E-02
  0.532575E-02  0.541457E-02  0.568506E-02  0.614902E-02  0.682529E-02  0.773888E-02
  0.891966E-02  0.103998E-01  0.122085E-01  0.143630E-01  0.168580E-01  0.196536E-01
  0.226657E-01  0.257596E-01  0.287516E-01  0.314224E-01  0.335432E-01  0.349104E-01
  0.353829E-01  0.376963E-01  0.366480E-01  0.346643E-01  0.319478E-01  0.287516E-01
  0.253356E-01  0.219301E-01  0.187131E-01  0.158036E-01  0.132659E-01  0.111195E-01
  0.935240E-02  0.793374E-02  0.682529E-02  0.598944E-02  0.539348E-02  0.501147E-02
  0.482520E-02  0.482520E-02  0.501147E-02  0.539348E-02  0.598944E-02  0.682529E-02
  0.793374E-02  0.935240E-02  0.111195E-01  0.132659E-01  0.158036E-01  0.187131E-01
  0.219301E-01  0.253356E-01  0.287516E-01  0.319478E-01  0.346643E-01  0.366480E-01
  0.376963E-01  0.376963E-01  0.402392E-01  0.385143E-01  0.358470E-01  0.325040E-01
  0.287833E-01  0.249665E-01  0.212845E-01  0.179012E-01  0.149131E-01  0.123607E-01
  0.102423E-01  0.852969E-02  0.718048E-02  0.614902E-02  0.539348E-02  0.487957E-02
  0.458186E-02  0.448443E-02  0.458186E-02  0.487957E-02  0.539348E-02  0.614902E-02
  0.718048E-02  0.852969E-02  0.102423E-01  0.123607E-01  0.149131E-01  0.179012E-01
  0.212845E-01  0.249665E-01  0.287833E-01  0.325040E-01  0.358470E-01  0.385143E-01
  0.402392E-01  0.408364E-01  0.402392E-01  0.429191E-01  0.404300E-01  0.370331E-01
  0.330549E-01  0.288285E-01  0.246455E-01  0.207273E-01  0.172157E-01  0.141805E-01
  0.116362E-01  0.956083E-02  0.791169E-02  0.663695E-02  0.568506E-02  0.501147E-02
  0.458186E-02  0.437297E-02  0.437297E-02  0.458186E-02  0.501147E-02  0.568506E-02
  0.663695E-02  0.791169E-02  0.956083E-02  0.116362E-01  0.141805E-01  0.172157E-01
  0.207273E-01  0.246455E-01  0.288285E-01  0.330549E-01  0.370331E-01  0.404300E-01
  0.429191E-01  0.442373E-01  0.442373E-01  0.429191E-01  0.455524E-01  0.422523E-01
  0.381241E-01  0.335413E-01  0.288564E-01  0.243589E-01  0.202523E-01  0.166517E-01
  0.135983E-01  0.110816E-01  0.906127E-02  0.748219E-02  0.628509E-02  0.541457E-02
  0.482520E-02  0.448443E-02  0.437297E-02  0.448443E-02  0.482520E-02  0.541457E-02
  0.628509E-02  0.748219E-02  0.906127E-02  0.110816E-01  0.135983E-01  0.166517E-01
  0.202523E-01  0.243589E-01  0.288564E-01  0.335413E-01  0.381241E-01  0.422523E-01
  0.455524E-01  0.476896E-01  0.484300E-01  0.476896E-01  0.455524E-01  0.478670E-01
  0.437894E-01  0.389997E-01  0.338965E-01  0.288360E-01  0.240952E-01  0.198556E-01
  0.162062E-01  0.131618E-01  0.106897E-01  0.873380E-02  0.722943E-02  0.611240E-02
  0.532575E-02  0.482520E-02  0.458186E-02  0.458186E-02  0.482520E-02  0.532575E-02
  0.611240E-02  0.722943E-02  0.873380E-02  0.106897E-01  0.131618E-01  0.162062E-01
  0.198556E-01  0.240952E-01  0.288360E-01  0.338965E-01  0.389997E-01  0.437894E-01
  0.478670E-01  0.508473E-01  0.524229E-01  0.524229E-01  0.508473E-01  0.478670E-01
  0.495484E-01  0.448480E-01  0.395568E-01  0.340757E-01  0.287539E-01  0.238546E-01
  0.195412E-01  0.158816E-01  0.128701E-01  0.104562E-01  0.857185E-02  0.714603E-02
  0.611240E-02  0.541457E-02  0.501147E-02  0.487957E-02  0.501147E-02  0.541457E-02
  0.611240E-02  0.714603E-02  0.857185E-02  0.104562E-01  0.128701E-01  0.158816E-01
  0.195412E-01  0.238546E-01  0.287539E-01  0.340757E-01  0.395568E-01  0.448480E-01
  0.495484E-01  0.532575E-01  0.556352E-01  0.564543E-01  0.556352E-01  0.532575E-01
  0.495484E-01  0.503393E-01  0.453100E-01  0.397597E-01  0.340824E-01  0.286265E-01
  0.236534E-01  0.193200E-01  0.156834E-01  0.127239E-01  0.103787E-01  0.857185E-02
  0.722943E-02  0.628509E-02  0.568506E-02  0.539348E-02  0.539348E-02  0.568506E-02
  0.628509E-02  0.722943E-02  0.857185E-02  0.103787E-01  0.127239E-01  0.156834E-01
  0.193200E-01  0.236534E-01  0.286265E-01  0.340824E-01  0.397597E-01  0.453100E-01
  0.503393E-01  0.544693E-01  0.573934E-01  0.589058E-01  0.589058E-01  0.573934E-01
  0.544693E-01  0.503393E-01  0.501780E-01  0.452097E-01  0.396739E-01  0.339771E-01
  0.284969E-01  0.235171E-01  0.192051E-01  0.156167E-01  0.127239E-01  0.104562E-01
  0.873380E-02  0.748219E-02  0.663695E-02  0.614902E-02  0.598944E-02  0.614902E-02
  0.663695E-02  0.748219E-02  0.873380E-02  0.104562E-01  0.127239E-01  0.156167E-01
  0.192051E-01  0.235171E-01  0.284969E-01  0.339771E-01  0.396739E-01  0.452097E-01
  0.501780E-01  0.542387E-01  0.571888E-01  0.589576E-01  0.595447E-01  0.589576E-01
  0.571888E-01  0.542387E-01  0.501780E-01  0.493009E-01  0.447609E-01  0.394547E-01
  0.338554E-01  0.284154E-01  0.234687E-01  0.192051E-01  0.156834E-01  0.128701E-01
  0.106897E-01  0.906127E-02  0.791169E-02  0.718048E-02  0.682529E-02  0.682529E-02
  0.718048E-02  0.791169E-02  0.906127E-02  0.106897E-01  0.128701E-01  0.156834E-01
  0.192051E-01  0.234687E-01  0.284154E-01  0.338554E-01  0.394547E-01  0.447609E-01
  0.493009E-01  0.527459E-01  0.550369E-01  0.563490E-01  0.569264E-01  0.569264E-01
  0.563490E-01  0.550369E-01  0.527459E-01  0.493009E-01  0.482099E-01  0.442905E-01
  0.392841E-01  0.338033E-01  0.284154E-01  0.235171E-01  0.193200E-01  0.158816E-01
  0.131618E-01  0.110816E-01  0.956083E-02  0.852969E-02  0.793374E-02  0.773888E-02
  0.793374E-02  0.852969E-02  0.956083E-02  0.110816E-01  0.131618E-01  0.158816E-01
  0.193200E-01  0.235171E-01  0.284154E-01  0.338033E-01  0.392841E-01  0.442905E-01
  0.482099E-01  0.506492E-01  0.516751E-01  0.517764E-01  0.515553E-01  0.514344E-01
  0.515553E-01  0.517764E-01  0.516751E-01  0.506492E-01  0.482099E-01  0.474762E-01
  0.440942E-01  0.392841E-01  0.338554E-01  0.284969E-01  0.236534E-01  0.195412E-01
  0.162062E-01  0.135983E-01  0.116362E-01  0.102423E-01  0.935240E-02  0.891966E-02
  0.891966E-02  0.935240E-02  0.102423E-01  0.116362E-01  0.135983E-01  0.162062E-01
  0.195412E-01  0.236534E-01  0.284969E-01  0.338554E-01  0.392841E-01  0.440942E-01
  0.474762E-01  0.488635E-01  0.483544E-01  0.467514E-01  0.450848E-01  0.440942E-01
  0.440942E-01  0.450848E-01  0.467514E-01  0.483544E-01  0.488635E-01  0.474762E-01
  0.474762E-01  0.442905E-01  0.394547E-01  0.339771E-01  0.286265E-01  0.238546E-01
  0.198556E-01  0.166517E-01  0.141805E-01  0.123607E-01  0.111195E-01  0.103998E-01
  0.101643E-01  0.103998E-01  0.111195E-01  0.123607E-01  0.141805E-01  0.166517E-01
  0.198556E-01  0.238546E-01  0.286265E-01  0.339771E-01  0.394547E-01  0.442905E-01
  0.474762E-01  0.481674E-01  0.463202E-01  0.429449E-01  0.395345E-01  0.372044E-01
  0.364025E-01  0.372044E-01  0.395345E-01  0.429449E-01  0.463202E-01  0.481674E-01
  0.474762E-01  0.482099E-01  0.447609E-01  0.396739E-01  0.340824E-01  0.287539E-01
  0.240952E-01  0.202523E-01  0.172157E-01  0.149131E-01  0.132659E-01  0.122085E-01
  0.116928E-01  0.116928E-01  0.122085E-01  0.132659E-01  0.149131E-01  0.172157E-01
  0.202523E-01  0.240952E-01  0.287539E-01  0.340824E-01  0.396739E-01  0.447609E-01
  0.482099E-01  0.488635E-01  0.463202E-01  0.415398E-01  0.364118E-01  0.325515E-01
  0.306089E-01  0.306089E-01  0.325515E-01  0.364118E-01  0.415398E-01  0.463202E-01
  0.488635E-01  0.482099E-01  0.493009E-01  0.452097E-01  0.397597E-01  0.340757E-01
  0.288360E-01  0.243589E-01  0.207273E-01  0.179012E-01  0.158036E-01  0.143630E-01
  0.135234E-01  0.132479E-01  0.135234E-01  0.143630E-01  0.158036E-01  0.179012E-01
  0.207273E-01  0.243589E-01  0.288360E-01  0.340757E-01  0.397597E-01  0.452097E-01
  0.493009E-01  0.506492E-01  0.483544E-01  0.429449E-01  0.364118E-01  0.309426E-01
  0.276550E-01  0.266057E-01  0.276550E-01  0.309426E-01  0.364118E-01  0.429449E-01
  0.483544E-01  0.506492E-01  0.493009E-01  0.501780E-01  0.453100E-01  0.395568E-01
  0.338965E-01  0.288564E-01  0.246455E-01  0.212845E-01  0.187131E-01  0.168580E-01
  0.156585E-01  0.150706E-01  0.150706E-01  0.156585E-01  0.168580E-01  0.187131E-01
  0.212845E-01  0.246455E-01  0.288564E-01  0.338965E-01  0.395568E-01  0.453100E-01
  0.501780E-01  0.527459E-01  0.516751E-01  0.467514E-01  0.395345E-01  0.325515E-01
  0.276550E-01  0.253163E-01  0.253163E-01  0.276550E-01  0.325515E-01  0.395345E-01
  0.467514E-01  0.516751E-01  0.527459E-01  0.501780E-01  0.503393E-01  0.448480E-01
  0.389997E-01  0.335413E-01  0.288285E-01  0.249665E-01  0.219301E-01  0.196536E-01
  0.180754E-01  0.171487E-01  0.168432E-01  0.171487E-01  0.180754E-01  0.196536E-01
  0.219301E-01  0.249665E-01  0.288285E-01  0.335413E-01  0.389997E-01  0.448480E-01
  0.503393E-01  0.542387E-01  0.550369E-01  0.517764E-01  0.450848E-01  0.372044E-01
  0.306089E-01  0.266057E-01  0.253163E-01  0.266057E-01  0.306089E-01  0.372044E-01
  0.450848E-01  0.517764E-01  0.550369E-01  0.542387E-01  0.503393E-01  0.495484E-01
  0.437894E-01  0.381241E-01  0.330549E-01  0.287833E-01  0.253356E-01  0.226657E-01
  0.207170E-01  0.194440E-01  0.188156E-01  0.188156E-01  0.194440E-01  0.207170E-01
  0.226657E-01  0.253356E-01  0.287833E-01  0.330549E-01  0.381241E-01  0.437894E-01
  0.495484E-01  0.544693E-01  0.571888E-01  0.563490E-01  0.515553E-01  0.440942E-01
  0.364025E-01  0.306089E-01  0.276550E-01  0.276550E-01  0.306089E-01  0.364025E-01
  0.440942E-01  0.515553E-01  0.563490E-01  0.571888E-01  0.544693E-01  0.495484E-01
  0.478670E-01  0.422523E-01  0.370331E-01  0.325040E-01  0.287516E-01  0.257596E-01
  0.234837E-01  0.218850E-01  0.209362E-01  0.206216E-01  0.209362E-01  0.218850E-01
  0.234837E-01  0.257596E-01  0.287516E-01  0.325040E-01  0.370331E-01  0.422523E-01
  0.478670E-01  0.532575E-01  0.573934E-01  0.589576E-01  0.569264E-01  0.514344E-01
  0.440942E-01  0.372044E-01  0.325515E-01  0.309426E-01  0.325515E-01  0.372044E-01
  0.440942E-01  0.514344E-01  0.569264E-01  0.589576E-01  0.573934E-01  0.532575E-01
  0.478670E-01  0.455524E-01  0.404300E-01  0.358470E-01  0.319478E-01  0.287516E-01
  0.262324E-01  0.243623E-01  0.231227E-01  0.225044E-01  0.225044E-01  0.231227E-01
  0.243623E-01  0.262324E-01  0.287516E-01  0.319478E-01  0.358470E-01  0.404300E-01
  0.455524E-01  0.508473E-01  0.556352E-01  0.589058E-01  0.595447E-01  0.569264E-01
  0.515553E-01  0.450848E-01  0.395345E-01  0.364118E-01  0.364118E-01  0.395345E-01
  0.450848E-01  0.515553E-01  0.569264E-01  0.595447E-01  0.589058E-01  0.556352E-01
  0.508473E-01  0.455524E-01  0.429191E-01  0.385143E-01  0.346643E-01  0.314224E-01
  0.287833E-01  0.267323E-01  0.252629E-01  0.243769E-01  0.240805E-01  0.243769E-01
  0.252629E-01  0.267323E-01  0.287833E-01  0.314224E-01  0.346643E-01  0.385143E-01
  0.429191E-01  0.476896E-01  0.524229E-01  0.564543E-01  0.589058E-01  0.589576E-01
  0.563490E-01  0.517764E-01  0.467514E-01  0.429449E-01  0.415398E-01  0.429449E-01
  0.467514E-01  0.517764E-01  0.563490E-01  0.589576E-01  0.589058E-01  0.564543E-01
  0.524229E-01  0.476896E-01  0.429191E-01  0.402392E-01  0.366480E-01  0.335432E-01
  0.309374E-01  0.288285E-01  0.272219E-01  0.261325E-01  0.255803E-01  0.255803E-01
  0.261325E-01  0.272219E-01  0.288285E-01  0.309374E-01  0.335432E-01  0.366480E-01
  0.402392E-01  0.442373E-01  0.484300E-01  0.524229E-01  0.556352E-01  0.573934E-01
  0.571888E-01  0.550369E-01  0.516751E-01  0.483544E-01  0.463202E-01  0.463202E-01
  0.483544E-01  0.516751E-01  0.550369E-01  0.571888E-01  0.573934E-01  0.556352E-01
  0.524229E-01  0.484300E-01  0.442373E-01  0.402392E-01  0.376963E-01  0.349104E-01
  0.325035E-01  0.304811E-01  0.288564E-01  0.276556E-01  0.269134E-01  0.266616E-01
  0.269134E-01  0.276556E-01  0.288564E-01  0.304811E-01  0.325035E-01  0.349104E-01
  0.376963E-01  0.408364E-01  0.442373E-01  0.476896E-01  0.508473E-01  0.532575E-01
  0.544693E-01  0.542387E-01  0.527459E-01  0.506492E-01  0.488635E-01  0.481674E-01
  0.488635E-01  0.506492E-01  0.527459E-01  0.542387E-01  0.544693E-01  0.532575E-01
  0.508473E-01  0.476896E-01  0.442373E-01  0.408364E-01  0.376963E-01  0.353829E-01
  0.333289E-01  0.315413E-01  0.300334E-01  0.288360E-01  0.279945E-01  0.275575E-01
  0.275575E-01  0.279945E-01  0.288360E-01  0.300334E-01  0.315413E-01  0.333289E-01
  0.353829E-01  0.376963E-01  0.402392E-01  0.429191E-01  0.455524E-01  0.478670E-01
  0.495484E-01  0.503393E-01  0.501780E-01  0.493009E-01  0.482099E-01  0.474762E-01
  0.474762E-01  0.482099E-01  0.493009E-01  0.501780E-01  0.503393E-01  0.495484E-01
  0.478670E-01  0.455524E-01  0.429191E-01  0.402392E-01  0.376963E-01  0.353829E-01
  0.399896E-01  0.382080E-01  0.365948E-01  0.351910E-01  0.340757E-01  0.333482E-01
  0.330943E-01  0.333482E-01  0.340757E-01  0.351910E-01  0.365948E-01  0.382080E-01
  0.399896E-01  0.419329E-01  0.440356E-01  0.462530E-01  0.484545E-01  0.504091E-01
  0.518117E-01  0.523649E-01  0.519159E-01  0.506023E-01  0.488983E-01  0.474762E-01
  0.469246E-01  0.474762E-01  0.488983E-01  0.506023E-01  0.519159E-01  0.523649E-01
  0.518117E-01  0.504091E-01  0.484545E-01  0.462530E-01  0.440356E-01  0.419329E-01
  0.399896E-01  0.382080E-01  0.370047E-01  0.358647E-01  0.348551E-01  0.340824E-01
  0.336592E-01  0.336592E-01  0.340824E-01  0.348551E-01  0.358647E-01  0.370047E-01
  0.382080E-01  0.394554E-01  0.407596E-01  0.421307E-01  0.435371E-01  0.448813E-01
  0.460015E-01  0.467080E-01  0.468528E-01  0.464178E-01  0.455769E-01  0.446735E-01
  0.440942E-01  0.440942E-01  0.446735E-01  0.455769E-01  0.464178E-01  0.468528E-01
  0.467080E-01  0.460015E-01  0.448813E-01  0.435371E-01  0.421307E-01  0.407596E-01
  0.394554E-01  0.382080E-01  0.365948E-01  0.358647E-01  0.351194E-01  0.344498E-01
  0.339771E-01  0.338058E-01  0.339771E-01  0.344498E-01  0.351194E-01  0.358647E-01
  0.365948E-01  0.372727E-01  0.379104E-01  0.385417E-01  0.391891E-01  0.398377E-01
  0.404255E-01  0.408539E-01  0.410217E-01  0.408752E-01  0.404561E-01  0.399135E-01
  0.394602E-01  0.392841E-01  0.394602E-01  0.399135E-01  0.404561E-01  0.408752E-01
  0.410217E-01  0.408539E-01  0.404255E-01  0.398377E-01  0.391891E-01  0.385417E-01
  0.379104E-01  0.372727E-01  0.365948E-01  0.351910E-01  0.348551E-01  0.344498E-01
  0.340785E-01  0.338554E-01  0.338554E-01  0.340785E-01  0.344498E-01  0.348551E-01
  0.351910E-01  0.354038E-01  0.354977E-01  0.355160E-01  0.355091E-01  0.355091E-01
  0.355160E-01  0.354977E-01  0.354038E-01  0.351910E-01  0.348551E-01  0.344498E-01
  0.340785E-01  0.338554E-01  0.338554E-01  0.340785E-01  0.344498E-01  0.348551E-01
  0.351910E-01  0.354038E-01  0.354977E-01  0.355160E-01  0.355091E-01  0.355091E-01
  0.355160E-01  0.354977E-01  0.354038E-01  0.351910E-01  0.340757E-01  0.340824E-01
  0.339771E-01  0.338554E-01  0.338033E-01  0.338554E-01  0.339771E-01  0.340824E-01
  0.340757E-01  0.338965E-01  0.335413E-01  0.330549E-01  0.325040E-01  0.319478E-01
  0.314224E-01  0.309374E-01  0.304811E-01  0.300334E-01  0.295832E-01  0.291449E-01
  0.287624E-01  0.284969E-01  0.284014E-01  0.284969E-01  0.287624E-01  0.291449E-01
  0.295832E-01  0.300334E-01  0.304811E-01  0.309374E-01  0.314224E-01  0.319478E-01
  0.325040E-01  0.330549E-01  0.335413E-01  0.338965E-01  0.340757E-01  0.333482E-01
  0.336592E-01  0.338058E-01  0.338554E-01  0.338554E-01  0.338058E-01  0.336592E-01
  0.333482E-01  0.328235E-01  0.320820E-01  0.311693E-01  0.301609E-01  0.291346E-01
  0.281497E-01  0.272404E-01  0.264192E-01  0.256847E-01  0.250321E-01  0.244631E-01
  0.239940E-01  0.236534E-01  0.234730E-01  0.234730E-01  0.236534E-01  0.239940E-01
  0.244631E-01  0.250321E-01  0.256847E-01  0.264192E-01  0.272404E-01  0.281497E-01
  0.291346E-01  0.301609E-01  0.311693E-01  0.320820E-01  0.328235E-01  0.333482E-01
  0.330943E-01  0.336592E-01  0.339771E-01  0.340785E-01  0.339771E-01  0.336592E-01
  0.330943E-01  0.322616E-01  0.311738E-01  0.298843E-01  0.284765E-01  0.270414E-01
  0.256559E-01  0.243716E-01  0.232158E-01  0.221988E-01  0.213214E-01  0.205826E-01
  0.199855E-01  0.195412E-01  0.192653E-01  0.191715E-01  0.192653E-01  0.195412E-01
  0.199855E-01  0.205826E-01  0.213214E-01  0.221988E-01  0.232158E-01  0.243716E-01
  0.256559E-01  0.270414E-01  0.284765E-01  0.298843E-01  0.311738E-01  0.322616E-01
  0.330943E-01  0.333482E-01  0.340824E-01  0.344498E-01  0.344498E-01  0.340824E-01
  0.333482E-01  0.322616E-01  0.308645E-01  0.292309E-01  0.274583E-01  0.256512E-01
  0.239012E-01  0.222745E-01  0.208102E-01  0.195261E-01  0.184265E-01  0.175087E-01
  0.167687E-01  0.162062E-01  0.158257E-01  0.156334E-01  0.156334E-01  0.158257E-01
  0.162062E-01  0.167687E-01  0.175087E-01  0.184265E-01  0.195261E-01  0.208102E-01
  0.222745E-01  0.239012E-01  0.256512E-01  0.274583E-01  0.292309E-01  0.308645E-01
  0.322616E-01  0.333482E-01  0.340757E-01  0.348551E-01  0.351194E-01  0.348551E-01
  0.340757E-01  0.328235E-01  0.311738E-01  0.292309E-01  0.271173E-01  0.249570E-01
  0.228587E-01  0.209031E-01  0.191404E-01  0.175953E-01  0.162747E-01  0.151745E-01
  0.142854E-01  0.135983E-01  0.131083E-01  0.128142E-01  0.127161E-01  0.128142E-01
  0.131083E-01  0.135983E-01  0.142854E-01  0.151745E-01  0.162747E-01  0.175953E-01
  0.191404E-01  0.209031E-01  0.228587E-01  0.249570E-01  0.271173E-01  0.292309E-01
  0.311738E-01  0.328235E-01  0.340757E-01  0.351910E-01  0.358647E-01  0.358647E-01
  0.351910E-01  0.338965E-01  0.320820E-01  0.298843E-01  0.274583E-01  0.249570E-01
  0.225129E-01  0.202258E-01  0.181593E-01  0.163457E-01  0.147951E-01  0.135029E-01
  0.124553E-01  0.116362E-01  0.110318E-01  0.106332E-01  0.104352E-01  0.104352E-01
  0.106332E-01  0.110318E-01  0.116362E-01  0.124553E-01  0.135029E-01  0.147951E-01
  0.163457E-01  0.181593E-01  0.202258E-01  0.225129E-01  0.249570E-01  0.274583E-01
  0.298843E-01  0.320820E-01  0.338965E-01  0.351910E-01  0.365948E-01  0.370047E-01
  0.365948E-01  0.354038E-01  0.335413E-01  0.311693E-01  0.284765E-01  0.256512E-01
  0.228587E-01  0.202258E-01  0.178359E-01  0.157331E-01  0.139323E-01  0.124291E-01
  0.112066E-01  0.102423E-01  0.951463E-02  0.900650E-02  0.870635E-02  0.860713E-02
  0.870635E-02  0.900650E-02  0.951463E-02  0.102423E-01  0.112066E-01  0.124291E-01
  0.139323E-01  0.157331E-01  0.178359E-01  0.202258E-01  0.228587E-01  0.256512E-01
  0.284765E-01  0.311693E-01  0.335413E-01  0.354038E-01  0.365948E-01  0.382080E-01
  0.382080E-01  0.372727E-01  0.354977E-01  0.330549E-01  0.301609E-01  0.270414E-01
  0.239012E-01  0.209031E-01  0.181593E-01  0.157331E-01  0.136492E-01  0.119053E-01
  0.104823E-01  0.935240E-02  0.848651E-02  0.785937E-02  0.745202E-02  0.725166E-02
  0.725166E-02  0.745202E-02  0.785937E-02  0.848651E-02  0.935240E-02  0.104823E-01
  0.119053E-01  0.136492E-01  0.157331E-01  0.181593E-01  0.209031E-01  0.239012E-01
  0.270414E-01  0.301609E-01  0.330549E-01  0.354977E-01  0.372727E-01  0.382080E-01
  0.399896E-01  0.394554E-01  0.379104E-01  0.355160E-01  0.325040E-01  0.291346E-01
  0.256559E-01  0.222745E-01  0.191404E-01  0.163457E-01  0.139323E-01  0.119053E-01
  0.102452E-01  0.891966E-02  0.789249E-02  0.713024E-02  0.660583E-02  0.629943E-02
  0.619872E-02  0.629943E-02  0.660583E-02  0.713024E-02  0.789249E-02  0.891966E-02
  0.102452E-01  0.119053E-01  0.139323E-01  0.163457E-01  0.191404E-01  0.222745E-01
  0.256559E-01  0.291346E-01  0.325040E-01  0.355160E-01  0.379104E-01  0.394554E-01
  0.399896E-01  0.419329E-01  0.407596E-01  0.385417E-01  0.355091E-01  0.319478E-01
  0.281497E-01  0.243716E-01  0.208102E-01  0.175953E-01  0.147951E-01  0.124291E-01
  0.104823E-01  0.891966E-02  0.769828E-02  0.677621E-02  0.611767E-02  0.569489E-02
  0.548855E-02  0.548855E-02  0.569489E-02  0.611767E-02  0.677621E-02  0.769828E-02
  0.891966E-02  0.104823E-01  0.124291E-01  0.147951E-01  0.175953E-01  0.208102E-01
  0.243716E-01  0.281497E-01  0.319478E-01  0.355091E-01  0.385417E-01  0.407596E-01
  0.419329E-01  0.419329E-01  0.440356E-01  0.421307E-01  0.391891E-01  0.355091E-01
  0.314224E-01  0.272404E-01  0.232158E-01  0.195261E-01  0.162747E-01  0.135029E-01
  0.112066E-01  0.935240E-02  0.789249E-02  0.677621E-02  0.595806E-02  0.540127E-02
  0.507863E-02  0.497304E-02  0.507863E-02  0.540127E-02  0.595806E-02  0.677621E-02
  0.789249E-02  0.935240E-02  0.112066E-01  0.135029E-01  0.162747E-01  0.195261E-01
  0.232158E-01  0.272404E-01  0.314224E-01  0.355091E-01  0.391891E-01  0.421307E-01
  0.440356E-01  0.446955E-01  0.440356E-01  0.462530E-01  0.435371E-01  0.398377E-01
  0.355160E-01  0.309374E-01  0.264192E-01  0.221988E-01  0.184265E-01  0.151745E-01
  0.124553E-01  0.102423E-01  0.848651E-02  0.713024E-02  0.611767E-02  0.540127E-02
  0.494456E-02  0.472262E-02  0.472262E-02  0.494456E-02  0.540127E-02  0.611767E-02
  0.713024E-02  0.848651E-02  0.102423E-01  0.124553E-01  0.151745E-01  0.184265E-01
  0.221988E-01  0.264192E-01  0.309374E-01  0.355160E-01  0.398377E-01  0.435371E-01
  0.462530E-01  0.476928E-01  0.476928E-01  0.462530E-01  0.484545E-01  0.448813E-01
  0.404255E-01  0.354977E-01  0.304811E-01  0.256847E-01  0.213214E-01  0.175087E-01
  0.142854E-01  0.116362E-01  0.951463E-02  0.785937E-02  0.660583E-02  0.569489E-02
  0.507863E-02  0.472262E-02  0.460624E-02  0.472262E-02  0.507863E-02  0.569489E-02
  0.660583E-02  0.785937E-02  0.951463E-02  0.116362E-01  0.142854E-01  0.175087E-01
  0.213214E-01  0.256847E-01  0.304811E-01  0.354977E-01  0.404255E-01  0.448813E-01
  0.484545E-01  0.507738E-01  0.515782E-01  0.507738E-01  0.484545E-01  0.504091E-01
  0.460015E-01  0.408539E-01  0.354038E-01  0.300334E-01  0.250321E-01  0.205826E-01
  0.167687E-01  0.135983E-01  0.110318E-01  0.900650E-02  0.745202E-02  0.629943E-02
  0.548855E-02  0.497304E-02  0.472262E-02  0.472262E-02  0.497304E-02  0.548855E-02
  0.629943E-02  0.745202E-02  0.900650E-02  0.110318E-01  0.135983E-01  0.167687E-01
  0.205826E-01  0.250321E-01  0.300334E-01  0.354038E-01  0.408539E-01  0.460015E-01
  0.504091E-01  0.536455E-01  0.553618E-01  0.553618E-01  0.536455E-01  0.504091E-01
  0.518117E-01  0.467080E-01  0.410217E-01  0.351910E-01  0.295832E-01  0.244631E-01
  0.199855E-01  0.162062E-01  0.131083E-01  0.106332E-01  0.870635E-02  0.725166E-02
  0.619872E-02  0.548855E-02  0.507863E-02  0.494456E-02  0.507863E-02  0.548855E-02
  0.619872E-02  0.725166E-02  0.870635E-02  0.106332E-01  0.131083E-01  0.162062E-01
  0.199855E-01  0.244631E-01  0.295832E-01  0.351910E-01  0.410217E-01  0.467080E-01
  0.518117E-01  0.558770E-01  0.585020E-01  0.594099E-01  0.585020E-01  0.558770E-01
  0.518117E-01  0.523649E-01  0.468528E-01  0.408752E-01  0.348551E-01  0.291449E-01
  0.239940E-01  0.195412E-01  0.158257E-01  0.128142E-01  0.104352E-01  0.860713E-02
  0.725166E-02  0.629943E-02  0.569489E-02  0.540127E-02  0.540127E-02  0.569489E-02
  0.629943E-02  0.725166E-02  0.860713E-02  0.104352E-01  0.128142E-01  0.158257E-01
  0.195412E-01  0.239940E-01  0.291449E-01  0.348551E-01  0.408752E-01  0.468528E-01
  0.523649E-01  0.569731E-01  0.602877E-01  0.620209E-01  0.620209E-01  0.602877E-01
  0.569731E-01  0.523649E-01  0.519159E-01  0.464178E-01  0.404561E-01  0.344498E-01
  0.287624E-01  0.236534E-01  0.192653E-01  0.156334E-01  0.127161E-01  0.104352E-01
  0.870635E-02  0.745202E-02  0.660583E-02  0.611767E-02  0.595806E-02  0.611767E-02
  0.660583E-02  0.745202E-02  0.870635E-02  0.104352E-01  0.127161E-01  0.156334E-01
  0.192653E-01  0.236534E-01  0.287624E-01  0.344498E-01  0.404561E-01  0.464178E-01
  0.519159E-01  0.565560E-01  0.600398E-01  0.621872E-01  0.629112E-01  0.621872E-01
  0.600398E-01  0.565560E-01  0.519159E-01  0.506023E-01  0.455769E-01  0.399135E-01
  0.340785E-01  0.284969E-01  0.234730E-01  0.191715E-01  0.156334E-01  0.128142E-01
  0.106332E-01  0.900650E-02  0.785937E-02  0.713024E-02  0.677621E-02  0.677621E-02
  0.713024E-02  0.785937E-02  0.900650E-02  0.106332E-01  0.128142E-01  0.156334E-01
  0.191715E-01  0.234730E-01  0.284969E-01  0.340785E-01  0.399135E-01  0.455769E-01
  0.506023E-01  0.546239E-01  0.574956E-01  0.592793E-01  0.601203E-01  0.601203E-01
  0.592793E-01  0.574956E-01  0.546239E-01  0.506023E-01  0.488983E-01  0.446735E-01
  0.394602E-01  0.338554E-01  0.284014E-01  0.234730E-01  0.192653E-01  0.158257E-01
  0.131083E-01  0.110318E-01  0.951463E-02  0.848651E-02  0.789249E-02  0.769828E-02
  0.789249E-02  0.848651E-02  0.951463E-02  0.110318E-01  0.131083E-01  0.158257E-01
  0.192653E-01  0.234730E-01  0.284014E-01  0.338554E-01  0.394602E-01  0.446735E-01
  0.488983E-01  0.517269E-01  0.531711E-01  0.536415E-01  0.536700E-01  0.536367E-01
  0.536700E-01  0.536415E-01  0.531711E-01  0.517269E-01  0.488983E-01  0.474762E-01
  0.440942E-01  0.392841E-01  0.338554E-01  0.284969E-01  0.236534E-01  0.195412E-01
  0.162062E-01  0.135983E-01  0.116362E-01  0.102423E-01  0.935240E-02  0.891966E-02
  0.891966E-02  0.935240E-02  0.102423E-01  0.116362E-01  0.135983E-01  0.162062E-01
  0.195412E-01  0.236534E-01  0.284969E-01  0.338554E-01  0.392841E-01  0.440942E-01
  0.474762E-01  0.488635E-01  0.483544E-01  0.467514E-01  0.450848E-01  0.440942E-01
  0.440942E-01  0.450848E-01  0.467514E-01  0.483544E-01  0.488635E-01  0.474762E-01
  0.469246E-01  0.440942E-01  0.394602E-01  0.340785E-01  0.287624E-01  0.239940E-01
  0.199855E-01  0.167687E-01  0.142854E-01  0.124553E-01  0.112066E-01  0.104823E-01
  0.102452E-01  0.104823E-01  0.112066E-01  0.124553E-01  0.142854E-01  0.167687E-01
  0.199855E-01  0.239940E-01  0.287624E-01  0.340785E-01  0.394602E-01  0.440942E-01
  0.469246E-01  0.470956E-01  0.446285E-01  0.406607E-01  0.367990E-01  0.342040E-01
  0.333170E-01  0.342040E-01  0.367990E-01  0.406607E-01  0.446285E-01  0.470956E-01
  0.469246E-01  0.474762E-01  0.446735E-01  0.399135E-01  0.344498E-01  0.291449E-01
  0.244631E-01  0.205826E-01  0.175087E-01  0.151745E-01  0.135029E-01  0.124291E-01
  0.119053E-01  0.119053E-01  0.124291E-01  0.135029E-01  0.151745E-01  0.175087E-01
  0.205826E-01  0.244631E-01  0.291449E-01  0.344498E-01  0.399135E-01  0.446735E-01
  0.474762E-01  0.470956E-01  0.432334E-01  0.371396E-01  0.310013E-01  0.265440E-01
  0.243488E-01  0.243488E-01  0.265440E-01  0.310013E-01  0.371396E-01  0.432334E-01
  0.470956E-01  0.474762E-01  0.488983E-01  0.455769E-01  0.404561E-01  0.348551E-01
  0.295832E-01  0.250321E-01  0.213214E-01  0.184265E-01  0.162747E-01  0.147951E-01
  0.139323E-01  0.136492E-01  0.139323E-01  0.147951E-01  0.162747E-01  0.184265E-01
  0.213214E-01  0.250321E-01  0.295832E-01  0.348551E-01  0.404561E-01  0.455769E-01
  0.488983E-01  0.488635E-01  0.446285E-01  0.371396E-01  0.289467E-01  0.225160E-01
  0.188380E-01  0.176997E-01  0.188380E-01  0.225160E-01  0.289467E-01  0.371396E-01
  0.446285E-01  0.488635E-01  0.488983E-01  0.506023E-01  0.464178E-01  0.408752E-01
  0.351910E-01  0.300334E-01  0.256847E-01  0.221988E-01  0.195261E-01  0.175953E-01
  0.163457E-01  0.157331E-01  0.157331E-01  0.163457E-01  0.175953E-01  0.195261E-01
  0.221988E-01  0.256847E-01  0.300334E-01  0.351910E-01  0.408752E-01  0.464178E-01
  0.506023E-01  0.517269E-01  0.483544E-01  0.406607E-01  0.310013E-01  0.225160E-01
  0.170378E-01  0.145923E-01  0.145923E-01  0.170378E-01  0.225160E-01  0.310013E-01
  0.406607E-01  0.483544E-01  0.517269E-01  0.506023E-01  0.519159E-01  0.468528E-01
  0.410217E-01  0.354038E-01  0.304811E-01  0.264192E-01  0.232158E-01  0.208102E-01
  0.191404E-01  0.181593E-01  0.178359E-01  0.181593E-01  0.191404E-01  0.208102E-01
  0.232158E-01  0.264192E-01  0.304811E-01  0.354038E-01  0.410217E-01  0.468528E-01
  0.519159E-01  0.546239E-01  0.531711E-01  0.467514E-01  0.367990E-01  0.265440E-01
  0.188380E-01  0.145923E-01  0.133117E-01  0.145923E-01  0.188380E-01  0.265440E-01
  0.367990E-01  0.467514E-01  0.531711E-01  0.546239E-01  0.519159E-01  0.523649E-01
  0.467080E-01  0.408539E-01  0.354977E-01  0.309374E-01  0.272404E-01  0.243716E-01
  0.222745E-01  0.209031E-01  0.202258E-01  0.202258E-01  0.209031E-01  0.222745E-01
  0.243716E-01  0.272404E-01  0.309374E-01  0.354977E-01  0.408539E-01  0.467080E-01
  0.523649E-01  0.565560E-01  0.574956E-01  0.536415E-01  0.450848E-01  0.342040E-01
  0.243488E-01  0.176997E-01  0.145923E-01  0.145923E-01  0.176997E-01  0.243488E-01
  0.342040E-01  0.450848E-01  0.536415E-01  0.574956E-01  0.565560E-01  0.523649E-01
  0.518117E-01  0.460015E-01  0.404255E-01  0.355160E-01  0.314224E-01  0.281497E-01
  0.256559E-01  0.239012E-01  0.228587E-01  0.225129E-01  0.228587E-01  0.239012E-01
  0.256559E-01  0.281497E-01  0.314224E-01  0.355160E-01  0.404255E-01  0.460015E-01
  0.518117E-01  0.569731E-01  0.600398E-01  0.592793E-01  0.536700E-01  0.440942E-01
  0.333170E-01  0.243488E-01  0.188380E-01  0.170378E-01  0.188380E-01  0.243488E-01
  0.333170E-01  0.440942E-01  0.536700E-01  0.592793E-01  0.600398E-01  0.569731E-01
  0.518117E-01  0.504091E-01  0.448813E-01  0.398377E-01  0.355091E-01  0.319478E-01
  0.291346E-01  0.270414E-01  0.256512E-01  0.249570E-01  0.249570E-01  0.256512E-01
  0.270414E-01  0.291346E-01  0.319478E-01  0.355091E-01  0.398377E-01  0.448813E-01
  0.504091E-01  0.558770E-01  0.602877E-01  0.621872E-01  0.601203E-01  0.536367E-01
  0.440942E-01  0.342040E-01  0.265440E-01  0.225160E-01  0.225160E-01  0.265440E-01
  0.342040E-01  0.440942E-01  0.536367E-01  0.601203E-01  0.621872E-01  0.602877E-01
  0.558770E-01  0.504091E-01  0.484545E-01  0.435371E-01  0.391891E-01  0.355091E-01
  0.325040E-01  0.301609E-01  0.284765E-01  0.274583E-01  0.271173E-01  0.274583E-01
  0.284765E-01  0.301609E-01  0.325040E-01  0.355091E-01  0.391891E-01  0.435371E-01
  0.484545E-01  0.536455E-01  0.585020E-01  0.620209E-01  0.629112E-01  0.601203E-01
  0.536700E-01  0.450848E-01  0.367990E-01  0.310013E-01  0.289467E-01  0.310013E-01
  0.367990E-01  0.450848E-01  0.536700E-01  0.601203E-01  0.629112E-01  0.620209E-01
  0.585020E-01  0.536455E-01  0.484545E-01  0.462530E-01  0.421307E-01  0.385417E-01
  0.355160E-01  0.330549E-01  0.311693E-01  0.298843E-01  0.292309E-01  0.292309E-01
  0.298843E-01  0.311693E-01  0.330549E-01  0.355160E-01  0.385417E-01  0.421307E-01
  0.462530E-01  0.507738E-01  0.553618E-01  0.594099E-01  0.620209E-01  0.621872E-01
  0.592793E-01  0.536415E-01  0.467514E-01  0.406607E-01  0.371396E-01  0.371396E-01
  0.406607E-01  0.467514E-01  0.536415E-01  0.592793E-01  0.621872E-01  0.620209E-01
  0.594099E-01  0.553618E-01  0.507738E-01  0.462530E-01  0.440356E-01  0.407596E-01
  0.379104E-01  0.354977E-01  0.335413E-01  0.320820E-01  0.311738E-01  0.308645E-01
  0.311738E-01  0.320820E-01  0.335413E-01  0.354977E-01  0.379104E-01  0.407596E-01
  0.440356E-01  0.476928E-01  0.515782E-01  0.553618E-01  0.585020E-01  0.602877E-01
  0.600398E-01  0.574956E-01  0.531711E-01  0.483544E-01  0.446285E-01  0.432334E-01
  0.446285E-01  0.483544E-01  0.531711E-01  0.574956E-01  0.600398E-01  0.602877E-01
  0.585020E-01  0.553618E-01  0.515782E-01  0.476928E-01  0.440356E-01  0.419329E-01
  0.394554E-01  0.372727E-01  0.354038E-01  0.338965E-01  0.328235E-01  0.322616E-01
  0.322616E-01  0.328235E-01  0.338965E-01  0.354038E-01  0.372727E-01  0.394554E-01
  0.419329E-01  0.446955E-01  0.476928E-01  0.507738E-01  0.536455E-01  0.558770E-01
  0.569731E-01  0.565560E-01  0.546239E-01  0.517269E-01  0.488635E-01  0.470956E-01
  0.470956E-01  0.488635E-01  0.517269E-01  0.546239E-01  0.565560E-01  0.569731E-01
  0.558770E-01  0.536455E-01  0.507738E-01  0.476928E-01  0.446955E-01  0.419329E-01
  0.399896E-01  0.382080E-01  0.365948E-01  0.351910E-01  0.340757E-01  0.333482E-01
  0.330943E-01  0.333482E-01  0.340757E-01  0.351910E-01  0.365948E-01  0.382080E-01
  0.399896E-01  0.419329E-01  0.440356E-01  0.462530E-01  0.484545E-01  0.504091E-01
  0.518117E-01  0.523649E-01  0.519159E-01  0.506023E-01  0.488983E-01  0.474762E-01
  0.469246E-01  0.474762E-01  0.488983E-01  0.506023E-01  0.519159E-01  0.523649E-01
  0.518117E-01  0.504091E-01  0.484545E-01  0.462530E-01  0.440356E-01  0.419329E-01
  0.399896E-01  0.454580E-01  0.438662E-01  0.423022E-01  0.408752E-01  0.397597E-01
  0.391413E-01  0.391413E-01  0.397597E-01  0.408752E-01  0.423022E-01  0.438662E-01
  0.454580E-01  0.470481E-01  0.486604E-01  0.503138E-01  0.519600E-01  0.534452E-01
  0.545156E-01  0.548749E-01  0.543009E-01  0.528013E-01  0.507239E-01  0.487128E-01
  0.474762E-01  0.474762E-01  0.487128E-01  0.507239E-01  0.528013E-01  0.543009E-01
  0.548749E-01  0.545156E-01  0.534452E-01  0.519600E-01  0.503138E-01  0.486604E-01
  0.470481E-01  0.454580E-01  0.438662E-01  0.427406E-01  0.415498E-01  0.404561E-01
  0.396739E-01  0.393886E-01  0.396739E-01  0.404561E-01  0.415498E-01  0.427406E-01
  0.438662E-01  0.448574E-01  0.457300E-01  0.465409E-01  0.473298E-01  0.480737E-01
  0.486709E-01  0.489627E-01  0.487920E-01  0.480893E-01  0.469546E-01  0.456805E-01
  0.446735E-01  0.442905E-01  0.446735E-01  0.456805E-01  0.469546E-01  0.480893E-01
  0.487920E-01  0.489627E-01  0.486709E-01  0.480737E-01  0.473298E-01  0.465409E-01
  0.457300E-01  0.448574E-01  0.438662E-01  0.423022E-01  0.415498E-01  0.406858E-01
  0.399135E-01  0.394547E-01  0.394547E-01  0.399135E-01  0.406858E-01  0.415498E-01
  0.423022E-01  0.428288E-01  0.431200E-01  0.432397E-01  0.432718E-01  0.432718E-01
  0.432397E-01  0.431200E-01  0.428288E-01  0.423022E-01  0.415498E-01  0.406858E-01
  0.399135E-01  0.394547E-01  0.394547E-01  0.399135E-01  0.406858E-01  0.415498E-01
  0.423022E-01  0.428288E-01  0.431200E-01  0.432397E-01  0.432718E-01  0.432718E-01
  0.432397E-01  0.431200E-01  0.428288E-01  0.423022E-01  0.408752E-01  0.404561E-01
  0.399135E-01  0.394602E-01  0.392841E-01  0.394602E-01  0.399135E-01  0.404561E-01
  0.408752E-01  0.410217E-01  0.408539E-01  0.404255E-01  0.398377E-01  0.391891E-01
  0.385417E-01  0.379104E-01  0.372727E-01  0.365948E-01  0.358647E-01  0.351194E-01
  0.344498E-01  0.339771E-01  0.338058E-01  0.339771E-01  0.344498E-01  0.351194E-01
  0.358647E-01  0.365948E-01  0.372727E-01  0.379104E-01  0.385417E-01  0.391891E-01
  0.398377E-01  0.404255E-01  0.408539E-01  0.410217E-01  0.408752E-01  0.397597E-01
  0.396739E-01  0.394547E-01  0.392841E-01  0.392841E-01  0.394547E-01  0.396739E-01
  0.397597E-01  0.395568E-01  0.389997E-01  0.381241E-01  0.370331E-01  0.358470E-01
  0.346643E-01  0.335432E-01  0.325035E-01  0.315413E-01  0.306499E-01  0.298390E-01
  0.291449E-01  0.286265E-01  0.283469E-01  0.283469E-01  0.286265E-01  0.291449E-01
  0.298390E-01  0.306499E-01  0.315413E-01  0.325035E-01  0.335432E-01  0.346643E-01
  0.358470E-01  0.370331E-01  0.381241E-01  0.389997E-01  0.395568E-01  0.397597E-01
  0.391413E-01  0.393886E-01  0.394547E-01  0.394602E-01  0.394547E-01  0.393886E-01
  0.391413E-01  0.385879E-01  0.376638E-01  0.363931E-01  0.348735E-01  0.332346E-01
  0.315966E-01  0.300442E-01  0.286236E-01  0.273512E-01  0.262302E-01  0.252633E-01
  0.244631E-01  0.238546E-01  0.234704E-01  0.233385E-01  0.234704E-01  0.238546E-01
  0.244631E-01  0.252633E-01  0.262302E-01  0.273512E-01  0.286236E-01  0.300442E-01
  0.315966E-01  0.332346E-01  0.348735E-01  0.363931E-01  0.376638E-01  0.385879E-01
  0.391413E-01  0.391413E-01  0.396739E-01  0.399135E-01  0.399135E-01  0.396739E-01
  0.391413E-01  0.382473E-01  0.369588E-01  0.353088E-01  0.333951E-01  0.313514E-01
  0.293104E-01  0.273750E-01  0.256084E-01  0.240400E-01  0.226788E-01  0.215258E-01
  0.205826E-01  0.198556E-01  0.193578E-01  0.191039E-01  0.191039E-01  0.193578E-01
  0.198556E-01  0.205826E-01  0.215258E-01  0.226788E-01  0.240400E-01  0.256084E-01
  0.273750E-01  0.293104E-01  0.313514E-01  0.333951E-01  0.353088E-01  0.369588E-01
  0.382473E-01  0.391413E-01  0.397597E-01  0.404561E-01  0.406858E-01  0.404561E-01
  0.397597E-01  0.385879E-01  0.369588E-01  0.349384E-01  0.326412E-01  0.302106E-01
  0.277898E-01  0.254951E-01  0.234026E-01  0.215508E-01  0.199527E-01  0.186073E-01
  0.175087E-01  0.166517E-01  0.160351E-01  0.156623E-01  0.155373E-01  0.156623E-01
  0.160351E-01  0.166517E-01  0.175087E-01  0.186073E-01  0.199527E-01  0.215508E-01
  0.234026E-01  0.254951E-01  0.277898E-01  0.302106E-01  0.326412E-01  0.349384E-01
  0.369588E-01  0.385879E-01  0.397597E-01  0.408752E-01  0.415498E-01  0.415498E-01
  0.408752E-01  0.395568E-01  0.376638E-01  0.353088E-01  0.326412E-01  0.298281E-01
  0.270299E-01  0.243775E-01  0.219592E-01  0.198220E-01  0.179819E-01  0.164367E-01
  0.151745E-01  0.141805E-01  0.134424E-01  0.129527E-01  0.127084E-01  0.127084E-01
  0.129527E-01  0.134424E-01  0.141805E-01  0.151745E-01  0.164367E-01  0.179819E-01
  0.198220E-01  0.219592E-01  0.243775E-01  0.270299E-01  0.298281E-01  0.326412E-01
  0.353088E-01  0.376638E-01  0.395568E-01  0.408752E-01  0.423022E-01  0.427406E-01
  0.423022E-01  0.410217E-01  0.389997E-01  0.363931E-01  0.333951E-01  0.302106E-01
  0.270299E-01  0.240067E-01  0.212463E-01  0.188058E-01  0.167059E-01  0.149437E-01
  0.135029E-01  0.123607E-01  0.114946E-01  0.108871E-01  0.105268E-01  0.104074E-01
  0.105268E-01  0.108871E-01  0.114946E-01  0.123607E-01  0.135029E-01  0.149437E-01
  0.167059E-01  0.188058E-01  0.212463E-01  0.240067E-01  0.270299E-01  0.302106E-01
  0.333951E-01  0.363931E-01  0.389997E-01  0.410217E-01  0.423022E-01  0.438662E-01
  0.438662E-01  0.428288E-01  0.408539E-01  0.381241E-01  0.348735E-01  0.313514E-01
  0.277898E-01  0.243775E-01  0.212463E-01  0.184709E-01  0.160803E-01  0.140729E-01
  0.124291E-01  0.111195E-01  0.101126E-01  0.938084E-02  0.890390E-02  0.866870E-02
  0.866870E-02  0.890390E-02  0.938084E-02  0.101126E-01  0.111195E-01  0.124291E-01
  0.140729E-01  0.160803E-01  0.184709E-01  0.212463E-01  0.243775E-01  0.277898E-01
  0.313514E-01  0.348735E-01  0.381241E-01  0.408539E-01  0.428288E-01  0.438662E-01
  0.454580E-01  0.448574E-01  0.431200E-01  0.404255E-01  0.370331E-01  0.332346E-01
  0.293104E-01  0.254951E-01  0.219592E-01  0.188058E-01  0.160803E-01  0.137871E-01
  0.119053E-01  0.103998E-01  0.923096E-02  0.836144E-02  0.776152E-02  0.741010E-02
  0.729440E-02  0.741010E-02  0.776152E-02  0.836144E-02  0.923096E-02  0.103998E-01
  0.119053E-01  0.137871E-01  0.160803E-01  0.188058E-01  0.219592E-01  0.254951E-01
  0.293104E-01  0.332346E-01  0.370331E-01  0.404255E-01  0.431200E-01  0.448574E-01
  0.454580E-01  0.470481E-01  0.457300E-01  0.432397E-01  0.398377E-01  0.358470E-01
  0.315966E-01  0.273750E-01  0.234026E-01  0.198220E-01  0.167059E-01  0.140729E-01
  0.119053E-01  0.101643E-01  0.880241E-02  0.777290E-02  0.703618E-02  0.656217E-02
  0.633045E-02  0.633045E-02  0.656217E-02  0.703618E-02  0.777290E-02  0.880241E-02
  0.101643E-01  0.119053E-01  0.140729E-01  0.167059E-01  0.198220E-01  0.234026E-01
  0.273750E-01  0.315966E-01  0.358470E-01  0.398377E-01  0.432397E-01  0.457300E-01
  0.470481E-01  0.470481E-01  0.486604E-01  0.465409E-01  0.432718E-01  0.391891E-01
  0.346643E-01  0.300442E-01  0.256084E-01  0.215508E-01  0.179819E-01  0.149437E-01
  0.124291E-01  0.103998E-01  0.880241E-02  0.758054E-02  0.668414E-02  0.607332E-02
  0.571901E-02  0.560300E-02  0.571901E-02  0.607332E-02  0.668414E-02  0.758054E-02
  0.880241E-02  0.103998E-01  0.124291E-01  0.149437E-01  0.179819E-01  0.215508E-01
  0.256084E-01  0.300442E-01  0.346643E-01  0.391891E-01  0.432718E-01  0.465409E-01
  0.486604E-01  0.493951E-01  0.486604E-01  0.503138E-01  0.473298E-01  0.432718E-01
  0.385417E-01  0.335432E-01  0.286236E-01  0.240400E-01  0.199527E-01  0.164367E-01
  0.135029E-01  0.111195E-01  0.923096E-02  0.777290E-02  0.668414E-02  0.591353E-02
  0.542220E-02  0.518347E-02  0.518347E-02  0.542220E-02  0.591353E-02  0.668414E-02
  0.777290E-02  0.923096E-02  0.111195E-01  0.135029E-01  0.164367E-01  0.199527E-01
  0.240400E-01  0.286236E-01  0.335432E-01  0.385417E-01  0.432718E-01  0.473298E-01
  0.503138E-01  0.518974E-01  0.518974E-01  0.503138E-01  0.519600E-01  0.480737E-01
  0.432397E-01  0.379104E-01  0.325035E-01  0.273512E-01  0.226788E-01  0.186073E-01
  0.151745E-01  0.123607E-01  0.101126E-01  0.836144E-02  0.703618E-02  0.607332E-02
  0.542220E-02  0.504635E-02  0.492358E-02  0.504635E-02  0.542220E-02  0.607332E-02
  0.703618E-02  0.836144E-02  0.101126E-01  0.123607E-01  0.151745E-01  0.186073E-01
  0.226788E-01  0.273512E-01  0.325035E-01  0.379104E-01  0.432397E-01  0.480737E-01
  0.519600E-01  0.544867E-01  0.553639E-01  0.544867E-01  0.519600E-01  0.534452E-01
  0.486709E-01  0.431200E-01  0.372727E-01  0.315413E-01  0.262302E-01  0.215258E-01
  0.175087E-01  0.141805E-01  0.114946E-01  0.938084E-02  0.776152E-02  0.656217E-02
  0.571901E-02  0.518347E-02  0.492358E-02  0.492358E-02  0.518347E-02  0.571901E-02
  0.656217E-02  0.776152E-02  0.938084E-02  0.114946E-01  0.141805E-01  0.175087E-01
  0.215258E-01  0.262302E-01  0.315413E-01  0.372727E-01  0.431200E-01  0.486709E-01
  0.534452E-01  0.569632E-01  0.588329E-01  0.588329E-01  0.569632E-01  0.534452E-01
  0.545156E-01  0.489627E-01  0.428288E-01  0.365948E-01  0.306499E-01  0.252633E-01
  0.205826E-01  0.166517E-01  0.134424E-01  0.108871E-01  0.890390E-02  0.741010E-02
  0.633045E-02  0.560300E-02  0.518347E-02  0.504635E-02  0.518347E-02  0.560300E-02
  0.633045E-02  0.741010E-02  0.890390E-02  0.108871E-01  0.134424E-01  0.166517E-01
  0.205826E-01  0.252633E-01  0.306499E-01  0.365948E-01  0.428288E-01  0.489627E-01
  0.545156E-01  0.589724E-01  0.618667E-01  0.628708E-01  0.618667E-01  0.589724E-01
  0.545156E-01  0.548749E-01  0.487920E-01  0.423022E-01  0.358647E-01  0.298390E-01
  0.244631E-01  0.198556E-01  0.160351E-01  0.129527E-01  0.105268E-01  0.866870E-02
  0.729440E-02  0.633045E-02  0.571901E-02  0.542220E-02  0.542220E-02  0.571901E-02
  0.633045E-02  0.729440E-02  0.866870E-02  0.105268E-01  0.129527E-01  0.160351E-01
  0.198556E-01  0.244631E-01  0.298390E-01  0.358647E-01  0.423022E-01  0.487920E-01
  0.548749E-01  0.600428E-01  0.638116E-01  0.658007E-01  0.658007E-01  0.638116E-01
  0.600428E-01  0.548749E-01  0.543009E-01  0.480893E-01  0.415498E-01  0.351194E-01
  0.291449E-01  0.238546E-01  0.193578E-01  0.156623E-01  0.127084E-01  0.104074E-01
  0.866870E-02  0.741010E-02  0.656217E-02  0.607332E-02  0.591353E-02  0.607332E-02
  0.656217E-02  0.741010E-02  0.866870E-02  0.104074E-01  0.127084E-01  0.156623E-01
  0.193578E-01  0.238546E-01  0.291449E-01  0.351194E-01  0.415498E-01  0.480893E-01
  0.543009E-01  0.597184E-01  0.639181E-01  0.665736E-01  0.674816E-01  0.665736E-01
  0.639181E-01  0.597184E-01  0.543009E-01  0.528013E-01  0.469546E-01  0.406858E-01
  0.344498E-01  0.286265E-01  0.234704E-01  0.191039E-01  0.155373E-01  0.127084E-01
  0.105268E-01  0.890390E-02  0.776152E-02  0.703618E-02  0.668414E-02  0.668414E-02
  0.703618E-02  0.776152E-02  0.890390E-02  0.105268E-01  0.127084E-01  0.155373E-01
  0.191039E-01  0.234704E-01  0.286265E-01  0.344498E-01  0.406858E-01  0.469546E-01
  0.528013E-01  0.578006E-01  0.616615E-01  0.642536E-01  0.655482E-01  0.655482E-01
  0.642536E-01  0.616615E-01  0.578006E-01  0.528013E-01  0.507239E-01  0.456805E-01
  0.399135E-01  0.339771E-01  0.283469E-01  0.233385E-01  0.191039E-01  0.156623E-01
  0.129527E-01  0.108871E-01  0.938084E-02  0.836144E-02  0.777290E-02  0.758054E-02
  0.777290E-02  0.836144E-02  0.938084E-02  0.108871E-01  0.129527E-01  0.156623E-01
  0.191039E-01  0.233385E-01  0.283469E-01  0.339771E-01  0.399135E-01  0.456805E-01
  0.507239E-01  0.546014E-01  0.571817E-01  0.586632E-01  0.593806E-01  0.595902E-01
  0.593806E-01  0.586632E-01  0.571817E-01  0.546014E-01  0.507239E-01  0.487128E-01
  0.446735E-01  0.394547E-01  0.338058E-01  0.283469E-01  0.234704E-01  0.193578E-01
  0.160351E-01  0.134424E-01  0.114946E-01  0.101126E-01  0.923096E-02  0.880241E-02
  0.880241E-02  0.923096E-02  0.101126E-01  0.114946E-01  0.134424E-01  0.160351E-01
  0.193578E-01  0.234704E-01  0.283469E-01  0.338058E-01  0.394547E-01  0.446735E-01
  0.487128E-01  0.509991E-01  0.515141E-01  0.508663E-01  0.499110E-01  0.492912E-01
  0.492912E-01  0.499110E-01  0.508663E-01  0.515141E-01  0.509991E-01  0.487128E-01
  0.474762E-01  0.442905E-01  0.394547E-01  0.339771E-01  0.286265E-01  0.238546E-01
  0.198556E-01  0.166517E-01  0.141805E-01  0.123607E-01  0.111195E-01  0.103998E-01
  0.101643E-01  0.103998E-01  0.111195E-01  0.123607E-01  0.141805E-01  0.166517E-01
  0.198556E-01  0.238546E-01  0.286265E-01  0.339771E-01  0.394547E-01  0.442905E-01
  0.474762E-01  0.481674E-01  0.463202E-01  0.429449E-01  0.395345E-01  0.372044E-01
  0.364025E-01  0.372044E-01  0.395345E-01  0.429449E-01  0.463202E-01  0.481674E-01
  0.474762E-01  0.474762E-01  0.446735E-01  0.399135E-01  0.344498E-01  0.291449E-01
  0.244631E-01  0.205826E-01  0.175087E-01  0.151745E-01  0.135029E-01  0.124291E-01
  0.119053E-01  0.119053E-01  0.124291E-01  0.135029E-01  0.151745E-01  0.175087E-01
  0.205826E-01  0.244631E-01  0.291449E-01  0.344498E-01  0.399135E-01  0.446735E-01
  0.474762E-01  0.470956E-01  0.432334E-01  0.371396E-01  0.310013E-01  0.265440E-01
  0.243488E-01  0.243488E-01  0.265440E-01  0.310013E-01  0.371396E-01  0.432334E-01
  0.470956E-01  0.474762E-01  0.487128E-01  0.456805E-01  0.406858E-01  0.351194E-01
  0.298390E-01  0.252633E-01  0.215258E-01  0.186073E-01  0.164367E-01  0.149437E-01
  0.140729E-01  0.137871E-01  0.140729E-01  0.149437E-01  0.164367E-01  0.186073E-01
  0.215258E-01  0.252633E-01  0.298390E-01  0.351194E-01  0.406858E-01  0.456805E-01
  0.487128E-01  0.481674E-01  0.432334E-01  0.350235E-01  0.262896E-01  0.195777E-01
  0.158065E-01  0.146527E-01  0.158065E-01  0.195777E-01  0.262896E-01  0.350235E-01
  0.432334E-01  0.481674E-01  0.487128E-01  0.507239E-01  0.469546E-01  0.415498E-01
  0.358647E-01  0.306499E-01  0.262302E-01  0.226788E-01  0.199527E-01  0.179819E-01
  0.167059E-01  0.160803E-01  0.160803E-01  0.167059E-01  0.179819E-01  0.199527E-01
  0.226788E-01  0.262302E-01  0.306499E-01  0.358647E-01  0.415498E-01  0.469546E-01
  0.507239E-01  0.509991E-01  0.463202E-01  0.371396E-01  0.262896E-01  0.172038E-01
  0.116080E-01  0.921424E-02  0.921424E-02  0.116080E-01  0.172038E-01  0.262896E-01
  0.371396E-01  0.463202E-01  0.509991E-01  0.507239E-01  0.528013E-01  0.480893E-01
  0.423022E-01  0.365948E-01  0.315413E-01  0.273512E-01  0.240400E-01  0.215508E-01
  0.198220E-01  0.188058E-01  0.184709E-01  0.188058E-01  0.198220E-01  0.215508E-01
  0.240400E-01  0.273512E-01  0.315413E-01  0.365948E-01  0.423022E-01  0.480893E-01
  0.528013E-01  0.546014E-01  0.515141E-01  0.429449E-01  0.310013E-01  0.195777E-01
  0.116080E-01  0.754337E-02  0.638750E-02  0.754337E-02  0.116080E-01  0.195777E-01
  0.310013E-01  0.429449E-01  0.515141E-01  0.546014E-01  0.528013E-01  0.543009E-01
  0.487920E-01  0.428288E-01  0.372727E-01  0.325035E-01  0.286236E-01  0.256084E-01
  0.234026E-01  0.219592E-01  0.212463E-01  0.212463E-01  0.219592E-01  0.234026E-01
  0.256084E-01  0.286236E-01  0.325035E-01  0.372727E-01  0.428288E-01  0.487920E-01
  0.543009E-01  0.578006E-01  0.571817E-01  0.508663E-01  0.395345E-01  0.265440E-01
  0.158065E-01  0.921424E-02  0.638750E-02  0.638750E-02  0.921424E-02  0.158065E-01
  0.265440E-01  0.395345E-01  0.508663E-01  0.571817E-01  0.578006E-01  0.543009E-01
  0.548749E-01  0.489627E-01  0.431200E-01  0.379104E-01  0.335432E-01  0.300442E-01
  0.273750E-01  0.254951E-01  0.243775E-01  0.240067E-01  0.243775E-01  0.254951E-01
  0.273750E-01  0.300442E-01  0.335432E-01  0.379104E-01  0.431200E-01  0.489627E-01
  0.548749E-01  0.597184E-01  0.616615E-01  0.586632E-01  0.499110E-01  0.372044E-01
  0.243488E-01  0.146527E-01  0.921424E-02  0.754337E-02  0.921424E-02  0.146527E-01
  0.243488E-01  0.372044E-01  0.499110E-01  0.586632E-01  0.616615E-01  0.597184E-01
  0.548749E-01  0.545156E-01  0.486709E-01  0.432397E-01  0.385417E-01  0.346643E-01
  0.315966E-01  0.293104E-01  0.277898E-01  0.270299E-01  0.270299E-01  0.277898E-01
  0.293104E-01  0.315966E-01  0.346643E-01  0.385417E-01  0.432397E-01  0.486709E-01
  0.545156E-01  0.600428E-01  0.639181E-01  0.642536E-01  0.593806E-01  0.492912E-01
  0.364025E-01  0.243488E-01  0.158065E-01  0.116080E-01  0.116080E-01  0.158065E-01
  0.243488E-01  0.364025E-01  0.492912E-01  0.593806E-01  0.642536E-01  0.639181E-01
  0.600428E-01  0.545156E-01  0.534452E-01  0.480737E-01  0.432718E-01  0.391891E-01
  0.358470E-01  0.332346E-01  0.313514E-01  0.302106E-01  0.298281E-01  0.302106E-01
  0.313514E-01  0.332346E-01  0.358470E-01  0.391891E-01  0.432718E-01  0.480737E-01
  0.534452E-01  0.589724E-01  0.638116E-01  0.665736E-01  0.655482E-01  0.595902E-01
  0.492912E-01  0.372044E-01  0.265440E-01  0.195777E-01  0.172038E-01  0.195777E-01
  0.265440E-01  0.372044E-01  0.492912E-01  0.595902E-01  0.655482E-01  0.665736E-01
  0.638116E-01  0.589724E-01  0.534452E-01  0.519600E-01  0.473298E-01  0.432718E-01
  0.398377E-01  0.370331E-01  0.348735E-01  0.333951E-01  0.326412E-01  0.326412E-01
  0.333951E-01  0.348735E-01  0.370331E-01  0.398377E-01  0.432718E-01  0.473298E-01
  0.519600E-01  0.569632E-01  0.618667E-01  0.658007E-01  0.674816E-01  0.655482E-01
  0.593806E-01  0.499110E-01  0.395345E-01  0.310013E-01  0.262896E-01  0.262896E-01
  0.310013E-01  0.395345E-01  0.499110E-01  0.593806E-01  0.655482E-01  0.674816E-01
  0.658007E-01  0.618667E-01  0.569632E-01  0.519600E-01  0.503138E-01  0.465409E-01
  0.432397E-01  0.404255E-01  0.381241E-01  0.363931E-01  0.353088E-01  0.349384E-01
  0.353088E-01  0.363931E-01  0.381241E-01  0.404255E-01  0.432397E-01  0.465409E-01
  0.503138E-01  0.544867E-01  0.588329E-01  0.628708E-01  0.658007E-01  0.665736E-01
  0.642536E-01  0.586632E-01  0.508663E-01  0.429449E-01  0.371396E-01  0.350235E-01
  0.371396E-01  0.429449E-01  0.508663E-01  0.586632E-01  0.642536E-01  0.665736E-01
  0.658007E-01  0.628708E-01  0.588329E-01  0.544867E-01  0.503138E-01  0.486604E-01
  0.457300E-01  0.431200E-01  0.408539E-01  0.389997E-01  0.376638E-01  0.369588E-01
  0.369588E-01  0.376638E-01  0.389997E-01  0.408539E-01  0.431200E-01  0.457300E-01
  0.486604E-01  0.518974E-01  0.553639E-01  0.588329E-01  0.618667E-01  0.638116E-01
  0.639181E-01  0.616615E-01  0.571817E-01  0.515141E-01  0.463202E-01  0.432334E-01
  0.432334E-01  0.463202E-01  0.515141E-01  0.571817E-01  0.616615E-01  0.639181E-01
  0.638116E-01  0.618667E-01  0.588329E-01  0.553639E-01  0.518974E-01  0.486604E-01
  0.470481E-01  0.448574E-01  0.428288E-01  0.410217E-01  0.395568E-01  0.385879E-01
  0.382473E-01  0.385879E-01  0.395568E-01  0.410217E-01  0.428288E-01  0.448574E-01
  0.470481E-01  0.493951E-01  0.518974E-01  0.544867E-01  0.569632E-01  0.589724E-01
  0.600428E-01  0.597184E-01  0.578006E-01  0.546014E-01  0.509991E-01  0.481674E-01
  0.470956E-01  0.481674E-01  0.509991E-01  0.546014E-01  0.578006E-01  0.597184E-01
  0.600428E-01  0.589724E-01  0.569632E-01  0.544867E-01  0.518974E-01  0.493951E-01
  0.470481E-01  0.454580E-01  0.438662E-01  0.423022E-01  0.408752E-01  0.397597E-01
  0.391413E-01  0.391413E-01  0.397597E-01  0.408752E-01  0.423022E-01  0.438662E-01
  0.454580E-01  0.470481E-01  0.486604E-01  0.503138E-01  0.519600E-01  0.534452E-01
  0.545156E-01  0.548749E-01  0.543009E-01  0.528013E-01  0.507239E-01  0.487128E-01
  0.474762E-01  0.474762E-01  0.487128E-01  0.507239E-01  0.528013E-01  0.543009E-01
  0.548749E-01  0.545156E-01  0.534452E-01  0.519600E-01  0.503138E-01  0.486604E-01
  0.470481E-01  0.454580E-01  0.515197E-01  0.498769E-01  0.480893E-01  0.464178E-01
  0.452097E-01  0.447669E-01  0.452097E-01  0.464178E-01  0.480893E-01  0.498769E-01
  0.515197E-01  0.529079E-01  0.540673E-01  0.550879E-01  0.560327E-01  0.568679E-01
  0.574387E-01  0.575017E-01  0.568156E-01  0.552817E-01  0.530828E-01  0.507239E-01
  0.488983E-01  0.482099E-01  0.488983E-01  0.507239E-01  0.530828E-01  0.552817E-01
  0.568156E-01  0.575017E-01  0.574387E-01  0.568679E-01  0.560327E-01  0.550879E-01
  0.540673E-01  0.529079E-01  0.515197E-01  0.498769E-01  0.485062E-01  0.469546E-01
  0.455769E-01  0.447609E-01  0.447609E-01  0.455769E-01  0.469546E-01  0.485062E-01
  0.498769E-01  0.508640E-01  0.514420E-01  0.517090E-01  0.517979E-01  0.517979E-01
  0.517090E-01  0.514420E-01  0.508640E-01  0.498769E-01  0.485062E-01  0.469546E-01
  0.455769E-01  0.447609E-01  0.447609E-01  0.455769E-01  0.469546E-01  0.485062E-01
  0.498769E-01  0.508640E-01  0.514420E-01  0.517090E-01  0.517979E-01  0.517979E-01
  0.517090E-01  0.514420E-01  0.508640E-01  0.498769E-01  0.480893E-01  0.469546E-01
  0.456805E-01  0.446735E-01  0.442905E-01  0.446735E-01  0.456805E-01  0.469546E-01
  0.480893E-01  0.487920E-01  0.489627E-01  0.486709E-01  0.480737E-01  0.473298E-01
  0.465409E-01  0.457300E-01  0.448574E-01  0.438662E-01  0.427406E-01  0.415498E-01
  0.404561E-01  0.396739E-01  0.393886E-01  0.396739E-01  0.404561E-01  0.415498E-01
  0.427406E-01  0.438662E-01  0.448574E-01  0.457300E-01  0.465409E-01  0.473298E-01
  0.480737E-01  0.486709E-01  0.489627E-01  0.487920E-01  0.480893E-01  0.464178E-01
  0.455769E-01  0.446735E-01  0.440942E-01  0.440942E-01  0.446735E-01  0.455769E-01
  0.464178E-01  0.468528E-01  0.467080E-01  0.460015E-01  0.448813E-01  0.435371E-01
  0.421307E-01  0.407596E-01  0.394554E-01  0.382080E-01  0.370047E-01  0.358647E-01
  0.348551E-01  0.340824E-01  0.336592E-01  0.336592E-01  0.340824E-01  0.348551E-01
  0.358647E-01  0.370047E-01  0.382080E-01  0.394554E-01  0.407596E-01  0.421307E-01
  0.435371E-01  0.448813E-01  0.460015E-01  0.467080E-01  0.468528E-01  0.464178E-01
  0.452097E-01  0.447609E-01  0.442905E-01  0.440942E-01  0.442905E-01  0.447609E-01
  0.452097E-01  0.453100E-01  0.448480E-01  0.437894E-01  0.422523E-01  0.404300E-01
  0.385143E-01  0.366480E-01  0.349104E-01  0.333289E-01  0.319068E-01  0.306499E-01
  0.295832E-01  0.287539E-01  0.282213E-01  0.280370E-01  0.282213E-01  0.287539E-01
  0.295832E-01  0.306499E-01  0.319068E-01  0.333289E-01  0.349104E-01  0.366480E-01
  0.385143E-01  0.404300E-01  0.422523E-01  0.437894E-01  0.448480E-01  0.453100E-01
  0.452097E-01  0.447669E-01  0.447609E-01  0.446735E-01  0.446735E-01  0.447609E-01
  0.447669E-01  0.444460E-01  0.436027E-01  0.421785E-01  0.402604E-01  0.380281E-01
  0.356826E-01  0.333917E-01  0.312640E-01  0.293520E-01  0.276727E-01  0.262302E-01
  0.250321E-01  0.240952E-01  0.234453E-01  0.231108E-01  0.231108E-01  0.234453E-01
  0.240952E-01  0.250321E-01  0.262302E-01  0.276727E-01  0.293520E-01  0.312640E-01
  0.333917E-01  0.356826E-01  0.380281E-01  0.402604E-01  0.421785E-01  0.436027E-01
  0.444460E-01  0.447669E-01  0.452097E-01  0.455769E-01  0.456805E-01  0.455769E-01
  0.452097E-01  0.444460E-01  0.431624E-01  0.413227E-01  0.390057E-01  0.363776E-01
  0.336372E-01  0.309628E-01  0.284806E-01  0.262592E-01  0.243241E-01  0.226788E-01
  0.213214E-01  0.202523E-01  0.194764E-01  0.190037E-01  0.188446E-01  0.190037E-01
  0.194764E-01  0.202523E-01  0.213214E-01  0.226788E-01  0.243241E-01  0.262592E-01
  0.284806E-01  0.309628E-01  0.336372E-01  0.363776E-01  0.390057E-01  0.413227E-01
  0.431624E-01  0.444460E-01  0.452097E-01  0.464178E-01  0.469546E-01  0.469546E-01
  0.464178E-01  0.453100E-01  0.436027E-01  0.413227E-01  0.385758E-01  0.355338E-01
  0.323960E-01  0.293458E-01  0.265194E-01  0.239957E-01  0.218059E-01  0.199527E-01
  0.184265E-01  0.172157E-01  0.163108E-01  0.157070E-01  0.154043E-01  0.154043E-01
  0.157070E-01  0.163108E-01  0.172157E-01  0.184265E-01  0.199527E-01  0.218059E-01
  0.239957E-01  0.265194E-01  0.293458E-01  0.323960E-01  0.355338E-01  0.385758E-01
  0.413227E-01  0.436027E-01  0.453100E-01  0.464178E-01  0.480893E-01  0.485062E-01
  0.480893E-01  0.468528E-01  0.448480E-01  0.421785E-01  0.390057E-01  0.355338E-01
  0.319794E-01  0.285372E-01  0.253532E-01  0.225144E-01  0.200566E-01  0.179819E-01
  0.162747E-01  0.149131E-01  0.138755E-01  0.131445E-01  0.127092E-01  0.125645E-01
  0.127092E-01  0.131445E-01  0.138755E-01  0.149131E-01  0.162747E-01  0.179819E-01
  0.200566E-01  0.225144E-01  0.253532E-01  0.285372E-01  0.319794E-01  0.355338E-01
  0.390057E-01  0.421785E-01  0.448480E-01  0.468528E-01  0.480893E-01  0.498769E-01
  0.498769E-01  0.487920E-01  0.467080E-01  0.437894E-01  0.402604E-01  0.363776E-01
  0.323960E-01  0.285372E-01  0.249662E-01  0.217826E-01  0.190284E-01  0.167059E-01
  0.147951E-01  0.132659E-01  0.120855E-01  0.112247E-01  0.106619E-01  0.103835E-01
  0.103835E-01  0.106619E-01  0.112247E-01  0.120855E-01  0.132659E-01  0.147951E-01
  0.167059E-01  0.190284E-01  0.217826E-01  0.249662E-01  0.285372E-01  0.323960E-01
  0.363776E-01  0.402604E-01  0.437894E-01  0.467080E-01  0.487920E-01  0.498769E-01
  0.515197E-01  0.508640E-01  0.489627E-01  0.460015E-01  0.422523E-01  0.380281E-01
  0.336372E-01  0.293458E-01  0.253532E-01  0.217826E-01  0.186895E-01  0.160803E-01
  0.139323E-01  0.122085E-01  0.108663E-01  0.986539E-02  0.917299E-02  0.876633E-02
  0.863222E-02  0.876633E-02  0.917299E-02  0.986539E-02  0.108663E-01  0.122085E-01
  0.139323E-01  0.160803E-01  0.186895E-01  0.217826E-01  0.253532E-01  0.293458E-01
  0.336372E-01  0.380281E-01  0.422523E-01  0.460015E-01  0.489627E-01  0.508640E-01
  0.515197E-01  0.529079E-01  0.514420E-01  0.486709E-01  0.448813E-01  0.404300E-01
  0.356826E-01  0.309628E-01  0.265194E-01  0.225144E-01  0.190284E-01  0.160803E-01
  0.136492E-01  0.116928E-01  0.101599E-01  0.899932E-02  0.816718E-02  0.763053E-02
  0.736764E-02  0.736764E-02  0.763053E-02  0.816718E-02  0.899932E-02  0.101599E-01
  0.116928E-01  0.136492E-01  0.160803E-01  0.190284E-01  0.225144E-01  0.265194E-01
  0.309628E-01  0.356826E-01  0.404300E-01  0.448813E-01  0.486709E-01  0.514420E-01
  0.529079E-01  0.529079E-01  0.540673E-01  0.517090E-01  0.480737E-01  0.435371E-01
  0.385143E-01  0.333917E-01  0.284806E-01  0.239957E-01  0.200566E-01  0.167059E-01
  0.139323E-01  0.116928E-01  0.992880E-02  0.857856E-02  0.758691E-02  0.691011E-02
  0.651684E-02  0.638793E-02  0.651684E-02  0.691011E-02  0.758691E-02  0.857856E-02
  0.992880E-02  0.116928E-01  0.139323E-01  0.167059E-01  0.200566E-01  0.239957E-01
  0.284806E-01  0.333917E-01  0.385143E-01  0.435371E-01  0.480737E-01  0.517090E-01
  0.540673E-01  0.548851E-01  0.540673E-01  0.550879E-01  0.517979E-01  0.473298E-01
  0.421307E-01  0.366480E-01  0.312640E-01  0.262592E-01  0.218059E-01  0.179819E-01
  0.147951E-01  0.122085E-01  0.101599E-01  0.857856E-02  0.739728E-02  0.656057E-02
  0.602664E-02  0.576706E-02  0.576706E-02  0.602664E-02  0.656057E-02  0.739728E-02
  0.857856E-02  0.101599E-01  0.122085E-01  0.147951E-01  0.179819E-01  0.218059E-01
  0.262592E-01  0.312640E-01  0.366480E-01  0.421307E-01  0.473298E-01  0.517979E-01
  0.550879E-01  0.568355E-01  0.568355E-01  0.550879E-01  0.560327E-01  0.517979E-01
  0.465409E-01  0.407596E-01  0.349104E-01  0.293520E-01  0.243241E-01  0.199527E-01
  0.162747E-01  0.132659E-01  0.108663E-01  0.899932E-02  0.758691E-02  0.656057E-02
  0.586645E-02  0.546590E-02  0.533512E-02  0.546590E-02  0.586645E-02  0.656057E-02
  0.758691E-02  0.899932E-02  0.108663E-01  0.132659E-01  0.162747E-01  0.199527E-01
  0.243241E-01  0.293520E-01  0.349104E-01  0.407596E-01  0.465409E-01  0.517979E-01
  0.560327E-01  0.587897E-01  0.597475E-01  0.587897E-01  0.560327E-01  0.568679E-01
  0.517090E-01  0.457300E-01  0.394554E-01  0.333289E-01  0.276727E-01  0.226788E-01
  0.184265E-01  0.149131E-01  0.120855E-01  0.986539E-02  0.816718E-02  0.691011E-02
  0.602664E-02  0.546590E-02  0.519406E-02  0.519406E-02  0.546590E-02  0.602664E-02
  0.691011E-02  0.816718E-02  0.986539E-02  0.120855E-01  0.149131E-01  0.184265E-01
  0.226788E-01  0.276727E-01  0.333289E-01  0.394554E-01  0.457300E-01  0.517090E-01
  0.568679E-01  0.606783E-01  0.627064E-01  0.627064E-01  0.606783E-01  0.568679E-01
  0.574387E-01  0.514420E-01  0.448574E-01  0.382080E-01  0.319068E-01  0.262302E-01
  0.213214E-01  0.172157E-01  0.138755E-01  0.112247E-01  0.917299E-02  0.763053E-02
  0.651684E-02  0.576706E-02  0.533512E-02  0.519406E-02  0.533512E-02  0.576706E-02
  0.651684E-02  0.763053E-02  0.917299E-02  0.112247E-01  0.138755E-01  0.172157E-01
  0.213214E-01  0.262302E-01  0.319068E-01  0.382080E-01  0.448574E-01  0.514420E-01
  0.574387E-01  0.622761E-01  0.654290E-01  0.665249E-01  0.654290E-01  0.622761E-01
  0.574387E-01  0.575017E-01  0.508640E-01  0.438662E-01  0.370047E-01  0.306499E-01
  0.250321E-01  0.202523E-01  0.163108E-01  0.131445E-01  0.106619E-01  0.876633E-02
  0.736764E-02  0.638793E-02  0.576706E-02  0.546590E-02  0.546590E-02  0.576706E-02
  0.638793E-02  0.736764E-02  0.876633E-02  0.106619E-01  0.131445E-01  0.163108E-01
  0.202523E-01  0.250321E-01  0.306499E-01  0.370047E-01  0.438662E-01  0.508640E-01
  0.575017E-01  0.632050E-01  0.674035E-01  0.696333E-01  0.696333E-01  0.674035E-01
  0.632050E-01  0.575017E-01  0.568156E-01  0.498769E-01  0.427406E-01  0.358647E-01
  0.295832E-01  0.240952E-01  0.194764E-01  0.157070E-01  0.127092E-01  0.103835E-01
  0.863222E-02  0.736764E-02  0.651684E-02  0.602664E-02  0.586645E-02  0.602664E-02
  0.651684E-02  0.736764E-02  0.863222E-02  0.103835E-01  0.127092E-01  0.157070E-01
  0.194764E-01  0.240952E-01  0.295832E-01  0.358647E-01  0.427406E-01  0.498769E-01
  0.568156E-01  0.630182E-01  0.679382E-01  0.711044E-01  0.721976E-01  0.711044E-01
  0.679382E-01  0.630182E-01  0.568156E-01  0.552817E-01  0.485062E-01  0.415498E-01
  0.348551E-01  0.287539E-01  0.234453E-01  0.190037E-01  0.154043E-01  0.125645E-01
  0.103835E-01  0.876633E-02  0.763053E-02  0.691011E-02  0.656057E-02  0.656057E-02
  0.691011E-02  0.763053E-02  0.876633E-02  0.103835E-01  0.125645E-01  0.154043E-01
  0.190037E-01  0.234453E-01  0.287539E-01  0.348551E-01  0.415498E-01  0.485062E-01
  0.552817E-01  0.613872E-01  0.663732E-01  0.698908E-01  0.717080E-01  0.717080E-01
  0.698908E-01  0.663732E-01  0.613872E-01  0.552817E-01  0.530828E-01  0.469546E-01
  0.404561E-01  0.340824E-01  0.282213E-01  0.231108E-01  0.188446E-01  0.154043E-01
  0.127092E-01  0.106619E-01  0.917299E-02  0.816718E-02  0.758691E-02  0.739728E-02
  0.758691E-02  0.816718E-02  0.917299E-02  0.106619E-01  0.127092E-01  0.154043E-01
  0.188446E-01  0.231108E-01  0.282213E-01  0.340824E-01  0.404561E-01  0.469546E-01
  0.530828E-01  0.583611E-01  0.624783E-01  0.653482E-01  0.670240E-01  0.675742E-01
  0.670240E-01  0.653482E-01  0.624783E-01  0.583611E-01  0.530828E-01  0.507239E-01
  0.455769E-01  0.396739E-01  0.336592E-01  0.280370E-01  0.231108E-01  0.190037E-01
  0.157070E-01  0.131445E-01  0.112247E-01  0.986539E-02  0.899932E-02  0.857856E-02
  0.857856E-02  0.899932E-02  0.986539E-02  0.112247E-01  0.131445E-01  0.157070E-01
  0.190037E-01  0.231108E-01  0.280370E-01  0.336592E-01  0.396739E-01  0.455769E-01
  0.507239E-01  0.545438E-01  0.568364E-01  0.578827E-01  0.582153E-01  0.582775E-01
  0.582775E-01  0.582153E-01  0.578827E-01  0.568364E-01  0.545438E-01  0.507239E-01
  0.488983E-01  0.447609E-01  0.393886E-01  0.336592E-01  0.282213E-01  0.234453E-01
  0.194764E-01  0.163108E-01  0.138755E-01  0.120855E-01  0.108663E-01  0.101599E-01
  0.992880E-02  0.101599E-01  0.108663E-01  0.120855E-01  0.138755E-01  0.163108E-01
  0.194764E-01  0.234453E-01  0.282213E-01  0.336592E-01  0.393886E-01  0.447609E-01
  0.488983E-01  0.509991E-01  0.508616E-01  0.491591E-01  0.470574E-01  0.455148E-01
  0.449698E-01  0.455148E-01  0.470574E-01  0.491591E-01  0.508616E-01  0.509991E-01
  0.488983E-01  0.482099E-01  0.447609E-01  0.396739E-01  0.340824E-01  0.287539E-01
  0.240952E-01  0.202523E-01  0.172157E-01  0.149131E-01  0.132659E-01  0.122085E-01
  0.116928E-01  0.116928E-01  0.122085E-01  0.132659E-01  0.149131E-01  0.172157E-01
  0.202523E-01  0.240952E-01  0.287539E-01  0.340824E-01  0.396739E-01  0.447609E-01
  0.482099E-01  0.488635E-01  0.463202E-01  0.415398E-01  0.364118E-01  0.325515E-01
  0.306089E-01  0.306089E-01  0.325515E-01  0.364118E-01  0.415398E-01  0.463202E-01
  0.488635E-01  0.482099E-01  0.488983E-01  0.455769E-01  0.404561E-01  0.348551E-01
  0.295832E-01  0.250321E-01  0.213214E-01  0.184265E-01  0.162747E-01  0.147951E-01
  0.139323E-01  0.136492E-01  0.139323E-01  0.147951E-01  0.162747E-01  0.184265E-01
  0.213214E-01  0.250321E-01  0.295832E-01  0.348551E-01  0.404561E-01  0.455769E-01
  0.488983E-01  0.488635E-01  0.446285E-01  0.371396E-01  0.289467E-01  0.225160E-01
  0.188380E-01  0.176997E-01  0.188380E-01  0.225160E-01  0.289467E-01  0.371396E-01
  0.446285E-01  0.488635E-01  0.488983E-01  0.507239E-01  0.469546E-01  0.415498E-01
  0.358647E-01  0.306499E-01  0.262302E-01  0.226788E-01  0.199527E-01  0.179819E-01
  0.167059E-01  0.160803E-01  0.160803E-01  0.167059E-01  0.179819E-01  0.199527E-01
  0.226788E-01  0.262302E-01  0.306499E-01  0.358647E-01  0.415498E-01  0.469546E-01
  0.507239E-01  0.509991E-01  0.463202E-01  0.371396E-01  0.262896E-01  0.172038E-01
  0.116080E-01  0.921424E-02  0.921424E-02  0.116080E-01  0.172038E-01  0.262896E-01
  0.371396E-01  0.463202E-01  0.509991E-01  0.507239E-01  0.530828E-01  0.485062E-01
  0.427406E-01  0.370047E-01  0.319068E-01  0.276727E-01  0.243241E-01  0.218059E-01
  0.200566E-01  0.190284E-01  0.186895E-01  0.190284E-01  0.200566E-01  0.218059E-01
  0.243241E-01  0.276727E-01  0.319068E-01  0.370047E-01  0.427406E-01  0.485062E-01
  0.530828E-01  0.545438E-01  0.508616E-01  0.415398E-01  0.289467E-01  0.172038E-01
  0.923557E-02  0.529640E-02  0.420452E-02  0.529640E-02  0.923557E-02  0.172038E-01
  0.289467E-01  0.415398E-01  0.508616E-01  0.545438E-01  0.530828E-01  0.552817E-01
  0.498769E-01  0.438662E-01  0.382080E-01  0.333289E-01  0.293520E-01  0.262592E-01
  0.239957E-01  0.225144E-01  0.217826E-01  0.217826E-01  0.225144E-01  0.239957E-01
  0.262592E-01  0.293520E-01  0.333289E-01  0.382080E-01  0.438662E-01  0.498769E-01
  0.552817E-01  0.583611E-01  0.568364E-01  0.491591E-01  0.364118E-01  0.225160E-01
  0.116080E-01  0.529640E-02  0.274797E-02  0.274797E-02  0.529640E-02  0.116080E-01
  0.225160E-01  0.364118E-01  0.491591E-01  0.568364E-01  0.583611E-01  0.552817E-01
  0.568156E-01  0.508640E-01  0.448574E-01  0.394554E-01  0.349104E-01  0.312640E-01
  0.284806E-01  0.265194E-01  0.253532E-01  0.249662E-01  0.253532E-01  0.265194E-01
  0.284806E-01  0.312640E-01  0.349104E-01  0.394554E-01  0.448574E-01  0.508640E-01
  0.568156E-01  0.613872E-01  0.624783E-01  0.578827E-01  0.470574E-01  0.325515E-01
  0.188380E-01  0.921424E-02  0.420452E-02  0.274797E-02  0.420452E-02  0.921424E-02
  0.188380E-01  0.325515E-01  0.470574E-01  0.578827E-01  0.624783E-01  0.613872E-01
  0.568156E-01  0.575017E-01  0.514420E-01  0.457300E-01  0.407596E-01  0.366480E-01
  0.333917E-01  0.309628E-01  0.293458E-01  0.285372E-01  0.285372E-01  0.293458E-01
  0.309628E-01  0.333917E-01  0.366480E-01  0.407596E-01  0.457300E-01  0.514420E-01
  0.575017E-01  0.630182E-01  0.663732E-01  0.653482E-01  0.582153E-01  0.455148E-01
  0.306089E-01  0.176997E-01  0.921424E-02  0.529640E-02  0.529640E-02  0.921424E-02
  0.176997E-01  0.306089E-01  0.455148E-01  0.582153E-01  0.653482E-01  0.663732E-01
  0.630182E-01  0.575017E-01  0.574387E-01  0.517090E-01  0.465409E-01  0.421307E-01
  0.385143E-01  0.356826E-01  0.336372E-01  0.323960E-01  0.319794E-01  0.323960E-01
  0.336372E-01  0.356826E-01  0.385143E-01  0.421307E-01  0.465409E-01  0.517090E-01
  0.574387E-01  0.632050E-01  0.679382E-01  0.698908E-01  0.670240E-01  0.582775E-01
  0.449698E-01  0.306089E-01  0.188380E-01  0.116080E-01  0.923557E-02  0.116080E-01
  0.188380E-01  0.306089E-01  0.449698E-01  0.582775E-01  0.670240E-01  0.698908E-01
  0.679382E-01  0.632050E-01  0.574387E-01  0.568679E-01  0.517979E-01  0.473298E-01
  0.435371E-01  0.404300E-01  0.380281E-01  0.363776E-01  0.355338E-01  0.355338E-01
  0.363776E-01  0.380281E-01  0.404300E-01  0.435371E-01  0.473298E-01  0.517979E-01
  0.568679E-01  0.622761E-01  0.674035E-01  0.711044E-01  0.717080E-01  0.675742E-01
  0.582775E-01  0.455148E-01  0.325515E-01  0.225160E-01  0.172038E-01  0.172038E-01
  0.225160E-01  0.325515E-01  0.455148E-01  0.582775E-01  0.675742E-01  0.717080E-01
  0.711044E-01  0.674035E-01  0.622761E-01  0.568679E-01  0.560327E-01  0.517979E-01
  0.480737E-01  0.448813E-01  0.422523E-01  0.402604E-01  0.390057E-01  0.385758E-01
  0.390057E-01  0.402604E-01  0.422523E-01  0.448813E-01  0.480737E-01  0.517979E-01
  0.560327E-01  0.606783E-01  0.654290E-01  0.696333E-01  0.721976E-01  0.717080E-01
  0.670240E-01  0.582153E-01  0.470574E-01  0.364118E-01  0.289467E-01  0.262896E-01
  0.289467E-01  0.364118E-01  0.470574E-01  0.582153E-01  0.670240E-01  0.717080E-01
  0.721976E-01  0.696333E-01  0.654290E-01  0.606783E-01  0.560327E-01  0.550879E-01
  0.517090E-01  0.486709E-01  0.460015E-01  0.437894E-01  0.421785E-01  0.413227E-01
  0.413227E-01  0.421785E-01  0.437894E-01  0.460015E-01  0.486709E-01  0.517090E-01
  0.550879E-01  0.587897E-01  0.627064E-01  0.665249E-01  0.696333E-01  0.711044E-01
  0.698908E-01  0.653482E-01  0.578827E-01  0.491591E-01  0.415398E-01  0.371396E-01
  0.371396E-01  0.415398E-01  0.491591E-01  0.578827E-01  0.653482E-01  0.698908E-01
  0.711044E-01  0.696333E-01  0.665249E-01  0.627064E-01  0.587897E-01  0.550879E-01
  0.540673E-01  0.514420E-01  0.489627E-01  0.467080E-01  0.448480E-01  0.436027E-01
  0.431624E-01  0.436027E-01  0.448480E-01  0.467080E-01  0.489627E-01  0.514420E-01
  0.540673E-01  0.568355E-01  0.597475E-01  0.627064E-01  0.654290E-01  0.674035E-01
  0.679382E-01  0.663732E-01  0.624783E-01  0.568364E-01  0.508616E-01  0.463202E-01
  0.446285E-01  0.463202E-01  0.508616E-01  0.568364E-01  0.624783E-01  0.663732E-01
  0.679382E-01  0.674035E-01  0.654290E-01  0.627064E-01  0.597475E-01  0.568355E-01
  0.540673E-01  0.529079E-01  0.508640E-01  0.487920E-01  0.468528E-01  0.453100E-01
  0.444460E-01  0.444460E-01  0.453100E-01  0.468528E-01  0.487920E-01  0.508640E-01
  0.529079E-01  0.548851E-01  0.568355E-01  0.587897E-01  0.606783E-01  0.622761E-01
  0.632050E-01  0.630182E-01  0.613872E-01  0.583611E-01  0.545438E-01  0.509991E-01
  0.488635E-01  0.488635E-01  0.509991E-01  0.545438E-01  0.583611E-01  0.613872E-01
  0.630182E-01  0.632050E-01  0.622761E-01  0.606783E-01  0.587897E-01  0.568355E-01
  0.548851E-01  0.529079E-01  0.515197E-01  0.498769E-01  0.480893E-01  0.464178E-01
  0.452097E-01  0.447669E-01  0.452097E-01  0.464178E-01  0.480893E-01  0.498769E-01
  0.515197E-01  0.529079E-01  0.540673E-01  0.550879E-01  0.560327E-01  0.568679E-01
  0.574387E-01  0.575017E-01  0.568156E-01  0.552817E-01  0.530828E-01  0.507239E-01
  0.488983E-01  0.482099E-01  0.488983E-01  0.507239E-01  0.530828E-01  0.552817E-01
  0.568156E-01  0.575017E-01  0.574387E-01  0.568679E-01  0.560327E-01  0.550879E-01
  0.540673E-01  0.529079E-01  0.515197E-01  0.574800E-01  0.552817E-01  0.528013E-01
  0.506023E-01  0.493009E-01  0.493009E-01  0.506023E-01  0.528013E-01  0.552817E-01
  0.574800E-01  0.590754E-01  0.600270E-01  0.604839E-01  0.606462E-01  0.606462E-01
  0.604839E-01  0.600270E-01  0.590754E-01  0.574800E-01  0.552817E-01  0.528013E-01
  0.506023E-01  0.493009E-01  0.493009E-01  0.506023E-01  0.528013E-01  0.552817E-01
  0.574800E-01  0.590754E-01  0.600270E-01  0.604839E-01  0.606462E-01  0.606462E-01
  0.604839E-01  0.600270E-01  0.590754E-01  0.574800E-01  0.552817E-01  0.530828E-01
  0.507239E-01  0.488983E-01  0.482099E-01  0.488983E-01  0.507239E-01  0.530828E-01
  0.552817E-01  0.568156E-01  0.575017E-01  0.574387E-01  0.568679E-01  0.560327E-01
  0.550879E-01  0.540673E-01  0.529079E-01  0.515197E-01  0.498769E-01  0.480893E-01
  0.464178E-01  0.452097E-01  0.447669E-01  0.452097E-01  0.464178E-01  0.480893E-01
  0.498769E-01  0.515197E-01  0.529079E-01  0.540673E-01  0.550879E-01  0.560327E-01
  0.568679E-01  0.574387E-01  0.575017E-01  0.568156E-01  0.552817E-01  0.528013E-01
  0.507239E-01  0.487128E-01  0.474762E-01  0.474762E-01  0.487128E-01  0.507239E-01
  0.528013E-01  0.543009E-01  0.548749E-01  0.545156E-01  0.534452E-01  0.519600E-01
  0.503138E-01  0.486604E-01  0.470481E-01  0.454580E-01  0.438662E-01  0.423022E-01
  0.408752E-01  0.397597E-01  0.391413E-01  0.391413E-01  0.397597E-01  0.408752E-01
  0.423022E-01  0.438662E-01  0.454580E-01  0.470481E-01  0.486604E-01  0.503138E-01
  0.519600E-01  0.534452E-01  0.545156E-01  0.548749E-01  0.543009E-01  0.528013E-01
  0.506023E-01  0.488983E-01  0.474762E-01  0.469246E-01  0.474762E-01  0.488983E-01
  0.506023E-01  0.519159E-01  0.523649E-01  0.518117E-01  0.504091E-01  0.484545E-01
  0.462530E-01  0.440356E-01  0.419329E-01  0.399896E-01  0.382080E-01  0.365948E-01
  0.351910E-01  0.340757E-01  0.333482E-01  0.330943E-01  0.333482E-01  0.340757E-01
  0.351910E-01  0.365948E-01  0.382080E-01  0.399896E-01  0.419329E-01  0.440356E-01
  0.462530E-01  0.484545E-01  0.504091E-01  0.518117E-01  0.523649E-01  0.519159E-01
  0.506023E-01  0.493009E-01  0.482099E-01  0.474762E-01  0.474762E-01  0.482099E-01
  0.493009E-01  0.501780E-01  0.503393E-01  0.495484E-01  0.478670E-01  0.455524E-01
  0.429191E-01  0.402392E-01  0.376963E-01  0.353829E-01  0.333289E-01  0.315413E-01
  0.300334E-01  0.288360E-01  0.279945E-01  0.275575E-01  0.275575E-01  0.279945E-01
  0.288360E-01  0.300334E-01  0.315413E-01  0.333289E-01  0.353829E-01  0.376963E-01
  0.402392E-01  0.429191E-01  0.455524E-01  0.478670E-01  0.495484E-01  0.503393E-01
  0.501780E-01  0.493009E-01  0.493009E-01  0.488983E-01  0.487128E-01  0.488983E-01
  0.493009E-01  0.495387E-01  0.491959E-01  0.480180E-01  0.459997E-01  0.433411E-01
  0.403349E-01  0.372637E-01  0.343394E-01  0.316852E-01  0.293520E-01  0.273512E-01
  0.256847E-01  0.243589E-01  0.233881E-01  0.227923E-01  0.225910E-01  0.227923E-01
  0.233881E-01  0.243589E-01  0.256847E-01  0.273512E-01  0.293520E-01  0.316852E-01
  0.343394E-01  0.372637E-01  0.403349E-01  0.433411E-01  0.459997E-01  0.480180E-01
  0.491959E-01  0.495387E-01  0.493009E-01  0.506023E-01  0.507239E-01  0.507239E-01
  0.506023E-01  0.501780E-01  0.491959E-01  0.474742E-01  0.450023E-01  0.419419E-01
  0.385542E-01  0.351117E-01  0.318344E-01  0.288622E-01  0.262592E-01  0.240400E-01
  0.221988E-01  0.207273E-01  0.196203E-01  0.188777E-01  0.185039E-01  0.185039E-01
  0.188777E-01  0.196203E-01  0.207273E-01  0.221988E-01  0.240400E-01  0.262592E-01
  0.288622E-01  0.318344E-01  0.351117E-01  0.385542E-01  0.419419E-01  0.450023E-01
  0.474742E-01  0.491959E-01  0.501780E-01  0.506023E-01  0.528013E-01  0.530828E-01
  0.528013E-01  0.519159E-01  0.503393E-01  0.480180E-01  0.450023E-01  0.414614E-01
  0.376421E-01  0.338044E-01  0.301662E-01  0.268728E-01  0.239957E-01  0.215508E-01
  0.195261E-01  0.179012E-01  0.166561E-01  0.157751E-01  0.152485E-01  0.150732E-01
  0.152485E-01  0.157751E-01  0.166561E-01  0.179012E-01  0.195261E-01  0.215508E-01
  0.239957E-01  0.268728E-01  0.301662E-01  0.338044E-01  0.376421E-01  0.414614E-01
  0.450023E-01  0.480180E-01  0.503393E-01  0.519159E-01  0.528013E-01  0.552817E-01
  0.552817E-01  0.543009E-01  0.523649E-01  0.495484E-01  0.459997E-01  0.419419E-01
  0.376421E-01  0.333654E-01  0.293317E-01  0.256898E-01  0.225144E-01  0.198220E-01
  0.175953E-01  0.158036E-01  0.144142E-01  0.133973E-01  0.127303E-01  0.123997E-01
  0.123997E-01  0.127303E-01  0.133973E-01  0.144142E-01  0.158036E-01  0.175953E-01
  0.198220E-01  0.225144E-01  0.256898E-01  0.293317E-01  0.333654E-01  0.376421E-01
  0.419419E-01  0.459997E-01  0.495484E-01  0.523649E-01  0.543009E-01  0.552817E-01
  0.574800E-01  0.568156E-01  0.548749E-01  0.518117E-01  0.478670E-01  0.433411E-01
  0.385542E-01  0.338044E-01  0.293317E-01  0.252973E-01  0.217826E-01  0.188058E-01
  0.163457E-01  0.143630E-01  0.128134E-01  0.116543E-01  0.108505E-01  0.103772E-01
  0.102209E-01  0.103772E-01  0.108505E-01  0.116543E-01  0.128134E-01  0.143630E-01
  0.163457E-01  0.188058E-01  0.217826E-01  0.252973E-01  0.293317E-01  0.338044E-01
  0.385542E-01  0.433411E-01  0.478670E-01  0.518117E-01  0.548749E-01  0.568156E-01
  0.574800E-01  0.590754E-01  0.575017E-01  0.545156E-01  0.504091E-01  0.455524E-01
  0.403349E-01  0.351117E-01  0.301662E-01  0.256898E-01  0.217826E-01  0.184709E-01
  0.157331E-01  0.135234E-01  0.117870E-01  0.104694E-01  0.952289E-02  0.891116E-02
  0.861087E-02  0.861087E-02  0.891116E-02  0.952289E-02  0.104694E-01  0.117870E-01
  0.135234E-01  0.157331E-01  0.184709E-01  0.217826E-01  0.256898E-01  0.301662E-01
  0.351117E-01  0.403349E-01  0.455524E-01  0.504091E-01  0.545156E-01  0.575017E-01
  0.590754E-01  0.590754E-01  0.600270E-01  0.574387E-01  0.534452E-01  0.484545E-01
  0.429191E-01  0.372637E-01  0.318344E-01  0.268728E-01  0.225144E-01  0.188058E-01
  0.157331E-01  0.132479E-01  0.112867E-01  0.978353E-02  0.867820E-02  0.792256E-02
  0.748257E-02  0.733812E-02  0.748257E-02  0.792256E-02  0.867820E-02  0.978353E-02
  0.112867E-01  0.132479E-01  0.157331E-01  0.188058E-01  0.225144E-01  0.268728E-01
  0.318344E-01  0.372637E-01  0.429191E-01  0.484545E-01  0.534452E-01  0.574387E-01
  0.600270E-01  0.609241E-01  0.600270E-01  0.604839E-01  0.568679E-01  0.519600E-01
  0.462530E-01  0.402392E-01  0.343394E-01  0.288622E-01  0.239957E-01  0.198220E-01
  0.163457E-01  0.135234E-01  0.112867E-01  0.955913E-02  0.826793E-02  0.735256E-02
  0.676762E-02  0.648284E-02  0.648284E-02  0.676762E-02  0.735256E-02  0.826793E-02
  0.955913E-02  0.112867E-01  0.135234E-01  0.163457E-01  0.198220E-01  0.239957E-01
  0.288622E-01  0.343394E-01  0.402392E-01  0.462530E-01  0.519600E-01  0.568679E-01
  0.604839E-01  0.624055E-01  0.624055E-01  0.604839E-01  0.606462E-01  0.560327E-01
  0.503138E-01  0.440356E-01  0.376963E-01  0.316852E-01  0.262592E-01  0.215508E-01
  0.175953E-01  0.143630E-01  0.117870E-01  0.978353E-02  0.826793E-02  0.716628E-02
  0.642083E-02  0.599045E-02  0.584988E-02  0.599045E-02  0.642083E-02  0.716628E-02
  0.826793E-02  0.978353E-02  0.117870E-01  0.143630E-01  0.175953E-01  0.215508E-01
  0.262592E-01  0.316852E-01  0.376963E-01  0.440356E-01  0.503138E-01  0.560327E-01
  0.606462E-01  0.636529E-01  0.646979E-01  0.636529E-01  0.606462E-01  0.606462E-01
  0.550879E-01  0.486604E-01  0.419329E-01  0.353829E-01  0.293520E-01  0.240400E-01
  0.195261E-01  0.158036E-01  0.128134E-01  0.104694E-01  0.867820E-02  0.735256E-02
  0.642083E-02  0.582963E-02  0.554320E-02  0.554320E-02  0.582963E-02  0.642083E-02
  0.735256E-02  0.867820E-02  0.104694E-01  0.128134E-01  0.158036E-01  0.195261E-01
  0.240400E-01  0.293520E-01  0.353829E-01  0.419329E-01  0.486604E-01  0.550879E-01
  0.606462E-01  0.647584E-01  0.669492E-01  0.669492E-01  0.647584E-01  0.606462E-01
  0.604839E-01  0.540673E-01  0.470481E-01  0.399896E-01  0.333289E-01  0.273512E-01
  0.221988E-01  0.179012E-01  0.144142E-01  0.116543E-01  0.952289E-02  0.792256E-02
  0.676762E-02  0.599045E-02  0.554320E-02  0.539729E-02  0.554320E-02  0.599045E-02
  0.676762E-02  0.792256E-02  0.952289E-02  0.116543E-01  0.144142E-01  0.179012E-01
  0.221988E-01  0.273512E-01  0.333289E-01  0.399896E-01  0.470481E-01  0.540673E-01
  0.604839E-01  0.656757E-01  0.690668E-01  0.702468E-01  0.690668E-01  0.656757E-01
  0.604839E-01  0.600270E-01  0.529079E-01  0.454580E-01  0.382080E-01  0.315413E-01
  0.256847E-01  0.207273E-01  0.166561E-01  0.133973E-01  0.108505E-01  0.891116E-02
  0.748257E-02  0.648284E-02  0.584988E-02  0.554320E-02  0.554320E-02  0.584988E-02
  0.648284E-02  0.748257E-02  0.891116E-02  0.108505E-01  0.133973E-01  0.166561E-01
  0.207273E-01  0.256847E-01  0.315413E-01  0.382080E-01  0.454580E-01  0.529079E-01
  0.600270E-01  0.661851E-01  0.707429E-01  0.731719E-01  0.731719E-01  0.707429E-01
  0.661851E-01  0.600270E-01  0.590754E-01  0.515197E-01  0.438662E-01  0.365948E-01
  0.300334E-01  0.243589E-01  0.196203E-01  0.157751E-01  0.127303E-01  0.103772E-01
  0.861087E-02  0.733812E-02  0.648284E-02  0.599045E-02  0.582963E-02  0.599045E-02
  0.648284E-02  0.733812E-02  0.861087E-02  0.103772E-01  0.127303E-01  0.157751E-01
  0.196203E-01  0.243589E-01  0.300334E-01  0.365948E-01  0.438662E-01  0.515197E-01
  0.590754E-01  0.659339E-01  0.714496E-01  0.750361E-01  0.762812E-01  0.750361E-01
  0.714496E-01  0.659339E-01  0.590754E-01  0.574800E-01  0.498769E-01  0.423022E-01
  0.351910E-01  0.288360E-01  0.233881E-01  0.188777E-01  0.152485E-01  0.123997E-01
  0.102209E-01  0.861087E-02  0.748257E-02  0.676762E-02  0.642083E-02  0.642083E-02
  0.676762E-02  0.748257E-02  0.861087E-02  0.102209E-01  0.123997E-01  0.152485E-01
  0.188777E-01  0.233881E-01  0.288360E-01  0.351910E-01  0.423022E-01  0.498769E-01
  0.574800E-01  0.645673E-01  0.705538E-01  0.748986E-01  0.771851E-01  0.771851E-01
  0.748986E-01  0.705538E-01  0.645673E-01  0.574800E-01  0.552817E-01  0.480893E-01
  0.408752E-01  0.340757E-01  0.279945E-01  0.227923E-01  0.185039E-01  0.150732E-01
  0.123997E-01  0.103772E-01  0.891116E-02  0.792256E-02  0.735256E-02  0.716628E-02
  0.735256E-02  0.792256E-02  0.891116E-02  0.103772E-01  0.123997E-01  0.150732E-01
  0.185039E-01  0.227923E-01  0.279945E-01  0.340757E-01  0.408752E-01  0.480893E-01
  0.552817E-01  0.619451E-01  0.676030E-01  0.718885E-01  0.745563E-01  0.754621E-01
  0.745563E-01  0.718885E-01  0.676030E-01  0.619451E-01  0.552817E-01  0.528013E-01
  0.464178E-01  0.397597E-01  0.333482E-01  0.275575E-01  0.225910E-01  0.185039E-01
  0.152485E-01  0.127303E-01  0.108505E-01  0.952289E-02  0.867820E-02  0.826793E-02
  0.826793E-02  0.867820E-02  0.952289E-02  0.108505E-01  0.127303E-01  0.152485E-01
  0.185039E-01  0.225910E-01  0.275575E-01  0.333482E-01  0.397597E-01  0.464178E-01
  0.528013E-01  0.583611E-01  0.627192E-01  0.657915E-01  0.677088E-01  0.686281E-01
  0.686281E-01  0.677088E-01  0.657915E-01  0.627192E-01  0.583611E-01  0.528013E-01
  0.506023E-01  0.452097E-01  0.391413E-01  0.330943E-01  0.275575E-01  0.227923E-01
  0.188777E-01  0.157751E-01  0.133973E-01  0.116543E-01  0.104694E-01  0.978353E-02
  0.955913E-02  0.978353E-02  0.104694E-01  0.116543E-01  0.133973E-01  0.157751E-01
  0.188777E-01  0.227923E-01  0.275575E-01  0.330943E-01  0.391413E-01  0.452097E-01
  0.506023E-01  0.546014E-01  0.568364E-01  0.575480E-01  0.574207E-01  0.571157E-01
  0.569845E-01  0.571157E-01  0.574207E-01  0.575480E-01  0.568364E-01  0.546014E-01
  0.506023E-01  0.493009E-01  0.447669E-01  0.391413E-01  0.333482E-01  0.279945E-01
  0.233881E-01  0.196203E-01  0.166561E-01  0.144142E-01  0.128134E-01  0.117870E-01
  0.112867E-01  0.112867E-01  0.117870E-01  0.128134E-01  0.144142E-01  0.166561E-01
  0.196203E-01  0.233881E-01  0.279945E-01  0.333482E-01  0.391413E-01  0.447669E-01
  0.493009E-01  0.517269E-01  0.515141E-01  0.491591E-01  0.460107E-01  0.434075E-01
  0.420342E-01  0.420342E-01  0.434075E-01  0.460107E-01  0.491591E-01  0.515141E-01
  0.517269E-01  0.493009E-01  0.493009E-01  0.452097E-01  0.397597E-01  0.340757E-01
  0.288360E-01  0.243589E-01  0.207273E-01  0.179012E-01  0.158036E-01  0.143630E-01
  0.135234E-01  0.132479E-01  0.135234E-01  0.143630E-01  0.158036E-01  0.179012E-01
  0.207273E-01  0.243589E-01  0.288360E-01  0.340757E-01  0.397597E-01  0.452097E-01
  0.493009E-01  0.506492E-01  0.483544E-01  0.429449E-01  0.364118E-01  0.309426E-01
  0.276550E-01  0.266057E-01  0.276550E-01  0.309426E-01  0.364118E-01  0.429449E-01
  0.483544E-01  0.506492E-01  0.493009E-01  0.506023E-01  0.464178E-01  0.408752E-01
  0.351910E-01  0.300334E-01  0.256847E-01  0.221988E-01  0.195261E-01  0.175953E-01
  0.163457E-01  0.157331E-01  0.157331E-01  0.163457E-01  0.175953E-01  0.195261E-01
  0.221988E-01  0.256847E-01  0.300334E-01  0.351910E-01  0.408752E-01  0.464178E-01
  0.506023E-01  0.517269E-01  0.483544E-01  0.406607E-01  0.310013E-01  0.225160E-01
  0.170378E-01  0.145923E-01  0.145923E-01  0.170378E-01  0.225160E-01  0.310013E-01
  0.406607E-01  0.483544E-01  0.517269E-01  0.506023E-01  0.528013E-01  0.480893E-01
  0.423022E-01  0.365948E-01  0.315413E-01  0.273512E-01  0.240400E-01  0.215508E-01
  0.198220E-01  0.188058E-01  0.184709E-01  0.188058E-01  0.198220E-01  0.215508E-01
  0.240400E-01  0.273512E-01  0.315413E-01  0.365948E-01  0.423022E-01  0.480893E-01
  0.528013E-01  0.546014E-01  0.515141E-01  0.429449E-01  0.310013E-01  0.195777E-01
  0.116080E-01  0.754337E-02  0.638750E-02  0.754337E-02  0.116080E-01  0.195777E-01
  0.310013E-01  0.429449E-01  0.515141E-01  0.546014E-01  0.528013E-01  0.552817E-01
  0.498769E-01  0.438662E-01  0.382080E-01  0.333289E-01  0.293520E-01  0.262592E-01
  0.239957E-01  0.225144E-01  0.217826E-01  0.217826E-01  0.225144E-01  0.239957E-01
  0.262592E-01  0.293520E-01  0.333289E-01  0.382080E-01  0.438662E-01  0.498769E-01
  0.552817E-01  0.583611E-01  0.568364E-01  0.491591E-01  0.364118E-01  0.225160E-01
  0.116080E-01  0.529640E-02  0.274797E-02  0.274797E-02  0.529640E-02  0.116080E-01
  0.225160E-01  0.364118E-01  0.491591E-01  0.568364E-01  0.583611E-01  0.552817E-01
  0.574800E-01  0.515197E-01  0.454580E-01  0.399896E-01  0.353829E-01  0.316852E-01
  0.288622E-01  0.268728E-01  0.256898E-01  0.252973E-01  0.256898E-01  0.268728E-01
  0.288622E-01  0.316852E-01  0.353829E-01  0.399896E-01  0.454580E-01  0.515197E-01
  0.574800E-01  0.619451E-01  0.627192E-01  0.575480E-01  0.460107E-01  0.309426E-01
  0.170378E-01  0.754337E-02  0.274797E-02  0.138655E-02  0.274797E-02  0.754337E-02
  0.170378E-01  0.309426E-01  0.460107E-01  0.575480E-01  0.627192E-01  0.619451E-01
  0.574800E-01  0.590754E-01  0.529079E-01  0.470481E-01  0.419329E-01  0.376963E-01
  0.343394E-01  0.318344E-01  0.301662E-01  0.293317E-01  0.293317E-01  0.301662E-01
  0.318344E-01  0.343394E-01  0.376963E-01  0.419329E-01  0.470481E-01  0.529079E-01
  0.590754E-01  0.645673E-01  0.676030E-01  0.657915E-01  0.574207E-01  0.434075E-01
  0.276550E-01  0.145923E-01  0.638750E-02  0.274797E-02  0.274797E-02  0.638750E-02
  0.145923E-01  0.276550E-01  0.434075E-01  0.574207E-01  0.657915E-01  0.676030E-01
  0.645673E-01  0.590754E-01  0.600270E-01  0.540673E-01  0.486604E-01  0.440356E-01
  0.402392E-01  0.372637E-01  0.351117E-01  0.338044E-01  0.333654E-01  0.338044E-01
  0.351117E-01  0.372637E-01  0.402392E-01  0.440356E-01  0.486604E-01  0.540673E-01
  0.600270E-01  0.659339E-01  0.705538E-01  0.718885E-01  0.677088E-01  0.571157E-01
  0.420342E-01  0.266057E-01  0.145923E-01  0.754337E-02  0.529640E-02  0.754337E-02
  0.145923E-01  0.266057E-01  0.420342E-01  0.571157E-01  0.677088E-01  0.718885E-01
  0.705538E-01  0.659339E-01  0.600270E-01  0.604839E-01  0.550879E-01  0.503138E-01
  0.462530E-01  0.429191E-01  0.403349E-01  0.385542E-01  0.376421E-01  0.376421E-01
  0.385542E-01  0.403349E-01  0.429191E-01  0.462530E-01  0.503138E-01  0.550879E-01
  0.604839E-01  0.661851E-01  0.714496E-01  0.748986E-01  0.745563E-01  0.686281E-01
  0.569845E-01  0.420342E-01  0.276550E-01  0.170378E-01  0.116080E-01  0.116080E-01
  0.170378E-01  0.276550E-01  0.420342E-01  0.569845E-01  0.686281E-01  0.745563E-01
  0.748986E-01  0.714496E-01  0.661851E-01  0.604839E-01  0.606462E-01  0.560327E-01
  0.519600E-01  0.484545E-01  0.455524E-01  0.433411E-01  0.419419E-01  0.414614E-01
  0.419419E-01  0.433411E-01  0.455524E-01  0.484545E-01  0.519600E-01  0.560327E-01
  0.606462E-01  0.656757E-01  0.707429E-01  0.750361E-01  0.771851E-01  0.754621E-01
  0.686281E-01  0.571157E-01  0.434075E-01  0.309426E-01  0.225160E-01  0.195777E-01
  0.225160E-01  0.309426E-01  0.434075E-01  0.571157E-01  0.686281E-01  0.754621E-01
  0.771851E-01  0.750361E-01  0.707429E-01  0.656757E-01  0.606462E-01  0.606462E-01
  0.568679E-01  0.534452E-01  0.504091E-01  0.478670E-01  0.459997E-01  0.450023E-01
  0.450023E-01  0.459997E-01  0.478670E-01  0.504091E-01  0.534452E-01  0.568679E-01
  0.606462E-01  0.647584E-01  0.690668E-01  0.731719E-01  0.762812E-01  0.771851E-01
  0.745563E-01  0.677088E-01  0.574207E-01  0.460107E-01  0.364118E-01  0.310013E-01
  0.310013E-01  0.364118E-01  0.460107E-01  0.574207E-01  0.677088E-01  0.745563E-01
  0.771851E-01  0.762812E-01  0.731719E-01  0.690668E-01  0.647584E-01  0.606462E-01
  0.604839E-01  0.574387E-01  0.545156E-01  0.518117E-01  0.495484E-01  0.480180E-01
  0.474742E-01  0.480180E-01  0.495484E-01  0.518117E-01  0.545156E-01  0.574387E-01
  0.604839E-01  0.636529E-01  0.669492E-01  0.702468E-01  0.731719E-01  0.750361E-01
  0.748986E-01  0.718885E-01  0.657915E-01  0.575480E-01  0.491591E-01  0.429449E-01
  0.406607E-01  0.429449E-01  0.491591E-01  0.575480E-01  0.657915E-01  0.718885E-01
  0.748986E-01  0.750361E-01  0.731719E-01  0.702468E-01  0.669492E-01  0.636529E-01
  0.604839E-01  0.600270E-01  0.575017E-01  0.548749E-01  0.523649E-01  0.503393E-01
  0.491959E-01  0.491959E-01  0.503393E-01  0.523649E-01  0.548749E-01  0.575017E-01
  0.600270E-01  0.624055E-01  0.646979E-01  0.669492E-01  0.690668E-01  0.707429E-01
  0.714496E-01  0.705538E-01  0.676030E-01  0.627192E-01  0.568364E-01  0.515141E-01
  0.483544E-01  0.483544E-01  0.515141E-01  0.568364E-01  0.627192E-01  0.676030E-01
  0.705538E-01  0.714496E-01  0.707429E-01  0.690668E-01  0.669492E-01  0.646979E-01
  0.624055E-01  0.600270E-01  0.590754E-01  0.568156E-01  0.543009E-01  0.519159E-01
  0.501780E-01  0.495387E-01  0.501780E-01  0.519159E-01  0.543009E-01  0.568156E-01
  0.590754E-01  0.609241E-01  0.624055E-01  0.636529E-01  0.647584E-01  0.656757E-01
  0.661851E-01  0.659339E-01  0.645673E-01  0.619451E-01  0.583611E-01  0.546014E-01
  0.517269E-01  0.506492E-01  0.517269E-01  0.546014E-01  0.583611E-01  0.619451E-01
  0.645673E-01  0.659339E-01  0.661851E-01  0.656757E-01  0.647584E-01  0.636529E-01
  0.624055E-01  0.609241E-01  0.590754E-01  0.574800E-01  0.552817E-01  0.528013E-01
  0.506023E-01  0.493009E-01  0.493009E-01  0.506023E-01  0.528013E-01  0.552817E-01
  0.574800E-01  0.590754E-01  0.600270E-01  0.604839E-01  0.606462E-01  0.606462E-01
  0.604839E-01  0.600270E-01  0.590754E-01  0.574800E-01  0.552817E-01  0.528013E-01
  0.506023E-01  0.493009E-01  0.493009E-01  0.506023E-01  0.528013E-01  0.552817E-01
  0.574800E-01  0.590754E-01  0.600270E-01  0.604839E-01  0.606462E-01  0.606462E-01
  0.604839E-01  0.600270E-01  0.590754E-01  0.574800E-01  0.619451E-01  0.583611E-01
  0.546014E-01  0.517269E-01  0.506492E-01  0.517269E-01  0.546014E-01  0.583611E-01
  0.619451E-01  0.645673E-01  0.659339E-01  0.661851E-01  0.656757E-01  0.647584E-01
  0.636529E-01  0.624055E-01  0.609241E-01  0.590754E-01  0.568156E-01  0.543009E-01
  0.519159E-01  0.501780E-01  0.495387E-01  0.501780E-01  0.519159E-01  0.543009E-01
  0.568156E-01  0.590754E-01  0.609241E-01  0.624055E-01  0.636529E-01  0.647584E-01
  0.656757E-01  0.661851E-01  0.659339E-01  0.645673E-01  0.619451E-01  0.583611E-01
  0.545438E-01  0.509991E-01  0.488635E-01  0.488635E-01  0.509991E-01  0.545438E-01
  0.583611E-01  0.613872E-01  0.630182E-01  0.632050E-01  0.622761E-01  0.606783E-01
  0.587897E-01  0.568355E-01  0.548851E-01  0.529079E-01  0.508640E-01  0.487920E-01
  0.468528E-01  0.453100E-01  0.444460E-01  0.444460E-01  0.453100E-01  0.468528E-01
  0.487920E-01  0.508640E-01  0.529079E-01  0.548851E-01  0.568355E-01  0.587897E-01
  0.606783E-01  0.622761E-01  0.632050E-01  0.630182E-01  0.613872E-01  0.583611E-01
  0.546014E-01  0.509991E-01  0.481674E-01  0.470956E-01  0.481674E-01  0.509991E-01
  0.546014E-01  0.578006E-01  0.597184E-01  0.600428E-01  0.589724E-01  0.569632E-01
  0.544867E-01  0.518974E-01  0.493951E-01  0.470481E-01  0.448574E-01  0.428288E-01
  0.410217E-01  0.395568E-01  0.385879E-01  0.382473E-01  0.385879E-01  0.395568E-01
  0.410217E-01  0.428288E-01  0.448574E-01  0.470481E-01  0.493951E-01  0.518974E-01
  0.544867E-01  0.569632E-01  0.589724E-01  0.600428E-01  0.597184E-01  0.578006E-01
  0.546014E-01  0.517269E-01  0.488635E-01  0.470956E-01  0.470956E-01  0.488635E-01
  0.517269E-01  0.546239E-01  0.565560E-01  0.569731E-01  0.558770E-01  0.536455E-01
  0.507738E-01  0.476928E-01  0.446955E-01  0.419329E-01  0.394554E-01  0.372727E-01
  0.354038E-01  0.338965E-01  0.328235E-01  0.322616E-01  0.322616E-01  0.328235E-01
  0.338965E-01  0.354038E-01  0.372727E-01  0.394554E-01  0.419329E-01  0.446955E-01
  0.476928E-01  0.507738E-01  0.536455E-01  0.558770E-01  0.569731E-01  0.565560E-01
  0.546239E-01  0.517269E-01  0.506492E-01  0.488635E-01  0.481674E-01  0.488635E-01
  0.506492E-01  0.527459E-01  0.542387E-01  0.544693E-01  0.532575E-01  0.508473E-01
  0.476896E-01  0.442373E-01  0.408364E-01  0.376963E-01  0.349104E-01  0.325035E-01
  0.304811E-01  0.288564E-01  0.276556E-01  0.269134E-01  0.266616E-01  0.269134E-01
  0.276556E-01  0.288564E-01  0.304811E-01  0.325035E-01  0.349104E-01  0.376963E-01
  0.408364E-01  0.442373E-01  0.476896E-01  0.508473E-01  0.532575E-01  0.544693E-01
  0.542387E-01  0.527459E-01  0.506492E-01  0.517269E-01  0.509991E-01  0.509991E-01
  0.517269E-01  0.527459E-01  0.533843E-01  0.530477E-01  0.514730E-01  0.487790E-01
  0.453310E-01  0.415549E-01  0.378107E-01  0.343394E-01  0.312640E-01  0.286236E-01
  0.264192E-01  0.246455E-01  0.233027E-01  0.223969E-01  0.219393E-01  0.219393E-01
  0.223969E-01  0.233027E-01  0.246455E-01  0.264192E-01  0.286236E-01  0.312640E-01
  0.343394E-01  0.378107E-01  0.415549E-01  0.453310E-01  0.487790E-01  0.514730E-01
  0.530477E-01  0.533843E-01  0.527459E-01  0.517269E-01  0.546014E-01  0.545438E-01
  0.546014E-01  0.546239E-01  0.542387E-01  0.530477E-01  0.508366E-01  0.476698E-01
  0.438342E-01  0.397039E-01  0.356215E-01  0.318344E-01  0.284806E-01  0.256084E-01
  0.232158E-01  0.212845E-01  0.197969E-01  0.187397E-01  0.181058E-01  0.178943E-01
  0.181058E-01  0.187397E-01  0.197969E-01  0.212845E-01  0.232158E-01  0.256084E-01
  0.284806E-01  0.318344E-01  0.356215E-01  0.397039E-01  0.438342E-01  0.476698E-01
  0.508366E-01  0.530477E-01  0.542387E-01  0.546239E-01  0.546014E-01  0.583611E-01
  0.583611E-01  0.578006E-01  0.565560E-01  0.544693E-01  0.514730E-01  0.476698E-01
  0.433193E-01  0.387548E-01  0.342911E-01  0.301662E-01  0.265194E-01  0.234026E-01
  0.208102E-01  0.187131E-01  0.170787E-01  0.158779E-01  0.150880E-01  0.146957E-01
  0.146957E-01  0.150880E-01  0.158779E-01  0.170787E-01  0.187131E-01  0.208102E-01
  0.234026E-01  0.265194E-01  0.301662E-01  0.342911E-01  0.387548E-01  0.433193E-01
  0.476698E-01  0.514730E-01  0.544693E-01  0.565560E-01  0.578006E-01  0.583611E-01
  0.619451E-01  0.613872E-01  0.597184E-01  0.569731E-01  0.532575E-01  0.487790E-01
  0.438342E-01  0.387548E-01  0.338443E-01  0.293317E-01  0.253532E-01  0.219592E-01
  0.191404E-01  0.168580E-01  0.150659E-01  0.137207E-01  0.127854E-01  0.122337E-01
  0.120513E-01  0.122337E-01  0.127854E-01  0.137207E-01  0.150659E-01  0.168580E-01
  0.191404E-01  0.219592E-01  0.253532E-01  0.293317E-01  0.338443E-01  0.387548E-01
  0.438342E-01  0.487790E-01  0.532575E-01  0.569731E-01  0.597184E-01  0.613872E-01
  0.619451E-01  0.645673E-01  0.630182E-01  0.600428E-01  0.558770E-01  0.508473E-01
  0.453310E-01  0.397039E-01  0.342911E-01  0.293317E-01  0.249662E-01  0.212463E-01
  0.181593E-01  0.156585E-01  0.136859E-01  0.121843E-01  0.111031E-01  0.104031E-01
  0.100589E-01  0.100589E-01  0.104031E-01  0.111031E-01  0.121843E-01  0.136859E-01
  0.156585E-01  0.181593E-01  0.212463E-01  0.249662E-01  0.293317E-01  0.342911E-01
  0.397039E-01  0.453310E-01  0.508473E-01  0.558770E-01  0.600428E-01  0.630182E-01
  0.645673E-01  0.645673E-01  0.659339E-01  0.632050E-01  0.589724E-01  0.536455E-01
  0.476896E-01  0.415549E-01  0.356215E-01  0.301662E-01  0.253532E-01  0.212463E-01
  0.178359E-01  0.150706E-01  0.128822E-01  0.112007E-01  0.996203E-02  0.911392E-02
  0.861916E-02  0.845649E-02  0.861916E-02  0.911392E-02  0.996203E-02  0.112007E-01
  0.128822E-01  0.150706E-01  0.178359E-01  0.212463E-01  0.253532E-01  0.301662E-01
  0.356215E-01  0.415549E-01  0.476896E-01  0.536455E-01  0.589724E-01  0.632050E-01
  0.659339E-01  0.668771E-01  0.659339E-01  0.661851E-01  0.622761E-01  0.569632E-01
  0.507738E-01  0.442373E-01  0.378107E-01  0.318344E-01  0.265194E-01  0.219592E-01
  0.181593E-01  0.150706E-01  0.126185E-01  0.107214E-01  0.930200E-02  0.829470E-02
  0.765000E-02  0.733556E-02  0.733556E-02  0.765000E-02  0.829470E-02  0.930200E-02
  0.107214E-01  0.126185E-01  0.150706E-01  0.181593E-01  0.219592E-01  0.265194E-01
  0.318344E-01  0.378107E-01  0.442373E-01  0.507738E-01  0.569632E-01  0.622761E-01
  0.661851E-01  0.682608E-01  0.682608E-01  0.661851E-01  0.656757E-01  0.606783E-01
  0.544867E-01  0.476928E-01  0.408364E-01  0.343394E-01  0.284806E-01  0.234026E-01
  0.191404E-01  0.156585E-01  0.128822E-01  0.107214E-01  0.908606E-02  0.789687E-02
  0.709155E-02  0.662601E-02  0.647379E-02  0.662601E-02  0.709155E-02  0.789687E-02
  0.908606E-02  0.107214E-01  0.128822E-01  0.156585E-01  0.191404E-01  0.234026E-01
  0.284806E-01  0.343394E-01  0.408364E-01  0.476928E-01  0.544867E-01  0.606783E-01
  0.656757E-01  0.689340E-01  0.700668E-01  0.689340E-01  0.656757E-01  0.647584E-01
  0.587897E-01  0.518974E-01  0.446955E-01  0.376963E-01  0.312640E-01  0.256084E-01
  0.208102E-01  0.168580E-01  0.136859E-01  0.112007E-01  0.930200E-02  0.789687E-02
  0.690906E-02  0.628206E-02  0.597818E-02  0.597818E-02  0.628206E-02  0.690906E-02
  0.789687E-02  0.930200E-02  0.112007E-01  0.136859E-01  0.168580E-01  0.208102E-01
  0.256084E-01  0.312640E-01  0.376963E-01  0.446955E-01  0.518974E-01  0.587897E-01
  0.647584E-01  0.691789E-01  0.715356E-01  0.715356E-01  0.691789E-01  0.647584E-01
  0.636529E-01  0.568355E-01  0.493951E-01  0.419329E-01  0.349104E-01  0.286236E-01
  0.232158E-01  0.187131E-01  0.150659E-01  0.121843E-01  0.996203E-02  0.829470E-02
  0.709155E-02  0.628206E-02  0.581646E-02  0.566466E-02  0.581646E-02  0.628206E-02
  0.709155E-02  0.829470E-02  0.996203E-02  0.121843E-01  0.150659E-01  0.187131E-01
  0.232158E-01  0.286236E-01  0.349104E-01  0.419329E-01  0.493951E-01  0.568355E-01
  0.636529E-01  0.691789E-01  0.727926E-01  0.740508E-01  0.727926E-01  0.691789E-01
  0.636529E-01  0.624055E-01  0.548851E-01  0.470481E-01  0.394554E-01  0.325035E-01
  0.264192E-01  0.212845E-01  0.170787E-01  0.137207E-01  0.111031E-01  0.911392E-02
  0.765000E-02  0.662601E-02  0.597818E-02  0.566466E-02  0.566466E-02  0.597818E-02
  0.662601E-02  0.765000E-02  0.911392E-02  0.111031E-01  0.137207E-01  0.170787E-01
  0.212845E-01  0.264192E-01  0.325035E-01  0.394554E-01  0.470481E-01  0.548851E-01
  0.624055E-01  0.689340E-01  0.737789E-01  0.763653E-01  0.763653E-01  0.737789E-01
  0.689340E-01  0.624055E-01  0.609241E-01  0.529079E-01  0.448574E-01  0.372727E-01
  0.304811E-01  0.246455E-01  0.197969E-01  0.158779E-01  0.127854E-01  0.104031E-01
  0.861916E-02  0.733556E-02  0.647379E-02  0.597818E-02  0.581646E-02  0.597818E-02
  0.647379E-02  0.733556E-02  0.861916E-02  0.104031E-01  0.127854E-01  0.158779E-01
  0.197969E-01  0.246455E-01  0.304811E-01  0.372727E-01  0.448574E-01  0.529079E-01
  0.609241E-01  0.682608E-01  0.742032E-01  0.780875E-01  0.794397E-01  0.780875E-01
  0.742032E-01  0.682608E-01  0.609241E-01  0.590754E-01  0.508640E-01  0.428288E-01
  0.354038E-01  0.288564E-01  0.233027E-01  0.187397E-01  0.150880E-01  0.122337E-01
  0.100589E-01  0.845649E-02  0.733556E-02  0.662601E-02  0.628206E-02  0.628206E-02
  0.662601E-02  0.733556E-02  0.845649E-02  0.100589E-01  0.122337E-01  0.150880E-01
  0.187397E-01  0.233027E-01  0.288564E-01  0.354038E-01  0.428288E-01  0.508640E-01
  0.590754E-01  0.668771E-01  0.735884E-01  0.785329E-01  0.811602E-01  0.811602E-01
  0.785329E-01  0.735884E-01  0.668771E-01  0.590754E-01  0.568156E-01  0.487920E-01
  0.410217E-01  0.338965E-01  0.276556E-01  0.223969E-01  0.181058E-01  0.146957E-01
  0.120513E-01  0.100589E-01  0.861916E-02  0.765000E-02  0.709155E-02  0.690906E-02
  0.709155E-02  0.765000E-02  0.861916E-02  0.100589E-01  0.120513E-01  0.146957E-01
  0.181058E-01  0.223969E-01  0.276556E-01  0.338965E-01  0.410217E-01  0.487920E-01
  0.568156E-01  0.645673E-01  0.714495E-01  0.768766E-01  0.803558E-01  0.815550E-01
  0.803558E-01  0.768766E-01  0.714495E-01  0.645673E-01  0.568156E-01  0.543009E-01
  0.468528E-01  0.395568E-01  0.328235E-01  0.269134E-01  0.219393E-01  0.178943E-01
  0.146957E-01  0.122337E-01  0.104031E-01  0.911392E-02  0.829470E-02  0.789687E-02
  0.789687E-02  0.829470E-02  0.911392E-02  0.104031E-01  0.122337E-01  0.146957E-01
  0.178943E-01  0.219393E-01  0.269134E-01  0.328235E-01  0.395568E-01  0.468528E-01
  0.543009E-01  0.613872E-01  0.676030E-01  0.725536E-01  0.759846E-01  0.777409E-01
  0.777409E-01  0.759846E-01  0.725536E-01  0.676030E-01  0.613872E-01  0.543009E-01
  0.519159E-01  0.453100E-01  0.385879E-01  0.322616E-01  0.266616E-01  0.219393E-01
  0.181058E-01  0.150880E-01  0.127854E-01  0.111031E-01  0.996203E-02  0.930200E-02
  0.908606E-02  0.930200E-02  0.996203E-02  0.111031E-01  0.127854E-01  0.150880E-01
  0.181058E-01  0.219393E-01  0.266616E-01  0.322616E-01  0.385879E-01  0.453100E-01
  0.519159E-01  0.578006E-01  0.624783E-01  0.657915E-01  0.679013E-01  0.690634E-01
  0.694366E-01  0.690634E-01  0.679013E-01  0.657915E-01  0.624783E-01  0.578006E-01
  0.519159E-01  0.501780E-01  0.444460E-01  0.382473E-01  0.322616E-01  0.269134E-01
  0.223969E-01  0.187397E-01  0.158779E-01  0.137207E-01  0.121843E-01  0.112007E-01
  0.107214E-01  0.107214E-01  0.112007E-01  0.121843E-01  0.137207E-01  0.158779E-01
  0.187397E-01  0.223969E-01  0.269134E-01  0.322616E-01  0.382473E-01  0.444460E-01
  0.501780E-01  0.546239E-01  0.571817E-01  0.578827E-01  0.574207E-01  0.566720E-01
  0.562020E-01  0.562020E-01  0.566720E-01  0.574207E-01  0.578827E-01  0.571817E-01
  0.546239E-01  0.501780E-01  0.495387E-01  0.444460E-01  0.385879E-01  0.328235E-01
  0.276556E-01  0.233027E-01  0.197969E-01  0.170787E-01  0.150659E-01  0.136859E-01
  0.128822E-01  0.126185E-01  0.128822E-01  0.136859E-01  0.150659E-01  0.170787E-01
  0.197969E-01  0.233027E-01  0.276556E-01  0.328235E-01  0.385879E-01  0.444460E-01
  0.495387E-01  0.527459E-01  0.531711E-01  0.508663E-01  0.470574E-01  0.434075E-01
  0.410251E-01  0.402303E-01  0.410251E-01  0.434075E-01  0.470574E-01  0.508663E-01
  0.531711E-01  0.527459E-01  0.495387E-01  0.501780E-01  0.453100E-01  0.395568E-01
  0.338965E-01  0.288564E-01  0.246455E-01  0.212845E-01  0.187131E-01  0.168580E-01
  0.156585E-01  0.150706E-01  0.150706E-01  0.156585E-01  0.168580E-01  0.187131E-01
  0.212845E-01  0.246455E-01  0.288564E-01  0.338965E-01  0.395568E-01  0.453100E-01
  0.501780E-01  0.527459E-01  0.516751E-01  0.467514E-01  0.395345E-01  0.325515E-01
  0.276550E-01  0.253163E-01  0.253163E-01  0.276550E-01  0.325515E-01  0.395345E-01
  0.467514E-01  0.516751E-01  0.527459E-01  0.501780E-01  0.519159E-01  0.468528E-01
  0.410217E-01  0.354038E-01  0.304811E-01  0.264192E-01  0.232158E-01  0.208102E-01
  0.191404E-01  0.181593E-01  0.178359E-01  0.181593E-01  0.191404E-01  0.208102E-01
  0.232158E-01  0.264192E-01  0.304811E-01  0.354038E-01  0.410217E-01  0.468528E-01
  0.519159E-01  0.546239E-01  0.531711E-01  0.467514E-01  0.367990E-01  0.265440E-01
  0.188380E-01  0.145923E-01  0.133117E-01  0.145923E-01  0.188380E-01  0.265440E-01
  0.367990E-01  0.467514E-01  0.531711E-01  0.546239E-01  0.519159E-01  0.543009E-01
  0.487920E-01  0.428288E-01  0.372727E-01  0.325035E-01  0.286236E-01  0.256084E-01
  0.234026E-01  0.219592E-01  0.212463E-01  0.212463E-01  0.219592E-01  0.234026E-01
  0.256084E-01  0.286236E-01  0.325035E-01  0.372727E-01  0.428288E-01  0.487920E-01
  0.543009E-01  0.578006E-01  0.571817E-01  0.508663E-01  0.395345E-01  0.265440E-01
  0.158065E-01  0.921424E-02  0.638750E-02  0.638750E-02  0.921424E-02  0.158065E-01
  0.265440E-01  0.395345E-01  0.508663E-01  0.571817E-01  0.578006E-01  0.543009E-01
  0.568156E-01  0.508640E-01  0.448574E-01  0.394554E-01  0.349104E-01  0.312640E-01
  0.284806E-01  0.265194E-01  0.253532E-01  0.249662E-01  0.253532E-01  0.265194E-01
  0.284806E-01  0.312640E-01  0.349104E-01  0.394554E-01  0.448574E-01  0.508640E-01
  0.568156E-01  0.613872E-01  0.624783E-01  0.578827E-01  0.470574E-01  0.325515E-01
  0.188380E-01  0.921424E-02  0.420452E-02  0.274797E-02  0.420452E-02  0.921424E-02
  0.188380E-01  0.325515E-01  0.470574E-01  0.578827E-01  0.624783E-01  0.613872E-01
  0.568156E-01  0.590754E-01  0.529079E-01  0.470481E-01  0.419329E-01  0.376963E-01
  0.343394E-01  0.318344E-01  0.301662E-01  0.293317E-01  0.293317E-01  0.301662E-01
  0.318344E-01  0.343394E-01  0.376963E-01  0.419329E-01  0.470481E-01  0.529079E-01
  0.590754E-01  0.645673E-01  0.676030E-01  0.657915E-01  0.574207E-01  0.434075E-01
  0.276550E-01  0.145923E-01  0.638750E-02  0.274797E-02  0.274797E-02  0.638750E-02
  0.145923E-01  0.276550E-01  0.434075E-01  0.574207E-01  0.657915E-01  0.676030E-01
  0.645673E-01  0.590754E-01  0.609241E-01  0.548851E-01  0.493951E-01  0.446955E-01
  0.408364E-01  0.378107E-01  0.356215E-01  0.342911E-01  0.338443E-01  0.342911E-01
  0.356215E-01  0.378107E-01  0.408364E-01  0.446955E-01  0.493951E-01  0.548851E-01
  0.609241E-01  0.668771E-01  0.714495E-01  0.725536E-01  0.679013E-01  0.566720E-01
  0.410251E-01  0.253163E-01  0.133117E-01  0.638750E-02  0.420452E-02  0.638750E-02
  0.133117E-01  0.253163E-01  0.410251E-01  0.566720E-01  0.679013E-01  0.725536E-01
  0.714495E-01  0.668771E-01  0.609241E-01  0.624055E-01  0.568355E-01  0.518974E-01
  0.476928E-01  0.442373E-01  0.415549E-01  0.397039E-01  0.387548E-01  0.387548E-01
  0.397039E-01  0.415549E-01  0.442373E-01  0.476928E-01  0.518974E-01  0.568355E-01
  0.624055E-01  0.682608E-01  0.735884E-01  0.768766E-01  0.759846E-01  0.690634E-01
  0.562020E-01  0.402303E-01  0.253163E-01  0.145923E-01  0.921424E-02  0.921424E-02
  0.145923E-01  0.253163E-01  0.402303E-01  0.562020E-01  0.690634E-01  0.759846E-01
  0.768766E-01  0.735884E-01  0.682608E-01  0.624055E-01  0.636529E-01  0.587897E-01
  0.544867E-01  0.507738E-01  0.476896E-01  0.453310E-01  0.438342E-01  0.433193E-01
  0.438342E-01  0.453310E-01  0.476896E-01  0.507738E-01  0.544867E-01  0.587897E-01
  0.636529E-01  0.689340E-01  0.742032E-01  0.785329E-01  0.803558E-01  0.777409E-01
  0.694366E-01  0.562020E-01  0.410251E-01  0.276550E-01  0.188380E-01  0.158065E-01
  0.188380E-01  0.276550E-01  0.410251E-01  0.562020E-01  0.694366E-01  0.777409E-01
  0.803558E-01  0.785329E-01  0.742032E-01  0.689340E-01  0.636529E-01  0.647584E-01
  0.606783E-01  0.569632E-01  0.536455E-01  0.508473E-01  0.487790E-01  0.476698E-01
  0.476698E-01  0.487790E-01  0.508473E-01  0.536455E-01  0.569632E-01  0.606783E-01
  0.647584E-01  0.691789E-01  0.737789E-01  0.780875E-01  0.811602E-01  0.815550E-01
  0.777409E-01  0.690634E-01  0.566720E-01  0.434075E-01  0.325515E-01  0.265440E-01
  0.265440E-01  0.325515E-01  0.434075E-01  0.566720E-01  0.690634E-01  0.777409E-01
  0.815550E-01  0.811602E-01  0.780875E-01  0.737789E-01  0.691789E-01  0.647584E-01
  0.656757E-01  0.622761E-01  0.589724E-01  0.558770E-01  0.532575E-01  0.514730E-01
  0.508366E-01  0.514730E-01  0.532575E-01  0.558770E-01  0.589724E-01  0.622761E-01
  0.656757E-01  0.691789E-01  0.727926E-01  0.763653E-01  0.794397E-01  0.811602E-01
  0.803558E-01  0.759846E-01  0.679013E-01  0.574207E-01  0.470574E-01  0.395345E-01
  0.367990E-01  0.395345E-01  0.470574E-01  0.574207E-01  0.679013E-01  0.759846E-01
  0.803558E-01  0.811602E-01  0.794397E-01  0.763653E-01  0.727926E-01  0.691789E-01
  0.656757E-01  0.661851E-01  0.632050E-01  0.600428E-01  0.569731E-01  0.544693E-01
  0.530477E-01  0.530477E-01  0.544693E-01  0.569731E-01  0.600428E-01  0.632050E-01
  0.661851E-01  0.689340E-01  0.715356E-01  0.740508E-01  0.763653E-01  0.780875E-01
  0.785329E-01  0.768766E-01  0.725536E-01  0.657915E-01  0.578827E-01  0.508663E-01
  0.467514E-01  0.467514E-01  0.508663E-01  0.578827E-01  0.657915E-01  0.725536E-01
  0.768766E-01  0.785329E-01  0.780875E-01  0.763653E-01  0.740508E-01  0.715356E-01
  0.689340E-01  0.661851E-01  0.659339E-01  0.630182E-01  0.597184E-01  0.565560E-01
  0.542387E-01  0.533843E-01  0.542387E-01  0.565560E-01  0.597184E-01  0.630182E-01
  0.659339E-01  0.682608E-01  0.700668E-01  0.715356E-01  0.727926E-01  0.737789E-01
  0.742032E-01  0.735884E-01  0.714495E-01  0.676030E-01  0.624783E-01  0.571817E-01
  0.531711E-01  0.516751E-01  0.531711E-01  0.571817E-01  0.624783E-01  0.676030E-01
  0.714495E-01  0.735884E-01  0.742032E-01  0.737789E-01  0.727926E-01  0.715356E-01
  0.700668E-01  0.682608E-01  0.659339E-01  0.645673E-01  0.613872E-01  0.578006E-01
  0.546239E-01  0.527459E-01  0.527459E-01  0.546239E-01  0.578006E-01  0.613872E-01
  0.645673E-01  0.668771E-01  0.682608E-01  0.689340E-01  0.691789E-01  0.691789E-01
  0.689340E-01  0.682608E-01  0.668771E-01  0.645673E-01  0.613872E-01  0.578006E-01
  0.546239E-01  0.527459E-01  0.527459E-01  0.546239E-01  0.578006E-01  0.613872E-01
  0.645673E-01  0.668771E-01  0.682608E-01  0.689340E-01  0.691789E-01  0.691789E-01
  0.689340E-01  0.682608E-01  0.668771E-01  0.645673E-01  0.619451E-01  0.583611E-01
  0.546014E-01  0.517269E-01  0.506492E-01  0.517269E-01  0.546014E-01  0.583611E-01
  0.619451E-01  0.645673E-01  0.659339E-01  0.661851E-01  0.656757E-01  0.647584E-01
  0.636529E-01  0.624055E-01  0.609241E-01  0.590754E-01  0.568156E-01  0.543009E-01
  0.519159E-01  0.501780E-01  0.495387E-01  0.501780E-01  0.519159E-01  0.543009E-01
  0.568156E-01  0.590754E-01  0.609241E-01  0.624055E-01  0.636529E-01  0.647584E-01
  0.656757E-01  0.661851E-01  0.659339E-01  0.645673E-01  0.619451E-01  0.627192E-01
  0.568364E-01  0.515141E-01  0.483544E-01  0.483544E-01  0.515141E-01  0.568364E-01
  0.627192E-01  0.676030E-01  0.705538E-01  0.714496E-01  0.707429E-01  0.690668E-01
  0.669492E-01  0.646979E-01  0.624055E-01  0.600270E-01  0.575017E-01  0.548749E-01
  0.523649E-01  0.503393E-01  0.491959E-01  0.491959E-01  0.503393E-01  0.523649E-01
  0.548749E-01  0.575017E-01  0.600270E-01  0.624055E-01  0.646979E-01  0.669492E-01
  0.690668E-01  0.707429E-01  0.714496E-01  0.705538E-01  0.676030E-01  0.627192E-01
  0.568364E-01  0.508616E-01  0.463202E-01  0.446285E-01  0.463202E-01  0.508616E-01
  0.568364E-01  0.624783E-01  0.663732E-01  0.679382E-01  0.674035E-01  0.654290E-01
  0.627064E-01  0.597475E-01  0.568355E-01  0.540673E-01  0.514420E-01  0.489627E-01
  0.467080E-01  0.448480E-01  0.436027E-01  0.431624E-01  0.436027E-01  0.448480E-01
  0.467080E-01  0.489627E-01  0.514420E-01  0.540673E-01  0.568355E-01  0.597475E-01
  0.627064E-01  0.654290E-01  0.674035E-01  0.679382E-01  0.663732E-01  0.624783E-01
  0.568364E-01  0.515141E-01  0.463202E-01  0.432334E-01  0.432334E-01  0.463202E-01
  0.515141E-01  0.571817E-01  0.616615E-01  0.639181E-01  0.638116E-01  0.618667E-01
  0.588329E-01  0.553639E-01  0.518974E-01  0.486604E-01  0.457300E-01  0.431200E-01
  0.408539E-01  0.389997E-01  0.376638E-01  0.369588E-01  0.369588E-01  0.376638E-01
  0.389997E-01  0.408539E-01  0.431200E-01  0.457300E-01  0.486604E-01  0.518974E-01
  0.553639E-01  0.588329E-01  0.618667E-01  0.638116E-01  0.639181E-01  0.616615E-01
  0.571817E-01  0.515141E-01  0.483544E-01  0.446285E-01  0.432334E-01  0.446285E-01
  0.483544E-01  0.531711E-01  0.574956E-01  0.600398E-01  0.602877E-01  0.585020E-01
  0.553618E-01  0.515782E-01  0.476928E-01  0.440356E-01  0.407596E-01  0.379104E-01
  0.354977E-01  0.335413E-01  0.320820E-01  0.311738E-01  0.308645E-01  0.311738E-01
  0.320820E-01  0.335413E-01  0.354977E-01  0.379104E-01  0.407596E-01  0.440356E-01
  0.476928E-01  0.515782E-01  0.553618E-01  0.585020E-01  0.602877E-01  0.600398E-01
  0.574956E-01  0.531711E-01  0.483544E-01  0.483544E-01  0.463202E-01  0.463202E-01
  0.483544E-01  0.516751E-01  0.550369E-01  0.571888E-01  0.573934E-01  0.556352E-01
  0.524229E-01  0.484300E-01  0.442373E-01  0.402392E-01  0.366480E-01  0.335432E-01
  0.309374E-01  0.288285E-01  0.272219E-01  0.261325E-01  0.255803E-01  0.255803E-01
  0.261325E-01  0.272219E-01  0.288285E-01  0.309374E-01  0.335432E-01  0.366480E-01
  0.402392E-01  0.442373E-01  0.484300E-01  0.524229E-01  0.556352E-01  0.573934E-01
  0.571888E-01  0.550369E-01  0.516751E-01  0.483544E-01  0.515141E-01  0.508616E-01
  0.515141E-01  0.531711E-01  0.550369E-01  0.561363E-01  0.557440E-01  0.536732E-01
  0.502435E-01  0.460194E-01  0.415549E-01  0.372637E-01  0.333917E-01  0.300442E-01
  0.272404E-01  0.249665E-01  0.232066E-01  0.219505E-01  0.211953E-01  0.209429E-01
  0.211953E-01  0.219505E-01  0.232066E-01  0.249665E-01  0.272404E-01  0.300442E-01
  0.333917E-01  0.372637E-01  0.415549E-01  0.460194E-01  0.502435E-01  0.536732E-01
  0.557440E-01  0.561363E-01  0.550369E-01  0.531711E-01  0.515141E-01  0.568364E-01
  0.568364E-01  0.571817E-01  0.574956E-01  0.571888E-01  0.557440E-01  0.529720E-01
  0.490722E-01  0.444881E-01  0.397039E-01  0.351117E-01  0.309628E-01  0.273750E-01
  0.243716E-01  0.219301E-01  0.200186E-01  0.186088E-01  0.176791E-01  0.172165E-01
  0.172165E-01  0.176791E-01  0.186088E-01  0.200186E-01  0.219301E-01  0.243716E-01
  0.273750E-01  0.309628E-01  0.351117E-01  0.397039E-01  0.444881E-01  0.490722E-01
  0.529720E-01  0.557440E-01  0.571888E-01  0.574956E-01  0.571817E-01  0.568364E-01
  0.627192E-01  0.624783E-01  0.616615E-01  0.600398E-01  0.573934E-01  0.536732E-01
  0.490722E-01  0.439610E-01  0.387548E-01  0.338044E-01  0.293458E-01  0.254951E-01
  0.222745E-01  0.196536E-01  0.175865E-01  0.160287E-01  0.149427E-01  0.143012E-01
  0.140888E-01  0.143012E-01  0.149427E-01  0.160287E-01  0.175865E-01  0.196536E-01
  0.222745E-01  0.254951E-01  0.293458E-01  0.338044E-01  0.387548E-01  0.439610E-01
  0.490722E-01  0.536732E-01  0.573934E-01  0.600398E-01  0.616615E-01  0.624783E-01
  0.627192E-01  0.676030E-01  0.663732E-01  0.639181E-01  0.602877E-01  0.556352E-01
  0.502435E-01  0.444881E-01  0.387548E-01  0.333654E-01  0.285372E-01  0.243775E-01
  0.209031E-01  0.180754E-01  0.158354E-01  0.141237E-01  0.128880E-01  0.120866E-01
  0.116922E-01  0.116922E-01  0.120866E-01  0.128880E-01  0.141237E-01  0.158354E-01
  0.180754E-01  0.209031E-01  0.243775E-01  0.285372E-01  0.333654E-01  0.387548E-01
  0.444881E-01  0.502435E-01  0.556352E-01  0.602877E-01  0.639181E-01  0.663732E-01
  0.676030E-01  0.676030E-01  0.705538E-01  0.679382E-01  0.638116E-01  0.585020E-01
  0.524229E-01  0.460194E-01  0.397039E-01  0.338044E-01  0.285372E-01  0.240067E-01
  0.202258E-01  0.171487E-01  0.147047E-01  0.128204E-01  0.114289E-01  0.104745E-01
  0.991698E-02  0.973353E-02  0.991698E-02  0.104745E-01  0.114289E-01  0.128204E-01
  0.147047E-01  0.171487E-01  0.202258E-01  0.240067E-01  0.285372E-01  0.338044E-01
  0.397039E-01  0.460194E-01  0.524229E-01  0.585020E-01  0.638116E-01  0.679382E-01
  0.705538E-01  0.714495E-01  0.705538E-01  0.714496E-01  0.674035E-01  0.618667E-01
  0.553618E-01  0.484300E-01  0.415549E-01  0.351117E-01  0.293458E-01  0.243775E-01
  0.202258E-01  0.168432E-01  0.141508E-01  0.120622E-01  0.104962E-01  0.938336E-02
  0.867011E-02  0.832170E-02  0.832170E-02  0.867011E-02  0.938336E-02  0.104962E-01
  0.120622E-01  0.141508E-01  0.168432E-01  0.202258E-01  0.243775E-01  0.293458E-01
  0.351117E-01  0.415549E-01  0.484300E-01  0.553618E-01  0.618667E-01  0.674035E-01
  0.714496E-01  0.735884E-01  0.735884E-01  0.714496E-01  0.707429E-01  0.654290E-01
  0.588329E-01  0.515782E-01  0.442373E-01  0.372637E-01  0.309628E-01  0.254951E-01
  0.209031E-01  0.171487E-01  0.141508E-01  0.118135E-01  0.100420E-01  0.875270E-02
  0.787877E-02  0.737277E-02  0.720711E-02  0.737277E-02  0.787877E-02  0.875270E-02
  0.100420E-01  0.118135E-01  0.141508E-01  0.171487E-01  0.209031E-01  0.254951E-01
  0.309628E-01  0.372637E-01  0.442373E-01  0.515782E-01  0.588329E-01  0.654290E-01
  0.707429E-01  0.742032E-01  0.754054E-01  0.742032E-01  0.707429E-01  0.690668E-01
  0.627064E-01  0.553639E-01  0.476928E-01  0.402392E-01  0.333917E-01  0.273750E-01
  0.222745E-01  0.180754E-01  0.147047E-01  0.120622E-01  0.100420E-01  0.854636E-02
  0.749460E-02  0.682644E-02  0.650224E-02  0.650224E-02  0.682644E-02  0.749460E-02
  0.854636E-02  0.100420E-01  0.120622E-01  0.147047E-01  0.180754E-01  0.222745E-01
  0.273750E-01  0.333917E-01  0.402392E-01  0.476928E-01  0.553639E-01  0.627064E-01
  0.690668E-01  0.737789E-01  0.762917E-01  0.762917E-01  0.737789E-01  0.690668E-01
  0.669492E-01  0.597475E-01  0.518974E-01  0.440356E-01  0.366480E-01  0.300442E-01
  0.243716E-01  0.196536E-01  0.158354E-01  0.128204E-01  0.104962E-01  0.875270E-02
  0.749460E-02  0.664799E-02  0.616092E-02  0.600210E-02  0.616092E-02  0.664799E-02
  0.749460E-02  0.875270E-02  0.104962E-01  0.128204E-01  0.158354E-01  0.196536E-01
  0.243716E-01  0.300442E-01  0.366480E-01  0.440356E-01  0.518974E-01  0.597475E-01
  0.669492E-01  0.727926E-01  0.766165E-01  0.779483E-01  0.766165E-01  0.727926E-01
  0.669492E-01  0.646979E-01  0.568355E-01  0.486604E-01  0.407596E-01  0.335432E-01
  0.272404E-01  0.219301E-01  0.175865E-01  0.141237E-01  0.114289E-01  0.938336E-02
  0.787877E-02  0.682644E-02  0.616092E-02  0.583906E-02  0.583906E-02  0.616092E-02
  0.682644E-02  0.787877E-02  0.938336E-02  0.114289E-01  0.141237E-01  0.175865E-01
  0.219301E-01  0.272404E-01  0.335432E-01  0.407596E-01  0.486604E-01  0.568355E-01
  0.646979E-01  0.715356E-01  0.766165E-01  0.793309E-01  0.793309E-01  0.766165E-01
  0.715356E-01  0.646979E-01  0.624055E-01  0.540673E-01  0.457300E-01  0.379104E-01
  0.309374E-01  0.249665E-01  0.200186E-01  0.160287E-01  0.128880E-01  0.104745E-01
  0.867011E-02  0.737277E-02  0.650224E-02  0.600210E-02  0.583906E-02  0.600210E-02
  0.650224E-02  0.737277E-02  0.867011E-02  0.104745E-01  0.128880E-01  0.160287E-01
  0.200186E-01  0.249665E-01  0.309374E-01  0.379104E-01  0.457300E-01  0.540673E-01
  0.624055E-01  0.700668E-01  0.762917E-01  0.803697E-01  0.817910E-01  0.803697E-01
  0.762917E-01  0.700668E-01  0.624055E-01  0.600270E-01  0.514420E-01  0.431200E-01
  0.354977E-01  0.288285E-01  0.232066E-01  0.186088E-01  0.149427E-01  0.120866E-01
  0.991698E-02  0.832170E-02  0.720711E-02  0.650224E-02  0.616092E-02  0.616092E-02
  0.650224E-02  0.720711E-02  0.832170E-02  0.991698E-02  0.120866E-01  0.149427E-01
  0.186088E-01  0.232066E-01  0.288285E-01  0.354977E-01  0.431200E-01  0.514420E-01
  0.600270E-01  0.682608E-01  0.754054E-01  0.807059E-01  0.835350E-01  0.835350E-01
  0.807059E-01  0.754054E-01  0.682608E-01  0.600270E-01  0.575017E-01  0.489627E-01
  0.408539E-01  0.335413E-01  0.272219E-01  0.219505E-01  0.176791E-01  0.143012E-01
  0.116922E-01  0.973353E-02  0.832170E-02  0.737277E-02  0.682644E-02  0.664799E-02
  0.682644E-02  0.737277E-02  0.832170E-02  0.973353E-02  0.116922E-01  0.143012E-01
  0.176791E-01  0.219505E-01  0.272219E-01  0.335413E-01  0.408539E-01  0.489627E-01
  0.575017E-01  0.659339E-01  0.735884E-01  0.797439E-01  0.837465E-01  0.851361E-01
  0.837465E-01  0.797439E-01  0.735884E-01  0.659339E-01  0.575017E-01  0.548749E-01
  0.467080E-01  0.389997E-01  0.320820E-01  0.261325E-01  0.211953E-01  0.172165E-01
  0.140888E-01  0.116922E-01  0.991698E-02  0.867011E-02  0.787877E-02  0.749460E-02
  0.749460E-02  0.787877E-02  0.867011E-02  0.991698E-02  0.116922E-01  0.140888E-01
  0.172165E-01  0.211953E-01  0.261325E-01  0.320820E-01  0.389997E-01  0.467080E-01
  0.548749E-01  0.630182E-01  0.705538E-01  0.768766E-01  0.814438E-01  0.838414E-01
  0.838414E-01  0.814438E-01  0.768766E-01  0.705538E-01  0.630182E-01  0.548749E-01
  0.523649E-01  0.448480E-01  0.376638E-01  0.311738E-01  0.255803E-01  0.209429E-01
  0.172165E-01  0.143012E-01  0.120866E-01  0.104745E-01  0.938336E-02  0.875270E-02
  0.854636E-02  0.875270E-02  0.938336E-02  0.104745E-01  0.120866E-01  0.143012E-01
  0.172165E-01  0.209429E-01  0.255803E-01  0.311738E-01  0.376638E-01  0.448480E-01
  0.523649E-01  0.597184E-01  0.663732E-01  0.718885E-01  0.759846E-01  0.785051E-01
  0.793570E-01  0.785051E-01  0.759846E-01  0.718885E-01  0.663732E-01  0.597184E-01
  0.523649E-01  0.503393E-01  0.436027E-01  0.369588E-01  0.308645E-01  0.255803E-01
  0.211953E-01  0.176791E-01  0.149427E-01  0.128880E-01  0.114289E-01  0.104962E-01
  0.100420E-01  0.100420E-01  0.104962E-01  0.114289E-01  0.128880E-01  0.149427E-01
  0.176791E-01  0.211953E-01  0.255803E-01  0.308645E-01  0.369588E-01  0.436027E-01
  0.503393E-01  0.565560E-01  0.616615E-01  0.653482E-01  0.677088E-01  0.690634E-01
  0.696836E-01  0.696836E-01  0.690634E-01  0.677088E-01  0.653482E-01  0.616615E-01
  0.565560E-01  0.503393E-01  0.491959E-01  0.431624E-01  0.369588E-01  0.311738E-01
  0.261325E-01  0.219505E-01  0.186088E-01  0.160287E-01  0.141237E-01  0.128204E-01
  0.120622E-01  0.118135E-01  0.120622E-01  0.128204E-01  0.141237E-01  0.160287E-01
  0.186088E-01  0.219505E-01  0.261325E-01  0.311738E-01  0.369588E-01  0.431624E-01
  0.491959E-01  0.542387E-01  0.574956E-01  0.586632E-01  0.582153E-01  0.571157E-01
  0.562020E-01  0.558693E-01  0.562020E-01  0.571157E-01  0.582153E-01  0.586632E-01
  0.574956E-01  0.542387E-01  0.491959E-01  0.491959E-01  0.436027E-01  0.376638E-01
  0.320820E-01  0.272219E-01  0.232066E-01  0.200186E-01  0.175865E-01  0.158354E-01
  0.147047E-01  0.141508E-01  0.141508E-01  0.147047E-01  0.158354E-01  0.175865E-01
  0.200186E-01  0.232066E-01  0.272219E-01  0.320820E-01  0.376638E-01  0.436027E-01
  0.491959E-01  0.533843E-01  0.550369E-01  0.536415E-01  0.499110E-01  0.455148E-01
  0.420342E-01  0.402303E-01  0.402303E-01  0.420342E-01  0.455148E-01  0.499110E-01
  0.536415E-01  0.550369E-01  0.533843E-01  0.491959E-01  0.503393E-01  0.448480E-01
  0.389997E-01  0.335413E-01  0.288285E-01  0.249665E-01  0.219301E-01  0.196536E-01
  0.180754E-01  0.171487E-01  0.168432E-01  0.171487E-01  0.180754E-01  0.196536E-01
  0.219301E-01  0.249665E-01  0.288285E-01  0.335413E-01  0.389997E-01  0.448480E-01
  0.503393E-01  0.542387E-01  0.550369E-01  0.517764E-01  0.450848E-01  0.372044E-01
  0.306089E-01  0.266057E-01  0.253163E-01  0.266057E-01  0.306089E-01  0.372044E-01
  0.450848E-01  0.517764E-01  0.550369E-01  0.542387E-01  0.503393E-01  0.523649E-01
  0.467080E-01  0.408539E-01  0.354977E-01  0.309374E-01  0.272404E-01  0.243716E-01
  0.222745E-01  0.209031E-01  0.202258E-01  0.202258E-01  0.209031E-01  0.222745E-01
  0.243716E-01  0.272404E-01  0.309374E-01  0.354977E-01  0.408539E-01  0.467080E-01
  0.523649E-01  0.565560E-01  0.574956E-01  0.536415E-01  0.450848E-01  0.342040E-01
  0.243488E-01  0.176997E-01  0.145923E-01  0.145923E-01  0.176997E-01  0.243488E-01
  0.342040E-01  0.450848E-01  0.536415E-01  0.574956E-01  0.565560E-01  0.523649E-01
  0.548749E-01  0.489627E-01  0.431200E-01  0.379104E-01  0.335432E-01  0.300442E-01
  0.273750E-01  0.254951E-01  0.243775E-01  0.240067E-01  0.243775E-01  0.254951E-01
  0.273750E-01  0.300442E-01  0.335432E-01  0.379104E-01  0.431200E-01  0.489627E-01
  0.548749E-01  0.597184E-01  0.616615E-01  0.586632E-01  0.499110E-01  0.372044E-01
  0.243488E-01  0.146527E-01  0.921424E-02  0.754337E-02  0.921424E-02  0.146527E-01
  0.243488E-01  0.372044E-01  0.499110E-01  0.586632E-01  0.616615E-01  0.597184E-01
  0.548749E-01  0.575017E-01  0.514420E-01  0.457300E-01  0.407596E-01  0.366480E-01
  0.333917E-01  0.309628E-01  0.293458E-01  0.285372E-01  0.285372E-01  0.293458E-01
  0.309628E-01  0.333917E-01  0.366480E-01  0.407596E-01  0.457300E-01  0.514420E-01
  0.575017E-01  0.630182E-01  0.663732E-01  0.653482E-01  0.582153E-01  0.455148E-01
  0.306089E-01  0.176997E-01  0.921424E-02  0.529640E-02  0.529640E-02  0.921424E-02
  0.176997E-01  0.306089E-01  0.455148E-01  0.582153E-01  0.653482E-01  0.663732E-01
  0.630182E-01  0.575017E-01  0.600270E-01  0.540673E-01  0.486604E-01  0.440356E-01
  0.402392E-01  0.372637E-01  0.351117E-01  0.338044E-01  0.333654E-01  0.338044E-01
  0.351117E-01  0.372637E-01  0.402392E-01  0.440356E-01  0.486604E-01  0.540673E-01
  0.600270E-01  0.659339E-01  0.705538E-01  0.718885E-01  0.677088E-01  0.571157E-01
  0.420342E-01  0.266057E-01  0.145923E-01  0.754337E-02  0.529640E-02  0.754337E-02
  0.145923E-01  0.266057E-01  0.420342E-01  0.571157E-01  0.677088E-01  0.718885E-01
  0.705538E-01  0.659339E-01  0.600270E-01  0.624055E-01  0.568355E-01  0.518974E-01
  0.476928E-01  0.442373E-01  0.415549E-01  0.397039E-01  0.387548E-01  0.387548E-01
  0.397039E-01  0.415549E-01  0.442373E-01  0.476928E-01  0.518974E-01  0.568355E-01
  0.624055E-01  0.682608E-01  0.735884E-01  0.768766E-01  0.759846E-01  0.690634E-01
  0.562020E-01  0.402303E-01  0.253163E-01  0.145923E-01  0.921424E-02  0.921424E-02
  0.145923E-01  0.253163E-01  0.402303E-01  0.562020E-01  0.690634E-01  0.759846E-01
  0.768766E-01  0.735884E-01  0.682608E-01  0.624055E-01  0.646979E-01  0.597475E-01
  0.553639E-01  0.515782E-01  0.484300E-01  0.460194E-01  0.444881E-01  0.439610E-01
  0.444881E-01  0.460194E-01  0.484300E-01  0.515782E-01  0.553639E-01  0.597475E-01
  0.646979E-01  0.700668E-01  0.754054E-01  0.797439E-01  0.814438E-01  0.785051E-01
  0.696836E-01  0.558693E-01  0.402303E-01  0.266057E-01  0.176997E-01  0.146527E-01
  0.176997E-01  0.266057E-01  0.402303E-01  0.558693E-01  0.696836E-01  0.785051E-01
  0.814438E-01  0.797439E-01  0.754054E-01  0.700668E-01  0.646979E-01  0.669492E-01
  0.627064E-01  0.588329E-01  0.553618E-01  0.524229E-01  0.502435E-01  0.490722E-01
  0.490722E-01  0.502435E-01  0.524229E-01  0.553618E-01  0.588329E-01  0.627064E-01
  0.669492E-01  0.715356E-01  0.762917E-01  0.807059E-01  0.837465E-01  0.838414E-01
  0.793570E-01  0.696836E-01  0.562020E-01  0.420342E-01  0.306089E-01  0.243488E-01
  0.243488E-01  0.306089E-01  0.420342E-01  0.562020E-01  0.696836E-01  0.793570E-01
  0.838414E-01  0.837465E-01  0.807059E-01  0.762917E-01  0.715356E-01  0.669492E-01
  0.690668E-01  0.654290E-01  0.618667E-01  0.585020E-01  0.556352E-01  0.536732E-01
  0.529720E-01  0.536732E-01  0.556352E-01  0.585020E-01  0.618667E-01  0.654290E-01
  0.690668E-01  0.727926E-01  0.766165E-01  0.803697E-01  0.835350E-01  0.851361E-01
  0.838414E-01  0.785051E-01  0.690634E-01  0.571157E-01  0.455148E-01  0.372044E-01
  0.342040E-01  0.372044E-01  0.455148E-01  0.571157E-01  0.690634E-01  0.785051E-01
  0.838414E-01  0.851361E-01  0.835350E-01  0.803697E-01  0.766165E-01  0.727926E-01
  0.690668E-01  0.707429E-01  0.674035E-01  0.638116E-01  0.602877E-01  0.573934E-01
  0.557440E-01  0.557440E-01  0.573934E-01  0.602877E-01  0.638116E-01  0.674035E-01
  0.707429E-01  0.737789E-01  0.766165E-01  0.793309E-01  0.817910E-01  0.835350E-01
  0.837465E-01  0.814438E-01  0.759846E-01  0.677088E-01  0.582153E-01  0.499110E-01
  0.450848E-01  0.450848E-01  0.499110E-01  0.582153E-01  0.677088E-01  0.759846E-01
  0.814438E-01  0.837465E-01  0.835350E-01  0.817910E-01  0.793309E-01  0.766165E-01
  0.737789E-01  0.707429E-01  0.714496E-01  0.679382E-01  0.639181E-01  0.600398E-01
  0.571888E-01  0.561363E-01  0.571888E-01  0.600398E-01  0.639181E-01  0.679382E-01
  0.714496E-01  0.742032E-01  0.762917E-01  0.779483E-01  0.793309E-01  0.803697E-01
  0.807059E-01  0.797439E-01  0.768766E-01  0.718885E-01  0.653482E-01  0.586632E-01
  0.536415E-01  0.517764E-01  0.536415E-01  0.586632E-01  0.653482E-01  0.718885E-01
  0.768766E-01  0.797439E-01  0.807059E-01  0.803697E-01  0.793309E-01  0.779483E-01
  0.762917E-01  0.742032E-01  0.714496E-01  0.705538E-01  0.663732E-01  0.616615E-01
  0.574956E-01  0.550369E-01  0.550369E-01  0.574956E-01  0.616615E-01  0.663732E-01
  0.705538E-01  0.735884E-01  0.754054E-01  0.762917E-01  0.766165E-01  0.766165E-01
  0.762917E-01  0.754054E-01  0.735884E-01  0.705538E-01  0.663732E-01  0.616615E-01
  0.574956E-01  0.550369E-01  0.550369E-01  0.574956E-01  0.616615E-01  0.663732E-01
  0.705538E-01  0.735884E-01  0.754054E-01  0.762917E-01  0.766165E-01  0.766165E-01
  0.762917E-01  0.754054E-01  0.735884E-01  0.705538E-01  0.676030E-01  0.624783E-01
  0.571817E-01  0.531711E-01  0.516751E-01  0.531711E-01  0.571817E-01  0.624783E-01
  0.676030E-01  0.714495E-01  0.735884E-01  0.742032E-01  0.737789E-01  0.727926E-01
  0.715356E-01  0.700668E-01  0.682608E-01  0.659339E-01  0.630182E-01  0.597184E-01
  0.565560E-01  0.542387E-01  0.533843E-01  0.542387E-01  0.565560E-01  0.597184E-01
  0.630182E-01  0.659339E-01  0.682608E-01  0.700668E-01  0.715356E-01  0.727926E-01
  0.737789E-01  0.742032E-01  0.735884E-01  0.714495E-01  0.676030E-01  0.627192E-01
  0.568364E-01  0.515141E-01  0.483544E-01  0.483544E-01  0.515141E-01  0.568364E-01
  0.627192E-01  0.676030E-01  0.705538E-01  0.714496E-01  0.707429E-01  0.690668E-01
  0.669492E-01  0.646979E-01  0.624055E-01  0.600270E-01  0.575017E-01  0.548749E-01
  0.523649E-01  0.503393E-01  0.491959E-01  0.491959E-01  0.503393E-01  0.523649E-01
  0.548749E-01  0.575017E-01  0.600270E-01  0.624055E-01  0.646979E-01  0.669492E-01
  0.690668E-01  0.707429E-01  0.714496E-01  0.705538E-01  0.676030E-01  0.627192E-01
  0.575480E-01  0.491591E-01  0.429449E-01  0.406607E-01  0.429449E-01  0.491591E-01
  0.575480E-01  0.657915E-01  0.718885E-01  0.748986E-01  0.750361E-01  0.731719E-01
  0.702468E-01  0.669492E-01  0.636529E-01  0.604839E-01  0.574387E-01  0.545156E-01
  0.518117E-01  0.495484E-01  0.480180E-01  0.474742E-01  0.480180E-01  0.495484E-01
  0.518117E-01  0.545156E-01  0.574387E-01  0.604839E-01  0.636529E-01  0.669492E-01
  0.702468E-01  0.731719E-01  0.750361E-01  0.748986E-01  0.718885E-01  0.657915E-01
  0.575480E-01  0.491591E-01  0.415398E-01  0.371396E-01  0.371396E-01  0.415398E-01
  0.491591E-01  0.578827E-01  0.653482E-01  0.698908E-01  0.711044E-01  0.696333E-01
  0.665249E-01  0.627064E-01  0.587897E-01  0.550879E-01  0.517090E-01  0.486709E-01
  0.460015E-01  0.437894E-01  0.421785E-01  0.413227E-01  0.413227E-01  0.421785E-01
  0.437894E-01  0.460015E-01  0.486709E-01  0.517090E-01  0.550879E-01  0.587897E-01
  0.627064E-01  0.665249E-01  0.696333E-01  0.711044E-01  0.698908E-01  0.653482E-01
  0.578827E-01  0.491591E-01  0.429449E-01  0.371396E-01  0.350235E-01  0.371396E-01
  0.429449E-01  0.508663E-01  0.586632E-01  0.642536E-01  0.665736E-01  0.658007E-01
  0.628708E-01  0.588329E-01  0.544867E-01  0.503138E-01  0.465409E-01  0.432397E-01
  0.404255E-01  0.381241E-01  0.363931E-01  0.353088E-01  0.349384E-01  0.353088E-01
  0.363931E-01  0.381241E-01  0.404255E-01  0.432397E-01  0.465409E-01  0.503138E-01
  0.544867E-01  0.588329E-01  0.628708E-01  0.658007E-01  0.665736E-01  0.642536E-01
  0.586632E-01  0.508663E-01  0.429449E-01  0.406607E-01  0.371396E-01  0.371396E-01
  0.406607E-01  0.467514E-01  0.536415E-01  0.592793E-01  0.621872E-01  0.620209E-01
  0.594099E-01  0.553618E-01  0.507738E-01  0.462530E-01  0.421307E-01  0.385417E-01
  0.355160E-01  0.330549E-01  0.311693E-01  0.298843E-01  0.292309E-01  0.292309E-01
  0.298843E-01  0.311693E-01  0.330549E-01  0.355160E-01  0.385417E-01  0.421307E-01
  0.462530E-01  0.507738E-01  0.553618E-01  0.594099E-01  0.620209E-01  0.621872E-01
  0.592793E-01  0.536415E-01  0.467514E-01  0.406607E-01  0.429449E-01  0.415398E-01
  0.429449E-01  0.467514E-01  0.517764E-01  0.563490E-01  0.589576E-01  0.589058E-01
  0.564543E-01  0.524229E-01  0.476896E-01  0.429191E-01  0.385143E-01  0.346643E-01
  0.314224E-01  0.287833E-01  0.267323E-01  0.252629E-01  0.243769E-01  0.240805E-01
  0.243769E-01  0.252629E-01  0.267323E-01  0.287833E-01  0.314224E-01  0.346643E-01
  0.385143E-01  0.429191E-01  0.476896E-01  0.524229E-01  0.564543E-01  0.589058E-01
  0.589576E-01  0.563490E-01  0.517764E-01  0.467514E-01  0.429449E-01  0.491591E-01
  0.491591E-01  0.508663E-01  0.536415E-01  0.563490E-01  0.577649E-01  0.571273E-01
  0.544285E-01  0.502435E-01  0.453310E-01  0.403349E-01  0.356826E-01  0.315966E-01
  0.281497E-01  0.253356E-01  0.231241E-01  0.214873E-01  0.204050E-01  0.198659E-01
  0.198659E-01  0.204050E-01  0.214873E-01  0.231241E-01  0.253356E-01  0.281497E-01
  0.315966E-01  0.356826E-01  0.403349E-01  0.453310E-01  0.502435E-01  0.544285E-01
  0.571273E-01  0.577649E-01  0.563490E-01  0.536415E-01  0.508663E-01  0.491591E-01
  0.575480E-01  0.578827E-01  0.586632E-01  0.592793E-01  0.589576E-01  0.571273E-01
  0.537038E-01  0.490722E-01  0.438342E-01  0.385542E-01  0.336372E-01  0.293104E-01
  0.256559E-01  0.226657E-01  0.202975E-01  0.185063E-01  0.172542E-01  0.165133E-01
  0.162680E-01  0.165133E-01  0.172542E-01  0.185063E-01  0.202975E-01  0.226657E-01
  0.256559E-01  0.293104E-01  0.336372E-01  0.385542E-01  0.438342E-01  0.490722E-01
  0.537038E-01  0.571273E-01  0.589576E-01  0.592793E-01  0.586632E-01  0.578827E-01
  0.575480E-01  0.657915E-01  0.653482E-01  0.642536E-01  0.621872E-01  0.589058E-01
  0.544285E-01  0.490722E-01  0.433193E-01  0.376421E-01  0.323960E-01  0.277898E-01
  0.239012E-01  0.207170E-01  0.181833E-01  0.162395E-01  0.148320E-01  0.139177E-01
  0.134674E-01  0.134674E-01  0.139177E-01  0.148320E-01  0.162395E-01  0.181833E-01
  0.207170E-01  0.239012E-01  0.277898E-01  0.323960E-01  0.376421E-01  0.433193E-01
  0.490722E-01  0.544285E-01  0.589058E-01  0.621872E-01  0.642536E-01  0.653482E-01
  0.657915E-01  0.657915E-01  0.718885E-01  0.698908E-01  0.665736E-01  0.620209E-01
  0.564543E-01  0.502435E-01  0.438342E-01  0.376421E-01  0.319794E-01  0.270299E-01
  0.228587E-01  0.194440E-01  0.167202E-01  0.146117E-01  0.130498E-01  0.119764E-01
  0.113489E-01  0.111423E-01  0.113489E-01  0.119764E-01  0.130498E-01  0.146117E-01
  0.167202E-01  0.194440E-01  0.228587E-01  0.270299E-01  0.319794E-01  0.376421E-01
  0.438342E-01  0.502435E-01  0.564543E-01  0.620209E-01  0.665736E-01  0.698908E-01
  0.718885E-01  0.725536E-01  0.718885E-01  0.748986E-01  0.711044E-01  0.658007E-01
  0.594099E-01  0.524229E-01  0.453310E-01  0.385542E-01  0.323960E-01  0.270299E-01
  0.225129E-01  0.188156E-01  0.158619E-01  0.135625E-01  0.118332E-01  0.106019E-01
  0.981183E-02  0.942554E-02  0.942554E-02  0.981183E-02  0.106019E-01  0.118332E-01
  0.135625E-01  0.158619E-01  0.188156E-01  0.225129E-01  0.270299E-01  0.323960E-01
  0.385542E-01  0.453310E-01  0.524229E-01  0.594099E-01  0.658007E-01  0.711044E-01
  0.748986E-01  0.768766E-01  0.768766E-01  0.748986E-01  0.750361E-01  0.696333E-01
  0.628708E-01  0.553618E-01  0.476896E-01  0.403349E-01  0.336372E-01  0.277898E-01
  0.228587E-01  0.188156E-01  0.155792E-01  0.130488E-01  0.111263E-01  0.972478E-02
  0.877367E-02  0.822228E-02  0.804156E-02  0.822228E-02  0.877367E-02  0.972478E-02
  0.111263E-01  0.130488E-01  0.155792E-01  0.188156E-01  0.228587E-01  0.277898E-01
  0.336372E-01  0.403349E-01  0.476896E-01  0.553618E-01  0.628708E-01  0.696333E-01
  0.750361E-01  0.785329E-01  0.797439E-01  0.785329E-01  0.750361E-01  0.731719E-01
  0.665249E-01  0.588329E-01  0.507738E-01  0.429191E-01  0.356826E-01  0.293104E-01
  0.239012E-01  0.194440E-01  0.158619E-01  0.130488E-01  0.108944E-01  0.929768E-02
  0.817406E-02  0.745951E-02  0.711232E-02  0.711232E-02  0.745951E-02  0.817406E-02
  0.929768E-02  0.108944E-01  0.130488E-01  0.158619E-01  0.194440E-01  0.239012E-01
  0.293104E-01  0.356826E-01  0.429191E-01  0.507738E-01  0.588329E-01  0.665249E-01
  0.731719E-01  0.780875E-01  0.807059E-01  0.807059E-01  0.780875E-01  0.731719E-01
  0.702468E-01  0.627064E-01  0.544867E-01  0.462530E-01  0.385143E-01  0.315966E-01
  0.256559E-01  0.207170E-01  0.167202E-01  0.135625E-01  0.111263E-01  0.929768E-02
  0.797790E-02  0.708945E-02  0.657785E-02  0.641089E-02  0.657785E-02  0.708945E-02
  0.797790E-02  0.929768E-02  0.111263E-01  0.135625E-01  0.167202E-01  0.207170E-01
  0.256559E-01  0.315966E-01  0.385143E-01  0.462530E-01  0.544867E-01  0.627064E-01
  0.702468E-01  0.763653E-01  0.803697E-01  0.817646E-01  0.803697E-01  0.763653E-01
  0.702468E-01  0.669492E-01  0.587897E-01  0.503138E-01  0.421307E-01  0.346643E-01
  0.281497E-01  0.226657E-01  0.181833E-01  0.146117E-01  0.118332E-01  0.972478E-02
  0.817406E-02  0.708945E-02  0.640343E-02  0.607160E-02  0.607160E-02  0.640343E-02
  0.708945E-02  0.817406E-02  0.972478E-02  0.118332E-01  0.146117E-01  0.181833E-01
  0.226657E-01  0.281497E-01  0.346643E-01  0.421307E-01  0.503138E-01  0.587897E-01
  0.669492E-01  0.740508E-01  0.793309E-01  0.821528E-01  0.821528E-01  0.793309E-01
  0.740508E-01  0.669492E-01  0.636529E-01  0.550879E-01  0.465409E-01  0.385417E-01
  0.314224E-01  0.253356E-01  0.202975E-01  0.162395E-01  0.130498E-01  0.106019E-01
  0.877367E-02  0.745951E-02  0.657785E-02  0.607160E-02  0.590666E-02  0.607160E-02
  0.657785E-02  0.745951E-02  0.877367E-02  0.106019E-01  0.130498E-01  0.162395E-01
  0.202975E-01  0.253356E-01  0.314224E-01  0.385417E-01  0.465409E-01  0.550879E-01
  0.636529E-01  0.715356E-01  0.779483E-01  0.821528E-01  0.836187E-01  0.821528E-01
  0.779483E-01  0.715356E-01  0.636529E-01  0.604839E-01  0.517090E-01  0.432397E-01
  0.355160E-01  0.287833E-01  0.231241E-01  0.185063E-01  0.148320E-01  0.119764E-01
  0.981183E-02  0.822228E-02  0.711232E-02  0.641089E-02  0.607160E-02  0.607160E-02
  0.641089E-02  0.711232E-02  0.822228E-02  0.981183E-02  0.119764E-01  0.148320E-01
  0.185063E-01  0.231241E-01  0.287833E-01  0.355160E-01  0.432397E-01  0.517090E-01
  0.604839E-01  0.689340E-01  0.762917E-01  0.817646E-01  0.846906E-01  0.846906E-01
  0.817646E-01  0.762917E-01  0.689340E-01  0.604839E-01  0.574387E-01  0.486709E-01
  0.404255E-01  0.330549E-01  0.267323E-01  0.214873E-01  0.172542E-01  0.139177E-01
  0.113489E-01  0.942554E-02  0.804156E-02  0.711232E-02  0.657785E-02  0.640343E-02
  0.657785E-02  0.711232E-02  0.804156E-02  0.942554E-02  0.113489E-01  0.139177E-01
  0.172542E-01  0.214873E-01  0.267323E-01  0.330549E-01  0.404255E-01  0.486709E-01
  0.574387E-01  0.661851E-01  0.742032E-01  0.807059E-01  0.849604E-01  0.864422E-01
  0.849604E-01  0.807059E-01  0.742032E-01  0.661851E-01  0.574387E-01  0.545156E-01
  0.460015E-01  0.381241E-01  0.311693E-01  0.252629E-01  0.204050E-01  0.165133E-01
  0.134674E-01  0.111423E-01  0.942554E-02  0.822228E-02  0.745951E-02  0.708945E-02
  0.708945E-02  0.745951E-02  0.822228E-02  0.942554E-02  0.111423E-01  0.134674E-01
  0.165133E-01  0.204050E-01  0.252629E-01  0.311693E-01  0.381241E-01  0.460015E-01
  0.545156E-01  0.632050E-01  0.714496E-01  0.785329E-01  0.837465E-01  0.865154E-01
  0.865154E-01  0.837465E-01  0.785329E-01  0.714496E-01  0.632050E-01  0.545156E-01
  0.518117E-01  0.437894E-01  0.363931E-01  0.298843E-01  0.243769E-01  0.198659E-01
  0.162680E-01  0.134674E-01  0.113489E-01  0.981183E-02  0.877367E-02  0.817406E-02
  0.797790E-02  0.817406E-02  0.877367E-02  0.981183E-02  0.113489E-01  0.134674E-01
  0.162680E-01  0.198659E-01  0.243769E-01  0.298843E-01  0.363931E-01  0.437894E-01
  0.518117E-01  0.600428E-01  0.679382E-01  0.748986E-01  0.803558E-01  0.838414E-01
  0.850407E-01  0.838414E-01  0.803558E-01  0.748986E-01  0.679382E-01  0.600428E-01
  0.518117E-01  0.495484E-01  0.421785E-01  0.353088E-01  0.292309E-01  0.240805E-01
  0.198659E-01  0.165133E-01  0.139177E-01  0.119764E-01  0.106019E-01  0.972478E-02
  0.929768E-02  0.929768E-02  0.972478E-02  0.106019E-01  0.119764E-01  0.139177E-01
  0.165133E-01  0.198659E-01  0.240805E-01  0.292309E-01  0.353088E-01  0.421785E-01
  0.495484E-01  0.569731E-01  0.639181E-01  0.698908E-01  0.745563E-01  0.777409E-01
  0.793570E-01  0.793570E-01  0.777409E-01  0.745563E-01  0.698908E-01  0.639181E-01
  0.569731E-01  0.495484E-01  0.480180E-01  0.413227E-01  0.349384E-01  0.292309E-01
  0.243769E-01  0.204050E-01  0.172542E-01  0.148320E-01  0.130498E-01  0.118332E-01
  0.111263E-01  0.108944E-01  0.111263E-01  0.118332E-01  0.130498E-01  0.148320E-01
  0.172542E-01  0.204050E-01  0.243769E-01  0.292309E-01  0.349384E-01  0.413227E-01
  0.480180E-01  0.544693E-01  0.600398E-01  0.642536E-01  0.670240E-01  0.686281E-01
  0.694366E-01  0.696836E-01  0.694366E-01  0.686281E-01  0.670240E-01  0.642536E-01
  0.600398E-01  0.544693E-01  0.480180E-01  0.474742E-01  0.413227E-01  0.353088E-01
  0.298843E-01  0.252629E-01  0.214873E-01  0.185063E-01  0.162395E-01  0.146117E-01
  0.135625E-01  0.130488E-01  0.130488E-01  0.135625E-01  0.146117E-01  0.162395E-01
  0.185063E-01  0.214873E-01  0.252629E-01  0.298843E-01  0.353088E-01  0.413227E-01
  0.474742E-01  0.530477E-01  0.571888E-01  0.592793E-01  0.593806E-01  0.582775E-01
  0.569845E-01  0.562020E-01  0.562020E-01  0.569845E-01  0.582775E-01  0.593806E-01
  0.592793E-01  0.571888E-01  0.530477E-01  0.474742E-01  0.480180E-01  0.421785E-01
  0.363931E-01  0.311693E-01  0.267323E-01  0.231241E-01  0.202975E-01  0.181833E-01
  0.167202E-01  0.158619E-01  0.155792E-01  0.158619E-01  0.167202E-01  0.181833E-01
  0.202975E-01  0.231241E-01  0.267323E-01  0.311693E-01  0.363931E-01  0.421785E-01
  0.480180E-01  0.530477E-01  0.561363E-01  0.563490E-01  0.536700E-01  0.492912E-01
  0.449698E-01  0.420342E-01  0.410251E-01  0.420342E-01  0.449698E-01  0.492912E-01
  0.536700E-01  0.563490E-01  0.561363E-01  0.530477E-01  0.480180E-01  0.495484E-01
  0.437894E-01  0.381241E-01  0.330549E-01  0.287833E-01  0.253356E-01  0.226657E-01
  0.207170E-01  0.194440E-01  0.188156E-01  0.188156E-01  0.194440E-01  0.207170E-01
  0.226657E-01  0.253356E-01  0.287833E-01  0.330549E-01  0.381241E-01  0.437894E-01
  0.495484E-01  0.544693E-01  0.571888E-01  0.563490E-01  0.515553E-01  0.440942E-01
  0.364025E-01  0.306089E-01  0.276550E-01  0.276550E-01  0.306089E-01  0.364025E-01
  0.440942E-01  0.515553E-01  0.563490E-01  0.571888E-01  0.544693E-01  0.495484E-01
  0.518117E-01  0.460015E-01  0.404255E-01  0.355160E-01  0.314224E-01  0.281497E-01
  0.256559E-01  0.239012E-01  0.228587E-01  0.225129E-01  0.228587E-01  0.239012E-01
  0.256559E-01  0.281497E-01  0.314224E-01  0.355160E-01  0.404255E-01  0.460015E-01
  0.518117E-01  0.569731E-01  0.600398E-01  0.592793E-01  0.536700E-01  0.440942E-01
  0.333170E-01  0.243488E-01  0.188380E-01  0.170378E-01  0.188380E-01  0.243488E-01
  0.333170E-01  0.440942E-01  0.536700E-01  0.592793E-01  0.600398E-01  0.569731E-01
  0.518117E-01  0.545156E-01  0.486709E-01  0.432397E-01  0.385417E-01  0.346643E-01
  0.315966E-01  0.293104E-01  0.277898E-01  0.270299E-01  0.270299E-01  0.277898E-01
  0.293104E-01  0.315966E-01  0.346643E-01  0.385417E-01  0.432397E-01  0.486709E-01
  0.545156E-01  0.600428E-01  0.639181E-01  0.642536E-01  0.593806E-01  0.492912E-01
  0.364025E-01  0.243488E-01  0.158065E-01  0.116080E-01  0.116080E-01  0.158065E-01
  0.243488E-01  0.364025E-01  0.492912E-01  0.593806E-01  0.642536E-01  0.639181E-01
  0.600428E-01  0.545156E-01  0.574387E-01  0.517090E-01  0.465409E-01  0.421307E-01
  0.385143E-01  0.356826E-01  0.336372E-01  0.323960E-01  0.319794E-01  0.323960E-01
  0.336372E-01  0.356826E-01  0.385143E-01  0.421307E-01  0.465409E-01  0.517090E-01
  0.574387E-01  0.632050E-01  0.679382E-01  0.698908E-01  0.670240E-01  0.582775E-01
  0.449698E-01  0.306089E-01  0.188380E-01  0.116080E-01  0.923557E-02  0.116080E-01
  0.188380E-01  0.306089E-01  0.449698E-01  0.582775E-01  0.670240E-01  0.698908E-01
  0.679382E-01  0.632050E-01  0.574387E-01  0.604839E-01  0.550879E-01  0.503138E-01
  0.462530E-01  0.429191E-01  0.403349E-01  0.385542E-01  0.376421E-01  0.376421E-01
  0.385542E-01  0.403349E-01  0.429191E-01  0.462530E-01  0.503138E-01  0.550879E-01
  0.604839E-01  0.661851E-01  0.714496E-01  0.748986E-01  0.745563E-01  0.686281E-01
  0.569845E-01  0.420342E-01  0.276550E-01  0.170378E-01  0.116080E-01  0.116080E-01
  0.170378E-01  0.276550E-01  0.420342E-01  0.569845E-01  0.686281E-01  0.745563E-01
  0.748986E-01  0.714496E-01  0.661851E-01  0.604839E-01  0.636529E-01  0.587897E-01
  0.544867E-01  0.507738E-01  0.476896E-01  0.453310E-01  0.438342E-01  0.433193E-01
  0.438342E-01  0.453310E-01  0.476896E-01  0.507738E-01  0.544867E-01  0.587897E-01
  0.636529E-01  0.689340E-01  0.742032E-01  0.785329E-01  0.803558E-01  0.777409E-01
  0.694366E-01  0.562020E-01  0.410251E-01  0.276550E-01  0.188380E-01  0.158065E-01
  0.188380E-01  0.276550E-01  0.410251E-01  0.562020E-01  0.694366E-01  0.777409E-01
  0.803558E-01  0.785329E-01  0.742032E-01  0.689340E-01  0.636529E-01  0.669492E-01
  0.627064E-01  0.588329E-01  0.553618E-01  0.524229E-01  0.502435E-01  0.490722E-01
  0.490722E-01  0.502435E-01  0.524229E-01  0.553618E-01  0.588329E-01  0.627064E-01
  0.669492E-01  0.715356E-01  0.762917E-01  0.807059E-01  0.837465E-01  0.838414E-01
  0.793570E-01  0.696836E-01  0.562020E-01  0.420342E-01  0.306089E-01  0.243488E-01
  0.243488E-01  0.306089E-01  0.420342E-01  0.562020E-01  0.696836E-01  0.793570E-01
  0.838414E-01  0.837465E-01  0.807059E-01  0.762917E-01  0.715356E-01  0.669492E-01
  0.702468E-01  0.665249E-01  0.628708E-01  0.594099E-01  0.564543E-01  0.544285E-01
  0.537038E-01  0.544285E-01  0.564543E-01  0.594099E-01  0.628708E-01  0.665249E-01
  0.702468E-01  0.740508E-01  0.779483E-01  0.817646E-01  0.849604E-01  0.865154E-01
  0.850407E-01  0.793570E-01  0.694366E-01  0.569845E-01  0.449698E-01  0.364025E-01
  0.333170E-01  0.364025E-01  0.449698E-01  0.569845E-01  0.694366E-01  0.793570E-01
  0.850407E-01  0.865154E-01  0.849604E-01  0.817646E-01  0.779483E-01  0.740508E-01
  0.702468E-01  0.731719E-01  0.696333E-01  0.658007E-01  0.620209E-01  0.589058E-01
  0.571273E-01  0.571273E-01  0.589058E-01  0.620209E-01  0.658007E-01  0.696333E-01
  0.731719E-01  0.763653E-01  0.793309E-01  0.821528E-01  0.846906E-01  0.864422E-01
  0.865154E-01  0.838414E-01  0.777409E-01  0.686281E-01  0.582775E-01  0.492912E-01
  0.440942E-01  0.440942E-01  0.492912E-01  0.582775E-01  0.686281E-01  0.777409E-01
  0.838414E-01  0.865154E-01  0.864422E-01  0.846906E-01  0.821528E-01  0.793309E-01
  0.763653E-01  0.731719E-01  0.750361E-01  0.711044E-01  0.665736E-01  0.621872E-01
  0.589576E-01  0.577649E-01  0.589576E-01  0.621872E-01  0.665736E-01  0.711044E-01
  0.750361E-01  0.780875E-01  0.803697E-01  0.821528E-01  0.836187E-01  0.846906E-01
  0.849604E-01  0.837465E-01  0.803558E-01  0.745563E-01  0.670240E-01  0.593806E-01
  0.536700E-01  0.515553E-01  0.536700E-01  0.593806E-01  0.670240E-01  0.745563E-01
  0.803558E-01  0.837465E-01  0.849604E-01  0.846906E-01  0.836187E-01  0.821528E-01
  0.803697E-01  0.780875E-01  0.750361E-01  0.748986E-01  0.698908E-01  0.642536E-01
  0.592793E-01  0.563490E-01  0.563490E-01  0.592793E-01  0.642536E-01  0.698908E-01
  0.748986E-01  0.785329E-01  0.807059E-01  0.817646E-01  0.821528E-01  0.821528E-01
  0.817646E-01  0.807059E-01  0.785329E-01  0.748986E-01  0.698908E-01  0.642536E-01
  0.592793E-01  0.563490E-01  0.563490E-01  0.592793E-01  0.642536E-01  0.698908E-01
  0.748986E-01  0.785329E-01  0.807059E-01  0.817646E-01  0.821528E-01  0.821528E-01
  0.817646E-01  0.807059E-01  0.785329E-01  0.748986E-01  0.718885E-01  0.653482E-01
  0.586632E-01  0.536415E-01  0.517764E-01  0.536415E-01  0.586632E-01  0.653482E-01
  0.718885E-01  0.768766E-01  0.797439E-01  0.807059E-01  0.803697E-01  0.793309E-01
  0.779483E-01  0.762917E-01  0.742032E-01  0.714496E-01  0.679382E-01  0.639181E-01
  0.600398E-01  0.571888E-01  0.561363E-01  0.571888E-01  0.600398E-01  0.639181E-01
  0.679382E-01  0.714496E-01  0.742032E-01  0.762917E-01  0.779483E-01  0.793309E-01
  0.803697E-01  0.807059E-01  0.797439E-01  0.768766E-01  0.718885E-01  0.657915E-01
  0.578827E-01  0.508663E-01  0.467514E-01  0.467514E-01  0.508663E-01  0.578827E-01
  0.657915E-01  0.725536E-01  0.768766E-01  0.785329E-01  0.780875E-01  0.763653E-01
  0.740508E-01  0.715356E-01  0.689340E-01  0.661851E-01  0.632050E-01  0.600428E-01
  0.569731E-01  0.544693E-01  0.530477E-01  0.530477E-01  0.544693E-01  0.569731E-01
  0.600428E-01  0.632050E-01  0.661851E-01  0.689340E-01  0.715356E-01  0.740508E-01
  0.763653E-01  0.780875E-01  0.785329E-01  0.768766E-01  0.725536E-01  0.657915E-01
  0.575480E-01  0.491591E-01  0.429449E-01  0.406607E-01  0.429449E-01  0.491591E-01
  0.575480E-01  0.657915E-01  0.718885E-01  0.748986E-01  0.750361E-01  0.731719E-01
  0.702468E-01  0.669492E-01  0.636529E-01  0.604839E-01  0.574387E-01  0.545156E-01
  0.518117E-01  0.495484E-01  0.480180E-01  0.474742E-01  0.480180E-01  0.495484E-01
  0.518117E-01  0.545156E-01  0.574387E-01  0.604839E-01  0.636529E-01  0.669492E-01
  0.702468E-01  0.731719E-01  0.750361E-01  0.748986E-01  0.718885E-01  0.657915E-01
  0.575480E-01  0.460107E-01  0.364118E-01  0.310013E-01  0.310013E-01  0.364118E-01
  0.460107E-01  0.574207E-01  0.677088E-01  0.745563E-01  0.771851E-01  0.762812E-01
  0.731719E-01  0.690668E-01  0.647584E-01  0.606462E-01  0.568679E-01  0.534452E-01
  0.504091E-01  0.478670E-01  0.459997E-01  0.450023E-01  0.450023E-01  0.459997E-01
  0.478670E-01  0.504091E-01  0.534452E-01  0.568679E-01  0.606462E-01  0.647584E-01
  0.690668E-01  0.731719E-01  0.762812E-01  0.771851E-01  0.745563E-01  0.677088E-01
  0.574207E-01  0.460107E-01  0.364118E-01  0.289467E-01  0.262896E-01  0.289467E-01
  0.364118E-01  0.470574E-01  0.582153E-01  0.670240E-01  0.717080E-01  0.721976E-01
  0.696333E-01  0.654290E-01  0.606783E-01  0.560327E-01  0.517979E-01  0.480737E-01
  0.448813E-01  0.422523E-01  0.402604E-01  0.390057E-01  0.385758E-01  0.390057E-01
  0.402604E-01  0.422523E-01  0.448813E-01  0.480737E-01  0.517979E-01  0.560327E-01
  0.606783E-01  0.654290E-01  0.696333E-01  0.721976E-01  0.717080E-01  0.670240E-01
  0.582153E-01  0.470574E-01  0.364118E-01  0.310013E-01  0.262896E-01  0.262896E-01
  0.310013E-01  0.395345E-01  0.499110E-01  0.593806E-01  0.655482E-01  0.674816E-01
  0.658007E-01  0.618667E-01  0.569632E-01  0.519600E-01  0.473298E-01  0.432718E-01
  0.398377E-01  0.370331E-01  0.348735E-01  0.333951E-01  0.326412E-01  0.326412E-01
  0.333951E-01  0.348735E-01  0.370331E-01  0.398377E-01  0.432718E-01  0.473298E-01
  0.519600E-01  0.569632E-01  0.618667E-01  0.658007E-01  0.674816E-01  0.655482E-01
  0.593806E-01  0.499110E-01  0.395345E-01  0.310013E-01  0.310013E-01  0.289467E-01
  0.310013E-01  0.367990E-01  0.450848E-01  0.536700E-01  0.601203E-01  0.629112E-01
  0.620209E-01  0.585020E-01  0.536455E-01  0.484545E-01  0.435371E-01  0.391891E-01
  0.355091E-01  0.325040E-01  0.301609E-01  0.284765E-01  0.274583E-01  0.271173E-01
  0.274583E-01  0.284765E-01  0.301609E-01  0.325040E-01  0.355091E-01  0.391891E-01
  0.435371E-01  0.484545E-01  0.536455E-01  0.585020E-01  0.620209E-01  0.629112E-01
  0.601203E-01  0.536700E-01  0.450848E-01  0.367990E-01  0.310013E-01  0.364118E-01
  0.364118E-01  0.395345E-01  0.450848E-01  0.515553E-01  0.569264E-01  0.595447E-01
  0.589058E-01  0.556352E-01  0.508473E-01  0.455524E-01  0.404300E-01  0.358470E-01
  0.319478E-01  0.287516E-01  0.262324E-01  0.243623E-01  0.231227E-01  0.225044E-01
  0.225044E-01  0.231227E-01  0.243623E-01  0.262324E-01  0.287516E-01  0.319478E-01
  0.358470E-01  0.404300E-01  0.455524E-01  0.508473E-01  0.556352E-01  0.589058E-01
  0.595447E-01  0.569264E-01  0.515553E-01  0.450848E-01  0.395345E-01  0.364118E-01
  0.460107E-01  0.470574E-01  0.499110E-01  0.536700E-01  0.569264E-01  0.583013E-01
  0.571273E-01  0.536732E-01  0.487790E-01  0.433411E-01  0.380281E-01  0.332346E-01
  0.291346E-01  0.257596E-01  0.230769E-01  0.210414E-01  0.196148E-01  0.187694E-01
  0.184892E-01  0.187694E-01  0.196148E-01  0.210414E-01  0.230769E-01  0.257596E-01
  0.291346E-01  0.332346E-01  0.380281E-01  0.433411E-01  0.487790E-01  0.536732E-01
  0.571273E-01  0.583013E-01  0.569264E-01  0.536700E-01  0.499110E-01  0.470574E-01
  0.460107E-01  0.574207E-01  0.582153E-01  0.593806E-01  0.601203E-01  0.595447E-01
  0.571273E-01  0.529720E-01  0.476698E-01  0.419419E-01  0.363776E-01  0.313514E-01
  0.270414E-01  0.234837E-01  0.206397E-01  0.184499E-01  0.168595E-01  0.158243E-01
  0.153142E-01  0.153142E-01  0.158243E-01  0.168595E-01  0.184499E-01  0.206397E-01
  0.234837E-01  0.270414E-01  0.313514E-01  0.363776E-01  0.419419E-01  0.476698E-01
  0.529720E-01  0.571273E-01  0.595447E-01  0.601203E-01  0.593806E-01  0.582153E-01
  0.574207E-01  0.574207E-01  0.677088E-01  0.670240E-01  0.655482E-01  0.629112E-01
  0.589058E-01  0.536732E-01  0.476698E-01  0.414614E-01  0.355338E-01  0.302106E-01
  0.256512E-01  0.218850E-01  0.188646E-01  0.165171E-01  0.147720E-01  0.135701E-01
  0.128668E-01  0.126353E-01  0.128668E-01  0.135701E-01  0.147720E-01  0.165171E-01
  0.188646E-01  0.218850E-01  0.256512E-01  0.302106E-01  0.355338E-01  0.414614E-01
  0.476698E-01  0.536732E-01  0.589058E-01  0.629112E-01  0.655482E-01  0.670240E-01
  0.677088E-01  0.679013E-01  0.677088E-01  0.745563E-01  0.717080E-01  0.674816E-01
  0.620209E-01  0.556352E-01  0.487790E-01  0.419419E-01  0.355338E-01  0.298281E-01
  0.249570E-01  0.209362E-01  0.177071E-01  0.151827E-01  0.132774E-01  0.119173E-01
  0.110434E-01  0.106160E-01  0.106160E-01  0.110434E-01  0.119173E-01  0.132774E-01
  0.151827E-01  0.177071E-01  0.209362E-01  0.249570E-01  0.298281E-01  0.355338E-01
  0.419419E-01  0.487790E-01  0.556352E-01  0.620209E-01  0.674816E-01  0.717080E-01
  0.745563E-01  0.759846E-01  0.759846E-01  0.745563E-01  0.771851E-01  0.721976E-01
  0.658007E-01  0.585020E-01  0.508473E-01  0.433411E-01  0.363776E-01  0.302106E-01
  0.249570E-01  0.206216E-01  0.171361E-01  0.144009E-01  0.123157E-01  0.107917E-01
  0.975590E-02  0.915490E-02  0.895781E-02  0.915490E-02  0.975590E-02  0.107917E-01
  0.123157E-01  0.144009E-01  0.171361E-01  0.206216E-01  0.249570E-01  0.302106E-01
  0.363776E-01  0.433411E-01  0.508473E-01  0.585020E-01  0.658007E-01  0.721976E-01
  0.771851E-01  0.803558E-01  0.814438E-01  0.803558E-01  0.771851E-01  0.762812E-01
  0.696333E-01  0.618667E-01  0.536455E-01  0.455524E-01  0.380281E-01  0.313514E-01
  0.256512E-01  0.209362E-01  0.171361E-01  0.141434E-01  0.118451E-01  0.101381E-01
  0.893533E-02  0.816961E-02  0.779715E-02  0.779715E-02  0.816961E-02  0.893533E-02
  0.101381E-01  0.118451E-01  0.141434E-01  0.171361E-01  0.209362E-01  0.256512E-01
  0.313514E-01  0.380281E-01  0.455524E-01  0.536455E-01  0.618667E-01  0.696333E-01
  0.762812E-01  0.811602E-01  0.837465E-01  0.837465E-01  0.811602E-01  0.762812E-01
  0.731719E-01  0.654290E-01  0.569632E-01  0.484545E-01  0.404300E-01  0.332346E-01
  0.270414E-01  0.218850E-01  0.177071E-01  0.144009E-01  0.118451E-01  0.992377E-02
  0.853592E-02  0.760104E-02  0.706210E-02  0.688602E-02  0.706210E-02  0.760104E-02
  0.853592E-02  0.992377E-02  0.118451E-01  0.144009E-01  0.177071E-01  0.218850E-01
  0.270414E-01  0.332346E-01  0.404300E-01  0.484545E-01  0.569632E-01  0.654290E-01
  0.731719E-01  0.794397E-01  0.835350E-01  0.849604E-01  0.835350E-01  0.794397E-01
  0.731719E-01  0.690668E-01  0.606783E-01  0.519600E-01  0.435371E-01  0.358470E-01
  0.291346E-01  0.234837E-01  0.188646E-01  0.151827E-01  0.123157E-01  0.101381E-01
  0.853592E-02  0.741512E-02  0.670585E-02  0.636247E-02  0.636247E-02  0.670585E-02
  0.741512E-02  0.853592E-02  0.101381E-01  0.123157E-01  0.151827E-01  0.188646E-01
  0.234837E-01  0.291346E-01  0.358470E-01  0.435371E-01  0.519600E-01  0.606783E-01
  0.690668E-01  0.763653E-01  0.817910E-01  0.846906E-01  0.846906E-01  0.817910E-01
  0.763653E-01  0.690668E-01  0.647584E-01  0.560327E-01  0.473298E-01  0.391891E-01
  0.319478E-01  0.257596E-01  0.206397E-01  0.165171E-01  0.132774E-01  0.107917E-01
  0.893533E-02  0.760104E-02  0.670585E-02  0.619177E-02  0.602428E-02  0.619177E-02
  0.670585E-02  0.760104E-02  0.893533E-02  0.107917E-01  0.132774E-01  0.165171E-01
  0.206397E-01  0.257596E-01  0.319478E-01  0.391891E-01  0.473298E-01  0.560327E-01
  0.647584E-01  0.727926E-01  0.793309E-01  0.836187E-01  0.851139E-01  0.836187E-01
  0.793309E-01  0.727926E-01  0.647584E-01  0.606462E-01  0.517979E-01  0.432718E-01
  0.355091E-01  0.287516E-01  0.230769E-01  0.184499E-01  0.147720E-01  0.119173E-01
  0.975590E-02  0.816961E-02  0.706210E-02  0.636247E-02  0.602428E-02  0.602428E-02
  0.636247E-02  0.706210E-02  0.816961E-02  0.975590E-02  0.119173E-01  0.147720E-01
  0.184499E-01  0.230769E-01  0.287516E-01  0.355091E-01  0.432718E-01  0.517979E-01
  0.606462E-01  0.691789E-01  0.766165E-01  0.821528E-01  0.851139E-01  0.851139E-01
  0.821528E-01  0.766165E-01  0.691789E-01  0.606462E-01  0.568679E-01  0.480737E-01
  0.398377E-01  0.325040E-01  0.262324E-01  0.210414E-01  0.168595E-01  0.135701E-01
  0.110434E-01  0.915490E-02  0.779715E-02  0.688602E-02  0.636247E-02  0.619177E-02
  0.636247E-02  0.688602E-02  0.779715E-02  0.915490E-02  0.110434E-01  0.135701E-01
  0.168595E-01  0.210414E-01  0.262324E-01  0.325040E-01  0.398377E-01  0.480737E-01
  0.568679E-01  0.656757E-01  0.737789E-01  0.803697E-01  0.846906E-01  0.861970E-01
  0.846906E-01  0.803697E-01  0.737789E-01  0.656757E-01  0.568679E-01  0.534452E-01
  0.448813E-01  0.370331E-01  0.301609E-01  0.243623E-01  0.196148E-01  0.158243E-01
  0.128668E-01  0.106160E-01  0.895781E-02  0.779715E-02  0.706210E-02  0.670585E-02
  0.670585E-02  0.706210E-02  0.779715E-02  0.895781E-02  0.106160E-01  0.128668E-01
  0.158243E-01  0.196148E-01  0.243623E-01  0.301609E-01  0.370331E-01  0.448813E-01
  0.534452E-01  0.622761E-01  0.707429E-01  0.780875E-01  0.835350E-01  0.864422E-01
  0.864422E-01  0.835350E-01  0.780875E-01  0.707429E-01  0.622761E-01  0.534452E-01
  0.504091E-01  0.422523E-01  0.348735E-01  0.284765E-01  0.231227E-01  0.187694E-01
  0.153142E-01  0.126353E-01  0.106160E-01  0.915490E-02  0.816961E-02  0.760104E-02
  0.741512E-02  0.760104E-02  0.816961E-02  0.915490E-02  0.106160E-01  0.126353E-01
  0.153142E-01  0.187694E-01  0.231227E-01  0.284765E-01  0.348735E-01  0.422523E-01
  0.504091E-01  0.589724E-01  0.674035E-01  0.750361E-01  0.811602E-01  0.851361E-01
  0.865154E-01  0.851361E-01  0.811602E-01  0.750361E-01  0.674035E-01  0.589724E-01
  0.504091E-01  0.478670E-01  0.402604E-01  0.333951E-01  0.274583E-01  0.225044E-01
  0.184892E-01  0.153142E-01  0.128668E-01  0.110434E-01  0.975590E-02  0.893533E-02
  0.853592E-02  0.853592E-02  0.893533E-02  0.975590E-02  0.110434E-01  0.128668E-01
  0.153142E-01  0.184892E-01  0.225044E-01  0.274583E-01  0.333951E-01  0.402604E-01
  0.478670E-01  0.558770E-01  0.638116E-01  0.711044E-01  0.771851E-01  0.815550E-01
  0.838414E-01  0.838414E-01  0.815550E-01  0.771851E-01  0.711044E-01  0.638116E-01
  0.558770E-01  0.478670E-01  0.459997E-01  0.390057E-01  0.326412E-01  0.271173E-01
  0.225044E-01  0.187694E-01  0.158243E-01  0.135701E-01  0.119173E-01  0.107917E-01
  0.101381E-01  0.992377E-02  0.101381E-01  0.107917E-01  0.119173E-01  0.135701E-01
  0.158243E-01  0.187694E-01  0.225044E-01  0.271173E-01  0.326412E-01  0.390057E-01
  0.459997E-01  0.532575E-01  0.602877E-01  0.665736E-01  0.717080E-01  0.754621E-01
  0.777409E-01  0.785051E-01  0.777409E-01  0.754621E-01  0.717080E-01  0.665736E-01
  0.602877E-01  0.532575E-01  0.459997E-01  0.450023E-01  0.385758E-01  0.326412E-01
  0.274583E-01  0.231227E-01  0.196148E-01  0.168595E-01  0.147720E-01  0.132774E-01
  0.123157E-01  0.118451E-01  0.118451E-01  0.123157E-01  0.132774E-01  0.147720E-01
  0.168595E-01  0.196148E-01  0.231227E-01  0.274583E-01  0.326412E-01  0.385758E-01
  0.450023E-01  0.514730E-01  0.573934E-01  0.621872E-01  0.655482E-01  0.675742E-01
  0.686281E-01  0.690634E-01  0.690634E-01  0.686281E-01  0.675742E-01  0.655482E-01
  0.621872E-01  0.573934E-01  0.514730E-01  0.450023E-01  0.450023E-01  0.390057E-01
  0.333951E-01  0.284765E-01  0.243623E-01  0.210414E-01  0.184499E-01  0.165171E-01
  0.151827E-01  0.144009E-01  0.141434E-01  0.144009E-01  0.151827E-01  0.165171E-01
  0.184499E-01  0.210414E-01  0.243623E-01  0.284765E-01  0.333951E-01  0.390057E-01
  0.450023E-01  0.508366E-01  0.557440E-01  0.589576E-01  0.601203E-01  0.595902E-01
  0.582775E-01  0.571157E-01  0.566720E-01  0.571157E-01  0.582775E-01  0.595902E-01
  0.601203E-01  0.589576E-01  0.557440E-01  0.508366E-01  0.450023E-01  0.459997E-01
  0.402604E-01  0.348735E-01  0.301609E-01  0.262324E-01  0.230769E-01  0.206397E-01
  0.188646E-01  0.177071E-01  0.171361E-01  0.171361E-01  0.177071E-01  0.188646E-01
  0.206397E-01  0.230769E-01  0.262324E-01  0.301609E-01  0.348735E-01  0.402604E-01
  0.459997E-01  0.514730E-01  0.557440E-01  0.577649E-01  0.569264E-01  0.536367E-01
  0.492912E-01  0.455148E-01  0.434075E-01  0.434075E-01  0.455148E-01  0.492912E-01
  0.536367E-01  0.569264E-01  0.577649E-01  0.557440E-01  0.514730E-01  0.459997E-01
  0.478670E-01  0.422523E-01  0.370331E-01  0.325040E-01  0.287516E-01  0.257596E-01
  0.234837E-01  0.218850E-01  0.209362E-01  0.206216E-01  0.209362E-01  0.218850E-01
  0.234837E-01  0.257596E-01  0.287516E-01  0.325040E-01  0.370331E-01  0.422523E-01
  0.478670E-01  0.532575E-01  0.573934E-01  0.589576E-01  0.569264E-01  0.514344E-01
  0.440942E-01  0.372044E-01  0.325515E-01  0.309426E-01  0.325515E-01  0.372044E-01
  0.440942E-01  0.514344E-01  0.569264E-01  0.589576E-01  0.573934E-01  0.532575E-01
  0.478670E-01  0.504091E-01  0.448813E-01  0.398377E-01  0.355091E-01  0.319478E-01
  0.291346E-01  0.270414E-01  0.256512E-01  0.249570E-01  0.249570E-01  0.256512E-01
  0.270414E-01  0.291346E-01  0.319478E-01  0.355091E-01  0.398377E-01  0.448813E-01
  0.504091E-01  0.558770E-01  0.602877E-01  0.621872E-01  0.601203E-01  0.536367E-01
  0.440942E-01  0.342040E-01  0.265440E-01  0.225160E-01  0.225160E-01  0.265440E-01
  0.342040E-01  0.440942E-01  0.536367E-01  0.601203E-01  0.621872E-01  0.602877E-01
  0.558770E-01  0.504091E-01  0.534452E-01  0.480737E-01  0.432718E-01  0.391891E-01
  0.358470E-01  0.332346E-01  0.313514E-01  0.302106E-01  0.298281E-01  0.302106E-01
  0.313514E-01  0.332346E-01  0.358470E-01  0.391891E-01  0.432718E-01  0.480737E-01
  0.534452E-01  0.589724E-01  0.638116E-01  0.665736E-01  0.655482E-01  0.595902E-01
  0.492912E-01  0.372044E-01  0.265440E-01  0.195777E-01  0.172038E-01  0.195777E-01
  0.265440E-01  0.372044E-01  0.492912E-01  0.595902E-01  0.655482E-01  0.665736E-01
  0.638116E-01  0.589724E-01  0.534452E-01  0.568679E-01  0.517979E-01  0.473298E-01
  0.435371E-01  0.404300E-01  0.380281E-01  0.363776E-01  0.355338E-01  0.355338E-01
  0.363776E-01  0.380281E-01  0.404300E-01  0.435371E-01  0.473298E-01  0.517979E-01
  0.568679E-01  0.622761E-01  0.674035E-01  0.711044E-01  0.717080E-01  0.675742E-01
  0.582775E-01  0.455148E-01  0.325515E-01  0.225160E-01  0.172038E-01  0.172038E-01
  0.225160E-01  0.325515E-01  0.455148E-01  0.582775E-01  0.675742E-01  0.717080E-01
  0.711044E-01  0.674035E-01  0.622761E-01  0.568679E-01  0.606462E-01  0.560327E-01
  0.519600E-01  0.484545E-01  0.455524E-01  0.433411E-01  0.419419E-01  0.414614E-01
  0.419419E-01  0.433411E-01  0.455524E-01  0.484545E-01  0.519600E-01  0.560327E-01
  0.606462E-01  0.656757E-01  0.707429E-01  0.750361E-01  0.771851E-01  0.754621E-01
  0.686281E-01  0.571157E-01  0.434075E-01  0.309426E-01  0.225160E-01  0.195777E-01
  0.225160E-01  0.309426E-01  0.434075E-01  0.571157E-01  0.686281E-01  0.754621E-01
  0.771851E-01  0.750361E-01  0.707429E-01  0.656757E-01  0.606462E-01  0.647584E-01
  0.606783E-01  0.569632E-01  0.536455E-01  0.508473E-01  0.487790E-01  0.476698E-01
  0.476698E-01  0.487790E-01  0.508473E-01  0.536455E-01  0.569632E-01  0.606783E-01
  0.647584E-01  0.691789E-01  0.737789E-01  0.780875E-01  0.811602E-01  0.815550E-01
  0.777409E-01  0.690634E-01  0.566720E-01  0.434075E-01  0.325515E-01  0.265440E-01
  0.265440E-01  0.325515E-01  0.434075E-01  0.566720E-01  0.690634E-01  0.777409E-01
  0.815550E-01  0.811602E-01  0.780875E-01  0.737789E-01  0.691789E-01  0.647584E-01
  0.690668E-01  0.654290E-01  0.618667E-01  0.585020E-01  0.556352E-01  0.536732E-01
  0.529720E-01  0.536732E-01  0.556352E-01  0.585020E-01  0.618667E-01  0.654290E-01
  0.690668E-01  0.727926E-01  0.766165E-01  0.803697E-01  0.835350E-01  0.851361E-01
  0.838414E-01  0.785051E-01  0.690634E-01  0.571157E-01  0.455148E-01  0.372044E-01
  0.342040E-01  0.372044E-01  0.455148E-01  0.571157E-01  0.690634E-01  0.785051E-01
  0.838414E-01  0.851361E-01  0.835350E-01  0.803697E-01  0.766165E-01  0.727926E-01
  0.690668E-01  0.731719E-01  0.696333E-01  0.658007E-01  0.620209E-01  0.589058E-01
  0.571273E-01  0.571273E-01  0.589058E-01  0.620209E-01  0.658007E-01  0.696333E-01
  0.731719E-01  0.763653E-01  0.793309E-01  0.821528E-01  0.846906E-01  0.864422E-01
  0.865154E-01  0.838414E-01  0.777409E-01  0.686281E-01  0.582775E-01  0.492912E-01
  0.440942E-01  0.440942E-01  0.492912E-01  0.582775E-01  0.686281E-01  0.777409E-01
  0.838414E-01  0.865154E-01  0.864422E-01  0.846906E-01  0.821528E-01  0.793309E-01
  0.763653E-01  0.731719E-01  0.762812E-01  0.721976E-01  0.674816E-01  0.629112E-01
  0.595447E-01  0.583013E-01  0.595447E-01  0.629112E-01  0.674816E-01  0.721976E-01
  0.762812E-01  0.794397E-01  0.817910E-01  0.836187E-01  0.851139E-01  0.861970E-01
  0.864422E-01  0.851361E-01  0.815550E-01  0.754621E-01  0.675742E-01  0.595902E-01
  0.536367E-01  0.514344E-01  0.536367E-01  0.595902E-01  0.675742E-01  0.754621E-01
  0.815550E-01  0.851361E-01  0.864422E-01  0.861970E-01  0.851139E-01  0.836187E-01
  0.817910E-01  0.794397E-01  0.762812E-01  0.771851E-01  0.717080E-01  0.655482E-01
  0.601203E-01  0.569264E-01  0.569264E-01  0.601203E-01  0.655482E-01  0.717080E-01
  0.771851E-01  0.811602E-01  0.835350E-01  0.846906E-01  0.851139E-01  0.851139E-01
  0.846906E-01  0.835350E-01  0.811602E-01  0.771851E-01  0.717080E-01  0.655482E-01
  0.601203E-01  0.569264E-01  0.569264E-01  0.601203E-01  0.655482E-01  0.717080E-01
  0.771851E-01  0.811602E-01  0.835350E-01  0.846906E-01  0.851139E-01  0.851139E-01
  0.846906E-01  0.835350E-01  0.811602E-01  0.771851E-01  0.745563E-01  0.670240E-01
  0.593806E-01  0.536700E-01  0.515553E-01  0.536700E-01  0.593806E-01  0.670240E-01
  0.745563E-01  0.803558E-01  0.837465E-01  0.849604E-01  0.846906E-01  0.836187E-01
  0.821528E-01  0.803697E-01  0.780875E-01  0.750361E-01  0.711044E-01  0.665736E-01
  0.621872E-01  0.589576E-01  0.577649E-01  0.589576E-01  0.621872E-01  0.665736E-01
  0.711044E-01  0.750361E-01  0.780875E-01  0.803697E-01  0.821528E-01  0.836187E-01
  0.846906E-01  0.849604E-01  0.837465E-01  0.803558E-01  0.745563E-01  0.677088E-01
  0.582153E-01  0.499110E-01  0.450848E-01  0.450848E-01  0.499110E-01  0.582153E-01
  0.677088E-01  0.759846E-01  0.814438E-01  0.837465E-01  0.835350E-01  0.817910E-01
  0.793309E-01  0.766165E-01  0.737789E-01  0.707429E-01  0.674035E-01  0.638116E-01
  0.602877E-01  0.573934E-01  0.557440E-01  0.557440E-01  0.573934E-01  0.602877E-01
  0.638116E-01  0.674035E-01  0.707429E-01  0.737789E-01  0.766165E-01  0.793309E-01
  0.817910E-01  0.835350E-01  0.837465E-01  0.814438E-01  0.759846E-01  0.677088E-01
  0.574207E-01  0.470574E-01  0.395345E-01  0.367990E-01  0.395345E-01  0.470574E-01
  0.574207E-01  0.679013E-01  0.759846E-01  0.803558E-01  0.811602E-01  0.794397E-01
  0.763653E-01  0.727926E-01  0.691789E-01  0.656757E-01  0.622761E-01  0.589724E-01
  0.558770E-01  0.532575E-01  0.514730E-01  0.508366E-01  0.514730E-01  0.532575E-01
  0.558770E-01  0.589724E-01  0.622761E-01  0.656757E-01  0.691789E-01  0.727926E-01
  0.763653E-01  0.794397E-01  0.811602E-01  0.803558E-01  0.759846E-01  0.679013E-01
  0.574207E-01  0.460107E-01  0.364118E-01  0.310013E-01  0.310013E-01  0.364118E-01
  0.460107E-01  0.574207E-01  0.677088E-01  0.745563E-01  0.771851E-01  0.762812E-01
  0.731719E-01  0.690668E-01  0.647584E-01  0.606462E-01  0.568679E-01  0.534452E-01
  0.504091E-01  0.478670E-01  0.459997E-01  0.450023E-01  0.450023E-01  0.459997E-01
  0.478670E-01  0.504091E-01  0.534452E-01  0.568679E-01  0.606462E-01  0.647584E-01
  0.690668E-01  0.731719E-01  0.762812E-01  0.771851E-01  0.745563E-01  0.677088E-01
  0.574207E-01  0.460107E-01  0.309426E-01  0.225160E-01  0.195777E-01  0.225160E-01
  0.309426E-01  0.434075E-01  0.571157E-01  0.686281E-01  0.754621E-01  0.771851E-01
  0.750361E-01  0.707429E-01  0.656757E-01  0.606462E-01  0.560327E-01  0.519600E-01
  0.484545E-01  0.455524E-01  0.433411E-01  0.419419E-01  0.414614E-01  0.419419E-01
  0.433411E-01  0.455524E-01  0.484545E-01  0.519600E-01  0.560327E-01  0.606462E-01
  0.656757E-01  0.707429E-01  0.750361E-01  0.771851E-01  0.754621E-01  0.686281E-01
  0.571157E-01  0.434075E-01  0.309426E-01  0.225160E-01  0.172038E-01  0.172038E-01
  0.225160E-01  0.325515E-01  0.455148E-01  0.582775E-01  0.675742E-01  0.717080E-01
  0.711044E-01  0.674035E-01  0.622761E-01  0.568679E-01  0.517979E-01  0.473298E-01
  0.435371E-01  0.404300E-01  0.380281E-01  0.363776E-01  0.355338E-01  0.355338E-01
  0.363776E-01  0.380281E-01  0.404300E-01  0.435371E-01  0.473298E-01  0.517979E-01
  0.568679E-01  0.622761E-01  0.674035E-01  0.711044E-01  0.717080E-01  0.675742E-01
  0.582775E-01  0.455148E-01  0.325515E-01  0.225160E-01  0.195777E-01  0.172038E-01
  0.195777E-01  0.265440E-01  0.372044E-01  0.492912E-01  0.595902E-01  0.655482E-01
  0.665736E-01  0.638116E-01  0.589724E-01  0.534452E-01  0.480737E-01  0.432718E-01
  0.391891E-01  0.358470E-01  0.332346E-01  0.313514E-01  0.302106E-01  0.298281E-01
  0.302106E-01  0.313514E-01  0.332346E-01  0.358470E-01  0.391891E-01  0.432718E-01
  0.480737E-01  0.534452E-01  0.589724E-01  0.638116E-01  0.665736E-01  0.655482E-01
  0.595902E-01  0.492912E-01  0.372044E-01  0.265440E-01  0.195777E-01  0.225160E-01
  0.225160E-01  0.265440E-01  0.342040E-01  0.440942E-01  0.536367E-01  0.601203E-01
  0.621872E-01  0.602877E-01  0.558770E-01  0.504091E-01  0.448813E-01  0.398377E-01
  0.355091E-01  0.319478E-01  0.291346E-01  0.270414E-01  0.256512E-01  0.249570E-01
  0.249570E-01  0.256512E-01  0.270414E-01  0.291346E-01  0.319478E-01  0.355091E-01
  0.398377E-01  0.448813E-01  0.504091E-01  0.558770E-01  0.602877E-01  0.621872E-01
  0.601203E-01  0.536367E-01  0.440942E-01  0.342040E-01  0.265440E-01  0.225160E-01
  0.309426E-01  0.325515E-01  0.372044E-01  0.440942E-01  0.514344E-01  0.569264E-01
  0.589576E-01  0.573934E-01  0.532575E-01  0.478670E-01  0.422523E-01  0.370331E-01
  0.325040E-01  0.287516E-01  0.257596E-01  0.234837E-01  0.218850E-01  0.209362E-01
  0.206216E-01  0.209362E-01  0.218850E-01  0.234837E-01  0.257596E-01  0.287516E-01
  0.325040E-01  0.370331E-01  0.422523E-01  0.478670E-01  0.532575E-01  0.573934E-01
  0.589576E-01  0.569264E-01  0.514344E-01  0.440942E-01  0.372044E-01  0.325515E-01
  0.309426E-01  0.434075E-01  0.455148E-01  0.492912E-01  0.536367E-01  0.569264E-01
  0.577649E-01  0.557440E-01  0.514730E-01  0.459997E-01  0.402604E-01  0.348735E-01
  0.301609E-01  0.262324E-01  0.230769E-01  0.206397E-01  0.188646E-01  0.177071E-01
  0.171361E-01  0.171361E-01  0.177071E-01  0.188646E-01  0.206397E-01  0.230769E-01
  0.262324E-01  0.301609E-01  0.348735E-01  0.402604E-01  0.459997E-01  0.514730E-01
  0.557440E-01  0.577649E-01  0.569264E-01  0.536367E-01  0.492912E-01  0.455148E-01
  0.434075E-01  0.434075E-01  0.571157E-01  0.582775E-01  0.595902E-01  0.601203E-01
  0.589576E-01  0.557440E-01  0.508366E-01  0.450023E-01  0.390057E-01  0.333951E-01
  0.284765E-01  0.243623E-01  0.210414E-01  0.184499E-01  0.165171E-01  0.151827E-01
  0.144009E-01  0.141434E-01  0.144009E-01  0.151827E-01  0.165171E-01  0.184499E-01
  0.210414E-01  0.243623E-01  0.284765E-01  0.333951E-01  0.390057E-01  0.450023E-01
  0.508366E-01  0.557440E-01  0.589576E-01  0.601203E-01  0.595902E-01  0.582775E-01
  0.571157E-01  0.566720E-01  0.571157E-01  0.686281E-01  0.675742E-01  0.655482E-01
  0.621872E-01  0.573934E-01  0.514730E-01  0.450023E-01  0.385758E-01  0.326412E-01
  0.274583E-01  0.231227E-01  0.196148E-01  0.168595E-01  0.147720E-01  0.132774E-01
  0.123157E-01  0.118451E-01  0.118451E-01  0.123157E-01  0.132774E-01  0.147720E-01
  0.168595E-01  0.196148E-01  0.231227E-01  0.274583E-01  0.326412E-01  0.385758E-01
  0.450023E-01  0.514730E-01  0.573934E-01  0.621872E-01  0.655482E-01  0.675742E-01
  0.686281E-01  0.690634E-01  0.690634E-01  0.686281E-01  0.754621E-01  0.717080E-01
  0.665736E-01  0.602877E-01  0.532575E-01  0.459997E-01  0.390057E-01  0.326412E-01
  0.271173E-01  0.225044E-01  0.187694E-01  0.158243E-01  0.135701E-01  0.119173E-01
  0.107917E-01  0.101381E-01  0.992377E-02  0.101381E-01  0.107917E-01  0.119173E-01
  0.135701E-01  0.158243E-01  0.187694E-01  0.225044E-01  0.271173E-01  0.326412E-01
  0.390057E-01  0.459997E-01  0.532575E-01  0.602877E-01  0.665736E-01  0.717080E-01
  0.754621E-01  0.777409E-01  0.785051E-01  0.777409E-01  0.754621E-01  0.771851E-01
  0.711044E-01  0.638116E-01  0.558770E-01  0.478670E-01  0.402604E-01  0.333951E-01
  0.274583E-01  0.225044E-01  0.184892E-01  0.153142E-01  0.128668E-01  0.110434E-01
  0.975590E-02  0.893533E-02  0.853592E-02  0.853592E-02  0.893533E-02  0.975590E-02
  0.110434E-01  0.128668E-01  0.153142E-01  0.184892E-01  0.225044E-01  0.274583E-01
  0.333951E-01  0.402604E-01  0.478670E-01  0.558770E-01  0.638116E-01  0.711044E-01
  0.771851E-01  0.815550E-01  0.838414E-01  0.838414E-01  0.815550E-01  0.771851E-01
  0.750361E-01  0.674035E-01  0.589724E-01  0.504091E-01  0.422523E-01  0.348735E-01
  0.284765E-01  0.231227E-01  0.187694E-01  0.153142E-01  0.126353E-01  0.106160E-01
  0.915490E-02  0.816961E-02  0.760104E-02  0.741512E-02  0.760104E-02  0.816961E-02
  0.915490E-02  0.106160E-01  0.126353E-01  0.153142E-01  0.187694E-01  0.231227E-01
  0.284765E-01  0.348735E-01  0.422523E-01  0.504091E-01  0.589724E-01  0.674035E-01
  0.750361E-01  0.811602E-01  0.851361E-01  0.865154E-01  0.851361E-01  0.811602E-01
  0.750361E-01  0.707429E-01  0.622761E-01  0.534452E-01  0.448813E-01  0.370331E-01
  0.301609E-01  0.243623E-01  0.196148E-01  0.158243E-01  0.128668E-01  0.106160E-01
  0.895781E-02  0.779715E-02  0.706210E-02  0.670585E-02  0.670585E-02  0.706210E-02
  0.779715E-02  0.895781E-02  0.106160E-01  0.128668E-01  0.158243E-01  0.196148E-01
  0.243623E-01  0.301609E-01  0.370331E-01  0.448813E-01  0.534452E-01  0.622761E-01
  0.707429E-01  0.780875E-01  0.835350E-01  0.864422E-01  0.864422E-01  0.835350E-01
  0.780875E-01  0.707429E-01  0.656757E-01  0.568679E-01  0.480737E-01  0.398377E-01
  0.325040E-01  0.262324E-01  0.210414E-01  0.168595E-01  0.135701E-01  0.110434E-01
  0.915490E-02  0.779715E-02  0.688602E-02  0.636247E-02  0.619177E-02  0.636247E-02
  0.688602E-02  0.779715E-02  0.915490E-02  0.110434E-01  0.135701E-01  0.168595E-01
  0.210414E-01  0.262324E-01  0.325040E-01  0.398377E-01  0.480737E-01  0.568679E-01
  0.656757E-01  0.737789E-01  0.803697E-01  0.846906E-01  0.861970E-01  0.846906E-01
  0.803697E-01  0.737789E-01  0.656757E-01  0.606462E-01  0.517979E-01  0.432718E-01
  0.355091E-01  0.287516E-01  0.230769E-01  0.184499E-01  0.147720E-01  0.119173E-01
  0.975590E-02  0.816961E-02  0.706210E-02  0.636247E-02  0.602428E-02  0.602428E-02
  0.636247E-02  0.706210E-02  0.816961E-02  0.975590E-02  0.119173E-01  0.147720E-01
  0.184499E-01  0.230769E-01  0.287516E-01  0.355091E-01  0.432718E-01  0.517979E-01
  0.606462E-01  0.691789E-01  0.766165E-01  0.821528E-01  0.851139E-01  0.851139E-01
  0.821528E-01  0.766165E-01  0.691789E-01  0.606462E-01  0.560327E-01  0.473298E-01
  0.391891E-01  0.319478E-01  0.257596E-01  0.206397E-01  0.165171E-01  0.132774E-01
  0.107917E-01  0.893533E-02  0.760104E-02  0.670585E-02  0.619177E-02  0.602428E-02
  0.619177E-02  0.670585E-02  0.760104E-02  0.893533E-02  0.107917E-01  0.132774E-01
  0.165171E-01  0.206397E-01  0.257596E-01  0.319478E-01  0.391891E-01  0.473298E-01
  0.560327E-01  0.647584E-01  0.727926E-01  0.793309E-01  0.836187E-01  0.851139E-01
  0.836187E-01  0.793309E-01  0.727926E-01  0.647584E-01  0.560327E-01  0.519600E-01
  0.435371E-01  0.358470E-01  0.291346E-01  0.234837E-01  0.188646E-01  0.151827E-01
  0.123157E-01  0.101381E-01  0.853592E-02  0.741512E-02  0.670585E-02  0.636247E-02
  0.636247E-02  0.670585E-02  0.741512E-02  0.853592E-02  0.101381E-01  0.123157E-01
  0.151827E-01  0.188646E-01  0.234837E-01  0.291346E-01  0.358470E-01  0.435371E-01
  0.519600E-01  0.606783E-01  0.690668E-01  0.763653E-01  0.817910E-01  0.846906E-01
  0.846906E-01  0.817910E-01  0.763653E-01  0.690668E-01  0.606783E-01  0.519600E-01
  0.484545E-01  0.404300E-01  0.332346E-01  0.270414E-01  0.218850E-01  0.177071E-01
  0.144009E-01  0.118451E-01  0.992377E-02  0.853592E-02  0.760104E-02  0.706210E-02
  0.688602E-02  0.706210E-02  0.760104E-02  0.853592E-02  0.992377E-02  0.118451E-01
  0.144009E-01  0.177071E-01  0.218850E-01  0.270414E-01  0.332346E-01  0.404300E-01
  0.484545E-01  0.569632E-01  0.654290E-01  0.731719E-01  0.794397E-01  0.835350E-01
  0.849604E-01  0.835350E-01  0.794397E-01  0.731719E-01  0.654290E-01  0.569632E-01
  0.484545E-01  0.455524E-01  0.380281E-01  0.313514E-01  0.256512E-01  0.209362E-01
  0.171361E-01  0.141434E-01  0.118451E-01  0.101381E-01  0.893533E-02  0.816961E-02
  0.779715E-02  0.779715E-02  0.816961E-02  0.893533E-02  0.101381E-01  0.118451E-01
  0.141434E-01  0.171361E-01  0.209362E-01  0.256512E-01  0.313514E-01  0.380281E-01
  0.455524E-01  0.536455E-01  0.618667E-01  0.696333E-01  0.762812E-01  0.811602E-01
  0.837465E-01  0.837465E-01  0.811602E-01  0.762812E-01  0.696333E-01  0.618667E-01
  0.536455E-01  0.455524E-01  0.433411E-01  0.363776E-01  0.302106E-01  0.249570E-01
  0.206216E-01  0.171361E-01  0.144009E-01  0.123157E-01  0.107917E-01  0.975590E-02
  0.915490E-02  0.895781E-02  0.915490E-02  0.975590E-02  0.107917E-01  0.123157E-01
  0.144009E-01  0.171361E-01  0.206216E-01  0.249570E-01  0.302106E-01  0.363776E-01
  0.433411E-01  0.508473E-01  0.585020E-01  0.658007E-01  0.721976E-01  0.771851E-01
  0.803558E-01  0.814438E-01  0.803558E-01  0.771851E-01  0.721976E-01  0.658007E-01
  0.585020E-01  0.508473E-01  0.433411E-01  0.419419E-01  0.355338E-01  0.298281E-01
  0.249570E-01  0.209362E-01  0.177071E-01  0.151827E-01  0.132774E-01  0.119173E-01
  0.110434E-01  0.106160E-01  0.106160E-01  0.110434E-01  0.119173E-01  0.132774E-01
  0.151827E-01  0.177071E-01  0.209362E-01  0.249570E-01  0.298281E-01  0.355338E-01
  0.419419E-01  0.487790E-01  0.556352E-01  0.620209E-01  0.674816E-01  0.717080E-01
  0.745563E-01  0.759846E-01  0.759846E-01  0.745563E-01  0.717080E-01  0.674816E-01
  0.620209E-01  0.556352E-01  0.487790E-01  0.419419E-01  0.414614E-01  0.355338E-01
  0.302106E-01  0.256512E-01  0.218850E-01  0.188646E-01  0.165171E-01  0.147720E-01
  0.135701E-01  0.128668E-01  0.126353E-01  0.128668E-01  0.135701E-01  0.147720E-01
  0.165171E-01  0.188646E-01  0.218850E-01  0.256512E-01  0.302106E-01  0.355338E-01
  0.414614E-01  0.476698E-01  0.536732E-01  0.589058E-01  0.629112E-01  0.655482E-01
  0.670240E-01  0.677088E-01  0.679013E-01  0.677088E-01  0.670240E-01  0.655482E-01
  0.629112E-01  0.589058E-01  0.536732E-01  0.476698E-01  0.414614E-01  0.419419E-01
  0.363776E-01  0.313514E-01  0.270414E-01  0.234837E-01  0.206397E-01  0.184499E-01
  0.168595E-01  0.158243E-01  0.153142E-01  0.153142E-01  0.158243E-01  0.168595E-01
  0.184499E-01  0.206397E-01  0.234837E-01  0.270414E-01  0.313514E-01  0.363776E-01
  0.419419E-01  0.476698E-01  0.529720E-01  0.571273E-01  0.595447E-01  0.601203E-01
  0.593806E-01  0.582153E-01  0.574207E-01  0.574207E-01  0.582153E-01  0.593806E-01
  0.601203E-01  0.595447E-01  0.571273E-01  0.529720E-01  0.476698E-01  0.419419E-01
  0.433411E-01  0.380281E-01  0.332346E-01  0.291346E-01  0.257596E-01  0.230769E-01
  0.210414E-01  0.196148E-01  0.187694E-01  0.184892E-01  0.187694E-01  0.196148E-01
  0.210414E-01  0.230769E-01  0.257596E-01  0.291346E-01  0.332346E-01  0.380281E-01
  0.433411E-01  0.487790E-01  0.536732E-01  0.571273E-01  0.583013E-01  0.569264E-01
  0.536700E-01  0.499110E-01  0.470574E-01  0.460107E-01  0.470574E-01  0.499110E-01
  0.536700E-01  0.569264E-01  0.583013E-01  0.571273E-01  0.536732E-01  0.487790E-01
  0.433411E-01  0.455524E-01  0.404300E-01  0.358470E-01  0.319478E-01  0.287516E-01
  0.262324E-01  0.243623E-01  0.231227E-01  0.225044E-01  0.225044E-01  0.231227E-01
  0.243623E-01  0.262324E-01  0.287516E-01  0.319478E-01  0.358470E-01  0.404300E-01
  0.455524E-01  0.508473E-01  0.556352E-01  0.589058E-01  0.595447E-01  0.569264E-01
  0.515553E-01  0.450848E-01  0.395345E-01  0.364118E-01  0.364118E-01  0.395345E-01
  0.450848E-01  0.515553E-01  0.569264E-01  0.595447E-01  0.589058E-01  0.556352E-01
  0.508473E-01  0.455524E-01  0.484545E-01  0.435371E-01  0.391891E-01  0.355091E-01
  0.325040E-01  0.301609E-01  0.284765E-01  0.274583E-01  0.271173E-01  0.274583E-01
  0.284765E-01  0.301609E-01  0.325040E-01  0.355091E-01  0.391891E-01  0.435371E-01
  0.484545E-01  0.536455E-01  0.585020E-01  0.620209E-01  0.629112E-01  0.601203E-01
  0.536700E-01  0.450848E-01  0.367990E-01  0.310013E-01  0.289467E-01  0.310013E-01
  0.367990E-01  0.450848E-01  0.536700E-01  0.601203E-01  0.629112E-01  0.620209E-01
  0.585020E-01  0.536455E-01  0.484545E-01  0.519600E-01  0.473298E-01  0.432718E-01
  0.398377E-01  0.370331E-01  0.348735E-01  0.333951E-01  0.326412E-01  0.326412E-01
  0.333951E-01  0.348735E-01  0.370331E-01  0.398377E-01  0.432718E-01  0.473298E-01
  0.519600E-01  0.569632E-01  0.618667E-01  0.658007E-01  0.674816E-01  0.655482E-01
  0.593806E-01  0.499110E-01  0.395345E-01  0.310013E-01  0.262896E-01  0.262896E-01
  0.310013E-01  0.395345E-01  0.499110E-01  0.593806E-01  0.655482E-01  0.674816E-01
  0.658007E-01  0.618667E-01  0.569632E-01  0.519600E-01  0.560327E-01  0.517979E-01
  0.480737E-01  0.448813E-01  0.422523E-01  0.402604E-01  0.390057E-01  0.385758E-01
  0.390057E-01  0.402604E-01  0.422523E-01  0.448813E-01  0.480737E-01  0.517979E-01
  0.560327E-01  0.606783E-01  0.654290E-01  0.696333E-01  0.721976E-01  0.717080E-01
  0.670240E-01  0.582153E-01  0.470574E-01  0.364118E-01  0.289467E-01  0.262896E-01
  0.289467E-01  0.364118E-01  0.470574E-01  0.582153E-01  0.670240E-01  0.717080E-01
  0.721976E-01  0.696333E-01  0.654290E-01  0.606783E-01  0.560327E-01  0.606462E-01
  0.568679E-01  0.534452E-01  0.504091E-01  0.478670E-01  0.459997E-01  0.450023E-01
  0.450023E-01  0.459997E-01  0.478670E-01  0.504091E-01  0.534452E-01  0.568679E-01
  0.606462E-01  0.647584E-01  0.690668E-01  0.731719E-01  0.762812E-01  0.771851E-01
  0.745563E-01  0.677088E-01  0.574207E-01  0.460107E-01  0.364118E-01  0.310013E-01
  0.310013E-01  0.364118E-01  0.460107E-01  0.574207E-01  0.677088E-01  0.745563E-01
  0.771851E-01  0.762812E-01  0.731719E-01  0.690668E-01  0.647584E-01  0.606462E-01
  0.656757E-01  0.622761E-01  0.589724E-01  0.558770E-01  0.532575E-01  0.514730E-01
  0.508366E-01  0.514730E-01  0.532575E-01  0.558770E-01  0.589724E-01  0.622761E-01
  0.656757E-01  0.691789E-01  0.727926E-01  0.763653E-01  0.794397E-01  0.811602E-01
  0.803558E-01  0.759846E-01  0.679013E-01  0.574207E-01  0.470574E-01  0.395345E-01
  0.367990E-01  0.395345E-01  0.470574E-01  0.574207E-01  0.679013E-01  0.759846E-01
  0.803558E-01  0.811602E-01  0.794397E-01  0.763653E-01  0.727926E-01  0.691789E-01
  0.656757E-01  0.707429E-01  0.674035E-01  0.638116E-01  0.602877E-01  0.573934E-01
  0.557440E-01  0.557440E-01  0.573934E-01  0.602877E-01  0.638116E-01  0.674035E-01
  0.707429E-01  0.737789E-01  0.766165E-01  0.793309E-01  0.817910E-01  0.835350E-01
  0.837465E-01  0.814438E-01  0.759846E-01  0.677088E-01  0.582153E-01  0.499110E-01
  0.450848E-01  0.450848E-01  0.499110E-01  0.582153E-01  0.677088E-01  0.759846E-01
  0.814438E-01  0.837465E-01  0.835350E-01  0.817910E-01  0.793309E-01  0.766165E-01
  0.737789E-01  0.707429E-01  0.750361E-01  0.711044E-01  0.665736E-01  0.621872E-01
  0.589576E-01  0.577649E-01  0.589576E-01  0.621872E-01  0.665736E-01  0.711044E-01
  0.750361E-01  0.780875E-01  0.803697E-01  0.821528E-01  0.836187E-01  0.846906E-01
  0.849604E-01  0.837465E-01  0.803558E-01  0.745563E-01  0.670240E-01  0.593806E-01
  0.536700E-01  0.515553E-01  0.536700E-01  0.593806E-01  0.670240E-01  0.745563E-01
  0.803558E-01  0.837465E-01  0.849604E-01  0.846906E-01  0.836187E-01  0.821528E-01
  0.803697E-01  0.780875E-01  0.750361E-01  0.771851E-01  0.717080E-01  0.655482E-01
  0.601203E-01  0.569264E-01  0.569264E-01  0.601203E-01  0.655482E-01  0.717080E-01
  0.771851E-01  0.811602E-01  0.835350E-01  0.846906E-01  0.851139E-01  0.851139E-01
  0.846906E-01  0.835350E-01  0.811602E-01  0.771851E-01  0.717080E-01  0.655482E-01
  0.601203E-01  0.569264E-01  0.569264E-01  0.601203E-01  0.655482E-01  0.717080E-01
  0.771851E-01  0.811602E-01  0.835350E-01  0.846906E-01  0.851139E-01  0.851139E-01
  0.846906E-01  0.835350E-01  0.811602E-01  0.771851E-01  0.754621E-01  0.675742E-01
  0.595902E-01  0.536367E-01  0.514344E-01  0.536367E-01  0.595902E-01  0.675742E-01
  0.754621E-01  0.815550E-01  0.851361E-01  0.864422E-01  0.861970E-01  0.851139E-01
  0.836187E-01  0.817910E-01  0.794397E-01  0.762812E-01  0.721976E-01  0.674816E-01
  0.629112E-01  0.595447E-01  0.583013E-01  0.595447E-01  0.629112E-01  0.674816E-01
  0.721976E-01  0.762812E-01  0.794397E-01  0.817910E-01  0.836187E-01  0.851139E-01
  0.861970E-01  0.864422E-01  0.851361E-01  0.815550E-01  0.754621E-01  0.686281E-01
  0.582775E-01  0.492912E-01  0.440942E-01  0.440942E-01  0.492912E-01  0.582775E-01
  0.686281E-01  0.777409E-01  0.838414E-01  0.865154E-01  0.864422E-01  0.846906E-01
  0.821528E-01  0.793309E-01  0.763653E-01  0.731719E-01  0.696333E-01  0.658007E-01
  0.620209E-01  0.589058E-01  0.571273E-01  0.571273E-01  0.589058E-01  0.620209E-01
  0.658007E-01  0.696333E-01  0.731719E-01  0.763653E-01  0.793309E-01  0.821528E-01
  0.846906E-01  0.864422E-01  0.865154E-01  0.838414E-01  0.777409E-01  0.686281E-01
  0.571157E-01  0.455148E-01  0.372044E-01  0.342040E-01  0.372044E-01  0.455148E-01
  0.571157E-01  0.690634E-01  0.785051E-01  0.838414E-01  0.851361E-01  0.835350E-01
  0.803697E-01  0.766165E-01  0.727926E-01  0.690668E-01  0.654290E-01  0.618667E-01
  0.585020E-01  0.556352E-01  0.536732E-01  0.529720E-01  0.536732E-01  0.556352E-01
  0.585020E-01  0.618667E-01  0.654290E-01  0.690668E-01  0.727926E-01  0.766165E-01
  0.803697E-01  0.835350E-01  0.851361E-01  0.838414E-01  0.785051E-01  0.690634E-01
  0.571157E-01  0.434075E-01  0.325515E-01  0.265440E-01  0.265440E-01  0.325515E-01
  0.434075E-01  0.566720E-01  0.690634E-01  0.777409E-01  0.815550E-01  0.811602E-01
  0.780875E-01  0.737789E-01  0.691789E-01  0.647584E-01  0.606783E-01  0.569632E-01
  0.536455E-01  0.508473E-01  0.487790E-01  0.476698E-01  0.476698E-01  0.487790E-01
  0.508473E-01  0.536455E-01  0.569632E-01  0.606783E-01  0.647584E-01  0.691789E-01
  0.737789E-01  0.780875E-01  0.811602E-01  0.815550E-01  0.777409E-01  0.690634E-01
  0.566720E-01  0.434075E-01  0.309426E-01  0.225160E-01  0.195777E-01  0.225160E-01
  0.309426E-01  0.434075E-01  0.571157E-01  0.686281E-01  0.754621E-01  0.771851E-01
  0.750361E-01  0.707429E-01  0.656757E-01  0.606462E-01  0.560327E-01  0.519600E-01
  0.484545E-01  0.455524E-01  0.433411E-01  0.419419E-01  0.414614E-01  0.419419E-01
  0.433411E-01  0.455524E-01  0.484545E-01  0.519600E-01  0.560327E-01  0.606462E-01
  0.656757E-01  0.707429E-01  0.750361E-01  0.771851E-01  0.754621E-01  0.686281E-01
  0.571157E-01  0.434075E-01  0.309426E-01  0.170378E-01  0.116080E-01  0.116080E-01
  0.170378E-01  0.276550E-01  0.420342E-01  0.569845E-01  0.686281E-01  0.745563E-01
  0.748986E-01  0.714496E-01  0.661851E-01  0.604839E-01  0.550879E-01  0.503138E-01
  0.462530E-01  0.429191E-01  0.403349E-01  0.385542E-01  0.376421E-01  0.376421E-01
  0.385542E-01  0.403349E-01  0.429191E-01  0.462530E-01  0.503138E-01  0.550879E-01
  0.604839E-01  0.661851E-01  0.714496E-01  0.748986E-01  0.745563E-01  0.686281E-01
  0.569845E-01  0.420342E-01  0.276550E-01  0.170378E-01  0.116080E-01  0.923557E-02
  0.116080E-01  0.188380E-01  0.306089E-01  0.449698E-01  0.582775E-01  0.670240E-01
  0.698908E-01  0.679382E-01  0.632050E-01  0.574387E-01  0.517090E-01  0.465409E-01
  0.421307E-01  0.385143E-01  0.356826E-01  0.336372E-01  0.323960E-01  0.319794E-01
  0.323960E-01  0.336372E-01  0.356826E-01  0.385143E-01  0.421307E-01  0.465409E-01
  0.517090E-01  0.574387E-01  0.632050E-01  0.679382E-01  0.698908E-01  0.670240E-01
  0.582775E-01  0.449698E-01  0.306089E-01  0.188380E-01  0.116080E-01  0.116080E-01
  0.116080E-01  0.158065E-01  0.243488E-01  0.364025E-01  0.492912E-01  0.593806E-01
  0.642536E-01  0.639181E-01  0.600428E-01  0.545156E-01  0.486709E-01  0.432397E-01
  0.385417E-01  0.346643E-01  0.315966E-01  0.293104E-01  0.277898E-01  0.270299E-01
  0.270299E-01  0.277898E-01  0.293104E-01  0.315966E-01  0.346643E-01  0.385417E-01
  0.432397E-01  0.486709E-01  0.545156E-01  0.600428E-01  0.639181E-01  0.642536E-01
  0.593806E-01  0.492912E-01  0.364025E-01  0.243488E-01  0.158065E-01  0.116080E-01
  0.170378E-01  0.188380E-01  0.243488E-01  0.333170E-01  0.440942E-01  0.536700E-01
  0.592793E-01  0.600398E-01  0.569731E-01  0.518117E-01  0.460015E-01  0.404255E-01
  0.355160E-01  0.314224E-01  0.281497E-01  0.256559E-01  0.239012E-01  0.228587E-01
  0.225129E-01  0.228587E-01  0.239012E-01  0.256559E-01  0.281497E-01  0.314224E-01
  0.355160E-01  0.404255E-01  0.460015E-01  0.518117E-01  0.569731E-01  0.600398E-01
  0.592793E-01  0.536700E-01  0.440942E-01  0.333170E-01  0.243488E-01  0.188380E-01
  0.170378E-01  0.276550E-01  0.306089E-01  0.364025E-01  0.440942E-01  0.515553E-01
  0.563490E-01  0.571888E-01  0.544693E-01  0.495484E-01  0.437894E-01  0.381241E-01
  0.330549E-01  0.287833E-01  0.253356E-01  0.226657E-01  0.207170E-01  0.194440E-01
  0.188156E-01  0.188156E-01  0.194440E-01  0.207170E-01  0.226657E-01  0.253356E-01
  0.287833E-01  0.330549E-01  0.381241E-01  0.437894E-01  0.495484E-01  0.544693E-01
  0.571888E-01  0.563490E-01  0.515553E-01  0.440942E-01  0.364025E-01  0.306089E-01
  0.276550E-01  0.276550E-01  0.420342E-01  0.449698E-01  0.492912E-01  0.536700E-01
  0.563490E-01  0.561363E-01  0.530477E-01  0.480180E-01  0.421785E-01  0.363931E-01
  0.311693E-01  0.267323E-01  0.231241E-01  0.202975E-01  0.181833E-01  0.167202E-01
  0.158619E-01  0.155792E-01  0.158619E-01  0.167202E-01  0.181833E-01  0.202975E-01
  0.231241E-01  0.267323E-01  0.311693E-01  0.363931E-01  0.421785E-01  0.480180E-01
  0.530477E-01  0.561363E-01  0.563490E-01  0.536700E-01  0.492912E-01  0.449698E-01
  0.420342E-01  0.410251E-01  0.420342E-01  0.569845E-01  0.582775E-01  0.593806E-01
  0.592793E-01  0.571888E-01  0.530477E-01  0.474742E-01  0.413227E-01  0.353088E-01
  0.298843E-01  0.252629E-01  0.214873E-01  0.185063E-01  0.162395E-01  0.146117E-01
  0.135625E-01  0.130488E-01  0.130488E-01  0.135625E-01  0.146117E-01  0.162395E-01
  0.185063E-01  0.214873E-01  0.252629E-01  0.298843E-01  0.353088E-01  0.413227E-01
  0.474742E-01  0.530477E-01  0.571888E-01  0.592793E-01  0.593806E-01  0.582775E-01
  0.569845E-01  0.562020E-01  0.562020E-01  0.569845E-01  0.686281E-01  0.670240E-01
  0.642536E-01  0.600398E-01  0.544693E-01  0.480180E-01  0.413227E-01  0.349384E-01
  0.292309E-01  0.243769E-01  0.204050E-01  0.172542E-01  0.148320E-01  0.130498E-01
  0.118332E-01  0.111263E-01  0.108944E-01  0.111263E-01  0.118332E-01  0.130498E-01
  0.148320E-01  0.172542E-01  0.204050E-01  0.243769E-01  0.292309E-01  0.349384E-01
  0.413227E-01  0.480180E-01  0.544693E-01  0.600398E-01  0.642536E-01  0.670240E-01
  0.686281E-01  0.694366E-01  0.696836E-01  0.694366E-01  0.686281E-01  0.745563E-01
  0.698908E-01  0.639181E-01  0.569731E-01  0.495484E-01  0.421785E-01  0.353088E-01
  0.292309E-01  0.240805E-01  0.198659E-01  0.165133E-01  0.139177E-01  0.119764E-01
  0.106019E-01  0.972478E-02  0.929768E-02  0.929768E-02  0.972478E-02  0.106019E-01
  0.119764E-01  0.139177E-01  0.165133E-01  0.198659E-01  0.240805E-01  0.292309E-01
  0.353088E-01  0.421785E-01  0.495484E-01  0.569731E-01  0.639181E-01  0.698908E-01
  0.745563E-01  0.777409E-01  0.793570E-01  0.793570E-01  0.777409E-01  0.745563E-01
  0.748986E-01  0.679382E-01  0.600428E-01  0.518117E-01  0.437894E-01  0.363931E-01
  0.298843E-01  0.243769E-01  0.198659E-01  0.162680E-01  0.134674E-01  0.113489E-01
  0.981183E-02  0.877367E-02  0.817406E-02  0.797790E-02  0.817406E-02  0.877367E-02
  0.981183E-02  0.113489E-01  0.134674E-01  0.162680E-01  0.198659E-01  0.243769E-01
  0.298843E-01  0.363931E-01  0.437894E-01  0.518117E-01  0.600428E-01  0.679382E-01
  0.748986E-01  0.803558E-01  0.838414E-01  0.850407E-01  0.838414E-01  0.803558E-01
  0.748986E-01  0.714496E-01  0.632050E-01  0.545156E-01  0.460015E-01  0.381241E-01
  0.311693E-01  0.252629E-01  0.204050E-01  0.165133E-01  0.134674E-01  0.111423E-01
  0.942554E-02  0.822228E-02  0.745951E-02  0.708945E-02  0.708945E-02  0.745951E-02
  0.822228E-02  0.942554E-02  0.111423E-01  0.134674E-01  0.165133E-01  0.204050E-01
  0.252629E-01  0.311693E-01  0.381241E-01  0.460015E-01  0.545156E-01  0.632050E-01
  0.714496E-01  0.785329E-01  0.837465E-01  0.865154E-01  0.865154E-01  0.837465E-01
  0.785329E-01  0.714496E-01  0.661851E-01  0.574387E-01  0.486709E-01  0.404255E-01
  0.330549E-01  0.267323E-01  0.214873E-01  0.172542E-01  0.139177E-01  0.113489E-01
  0.942554E-02  0.804156E-02  0.711232E-02  0.657785E-02  0.640343E-02  0.657785E-02
  0.711232E-02  0.804156E-02  0.942554E-02  0.113489E-01  0.139177E-01  0.172542E-01
  0.214873E-01  0.267323E-01  0.330549E-01  0.404255E-01  0.486709E-01  0.574387E-01
  0.661851E-01  0.742032E-01  0.807059E-01  0.849604E-01  0.864422E-01  0.849604E-01
  0.807059E-01  0.742032E-01  0.661851E-01  0.604839E-01  0.517090E-01  0.432397E-01
  0.355160E-01  0.287833E-01  0.231241E-01  0.185063E-01  0.148320E-01  0.119764E-01
  0.981183E-02  0.822228E-02  0.711232E-02  0.641089E-02  0.607160E-02  0.607160E-02
  0.641089E-02  0.711232E-02  0.822228E-02  0.981183E-02  0.119764E-01  0.148320E-01
  0.185063E-01  0.231241E-01  0.287833E-01  0.355160E-01  0.432397E-01  0.517090E-01
  0.604839E-01  0.689340E-01  0.762917E-01  0.817646E-01  0.846906E-01  0.846906E-01
  0.817646E-01  0.762917E-01  0.689340E-01  0.604839E-01  0.550879E-01  0.465409E-01
  0.385417E-01  0.314224E-01  0.253356E-01  0.202975E-01  0.162395E-01  0.130498E-01
  0.106019E-01  0.877367E-02  0.745951E-02  0.657785E-02  0.607160E-02  0.590666E-02
  0.607160E-02  0.657785E-02  0.745951E-02  0.877367E-02  0.106019E-01  0.130498E-01
  0.162395E-01  0.202975E-01  0.253356E-01  0.314224E-01  0.385417E-01  0.465409E-01
  0.550879E-01  0.636529E-01  0.715356E-01  0.779483E-01  0.821528E-01  0.836187E-01
  0.821528E-01  0.779483E-01  0.715356E-01  0.636529E-01  0.550879E-01  0.503138E-01
  0.421307E-01  0.346643E-01  0.281497E-01  0.226657E-01  0.181833E-01  0.146117E-01
  0.118332E-01  0.972478E-02  0.817406E-02  0.708945E-02  0.640343E-02  0.607160E-02
  0.607160E-02  0.640343E-02  0.708945E-02  0.817406E-02  0.972478E-02  0.118332E-01
  0.146117E-01  0.181833E-01  0.226657E-01  0.281497E-01  0.346643E-01  0.421307E-01
  0.503138E-01  0.587897E-01  0.669492E-01  0.740508E-01  0.793309E-01  0.821528E-01
  0.821528E-01  0.793309E-01  0.740508E-01  0.669492E-01  0.587897E-01  0.503138E-01
  0.462530E-01  0.385143E-01  0.315966E-01  0.256559E-01  0.207170E-01  0.167202E-01
  0.135625E-01  0.111263E-01  0.929768E-02  0.797790E-02  0.708945E-02  0.657785E-02
  0.641089E-02  0.657785E-02  0.708945E-02  0.797790E-02  0.929768E-02  0.111263E-01
  0.135625E-01  0.167202E-01  0.207170E-01  0.256559E-01  0.315966E-01  0.385143E-01
  0.462530E-01  0.544867E-01  0.627064E-01  0.702468E-01  0.763653E-01  0.803697E-01
  0.817646E-01  0.803697E-01  0.763653E-01  0.702468E-01  0.627064E-01  0.544867E-01
  0.462530E-01  0.429191E-01  0.356826E-01  0.293104E-01  0.239012E-01  0.194440E-01
  0.158619E-01  0.130488E-01  0.108944E-01  0.929768E-02  0.817406E-02  0.745951E-02
  0.711232E-02  0.711232E-02  0.745951E-02  0.817406E-02  0.929768E-02  0.108944E-01
  0.130488E-01  0.158619E-01  0.194440E-01  0.239012E-01  0.293104E-01  0.356826E-01
  0.429191E-01  0.507738E-01  0.588329E-01  0.665249E-01  0.731719E-01  0.780875E-01
  0.807059E-01  0.807059E-01  0.780875E-01  0.731719E-01  0.665249E-01  0.588329E-01
  0.507738E-01  0.429191E-01  0.403349E-01  0.336372E-01  0.277898E-01  0.228587E-01
  0.188156E-01  0.155792E-01  0.130488E-01  0.111263E-01  0.972478E-02  0.877367E-02
  0.822228E-02  0.804156E-02  0.822228E-02  0.877367E-02  0.972478E-02  0.111263E-01
  0.130488E-01  0.155792E-01  0.188156E-01  0.228587E-01  0.277898E-01  0.336372E-01
  0.403349E-01  0.476896E-01  0.553618E-01  0.628708E-01  0.696333E-01  0.750361E-01
  0.785329E-01  0.797439E-01  0.785329E-01  0.750361E-01  0.696333E-01  0.628708E-01
  0.553618E-01  0.476896E-01  0.403349E-01  0.385542E-01  0.323960E-01  0.270299E-01
  0.225129E-01  0.188156E-01  0.158619E-01  0.135625E-01  0.118332E-01  0.106019E-01
  0.981183E-02  0.942554E-02  0.942554E-02  0.981183E-02  0.106019E-01  0.118332E-01
  0.135625E-01  0.158619E-01  0.188156E-01  0.225129E-01  0.270299E-01  0.323960E-01
  0.385542E-01  0.453310E-01  0.524229E-01  0.594099E-01  0.658007E-01  0.711044E-01
  0.748986E-01  0.768766E-01  0.768766E-01  0.748986E-01  0.711044E-01  0.658007E-01
  0.594099E-01  0.524229E-01  0.453310E-01  0.385542E-01  0.376421E-01  0.319794E-01
  0.270299E-01  0.228587E-01  0.194440E-01  0.167202E-01  0.146117E-01  0.130498E-01
  0.119764E-01  0.113489E-01  0.111423E-01  0.113489E-01  0.119764E-01  0.130498E-01
  0.146117E-01  0.167202E-01  0.194440E-01  0.228587E-01  0.270299E-01  0.319794E-01
  0.376421E-01  0.438342E-01  0.502435E-01  0.564543E-01  0.620209E-01  0.665736E-01
  0.698908E-01  0.718885E-01  0.725536E-01  0.718885E-01  0.698908E-01  0.665736E-01
  0.620209E-01  0.564543E-01  0.502435E-01  0.438342E-01  0.376421E-01  0.376421E-01
  0.323960E-01  0.277898E-01  0.239012E-01  0.207170E-01  0.181833E-01  0.162395E-01
  0.148320E-01  0.139177E-01  0.134674E-01  0.134674E-01  0.139177E-01  0.148320E-01
  0.162395E-01  0.181833E-01  0.207170E-01  0.239012E-01  0.277898E-01  0.323960E-01
  0.376421E-01  0.433193E-01  0.490722E-01  0.544285E-01  0.589058E-01  0.621872E-01
  0.642536E-01  0.653482E-01  0.657915E-01  0.657915E-01  0.653482E-01  0.642536E-01
  0.621872E-01  0.589058E-01  0.544285E-01  0.490722E-01  0.433193E-01  0.376421E-01
  0.385542E-01  0.336372E-01  0.293104E-01  0.256559E-01  0.226657E-01  0.202975E-01
  0.185063E-01  0.172542E-01  0.165133E-01  0.162680E-01  0.165133E-01  0.172542E-01
  0.185063E-01  0.202975E-01  0.226657E-01  0.256559E-01  0.293104E-01  0.336372E-01
  0.385542E-01  0.438342E-01  0.490722E-01  0.537038E-01  0.571273E-01  0.589576E-01
  0.592793E-01  0.586632E-01  0.578827E-01  0.575480E-01  0.578827E-01  0.586632E-01
  0.592793E-01  0.589576E-01  0.571273E-01  0.537038E-01  0.490722E-01  0.438342E-01
  0.385542E-01  0.403349E-01  0.356826E-01  0.315966E-01  0.281497E-01  0.253356E-01
  0.231241E-01  0.214873E-01  0.204050E-01  0.198659E-01  0.198659E-01  0.204050E-01
  0.214873E-01  0.231241E-01  0.253356E-01  0.281497E-01  0.315966E-01  0.356826E-01
  0.403349E-01  0.453310E-01  0.502435E-01  0.544285E-01  0.571273E-01  0.577649E-01
  0.563490E-01  0.536415E-01  0.508663E-01  0.491591E-01  0.491591E-01  0.508663E-01
  0.536415E-01  0.563490E-01  0.577649E-01  0.571273E-01  0.544285E-01  0.502435E-01
  0.453310E-01  0.403349E-01  0.429191E-01  0.385143E-01  0.346643E-01  0.314224E-01
  0.287833E-01  0.267323E-01  0.252629E-01  0.243769E-01  0.240805E-01  0.243769E-01
  0.252629E-01  0.267323E-01  0.287833E-01  0.314224E-01  0.346643E-01  0.385143E-01
  0.429191E-01  0.476896E-01  0.524229E-01  0.564543E-01  0.589058E-01  0.589576E-01
  0.563490E-01  0.517764E-01  0.467514E-01  0.429449E-01  0.415398E-01  0.429449E-01
  0.467514E-01  0.517764E-01  0.563490E-01  0.589576E-01  0.589058E-01  0.564543E-01
  0.524229E-01  0.476896E-01  0.429191E-01  0.462530E-01  0.421307E-01  0.385417E-01
  0.355160E-01  0.330549E-01  0.311693E-01  0.298843E-01  0.292309E-01  0.292309E-01
  0.298843E-01  0.311693E-01  0.330549E-01  0.355160E-01  0.385417E-01  0.421307E-01
  0.462530E-01  0.507738E-01  0.553618E-01  0.594099E-01  0.620209E-01  0.621872E-01
  0.592793E-01  0.536415E-01  0.467514E-01  0.406607E-01  0.371396E-01  0.371396E-01
  0.406607E-01  0.467514E-01  0.536415E-01  0.592793E-01  0.621872E-01  0.620209E-01
  0.594099E-01  0.553618E-01  0.507738E-01  0.462530E-01  0.503138E-01  0.465409E-01
  0.432397E-01  0.404255E-01  0.381241E-01  0.363931E-01  0.353088E-01  0.349384E-01
  0.353088E-01  0.363931E-01  0.381241E-01  0.404255E-01  0.432397E-01  0.465409E-01
  0.503138E-01  0.544867E-01  0.588329E-01  0.628708E-01  0.658007E-01  0.665736E-01
  0.642536E-01  0.586632E-01  0.508663E-01  0.429449E-01  0.371396E-01  0.350235E-01
  0.371396E-01  0.429449E-01  0.508663E-01  0.586632E-01  0.642536E-01  0.665736E-01
  0.658007E-01  0.628708E-01  0.588329E-01  0.544867E-01  0.503138E-01  0.550879E-01
  0.517090E-01  0.486709E-01  0.460015E-01  0.437894E-01  0.421785E-01  0.413227E-01
  0.413227E-01  0.421785E-01  0.437894E-01  0.460015E-01  0.486709E-01  0.517090E-01
  0.550879E-01  0.587897E-01  0.627064E-01  0.665249E-01  0.696333E-01  0.711044E-01
  0.698908E-01  0.653482E-01  0.578827E-01  0.491591E-01  0.415398E-01  0.371396E-01
  0.371396E-01  0.415398E-01  0.491591E-01  0.578827E-01  0.653482E-01  0.698908E-01
  0.711044E-01  0.696333E-01  0.665249E-01  0.627064E-01  0.587897E-01  0.550879E-01
  0.604839E-01  0.574387E-01  0.545156E-01  0.518117E-01  0.495484E-01  0.480180E-01
  0.474742E-01  0.480180E-01  0.495484E-01  0.518117E-01  0.545156E-01  0.574387E-01
  0.604839E-01  0.636529E-01  0.669492E-01  0.702468E-01  0.731719E-01  0.750361E-01
  0.748986E-01  0.718885E-01  0.657915E-01  0.575480E-01  0.491591E-01  0.429449E-01
  0.406607E-01  0.429449E-01  0.491591E-01  0.575480E-01  0.657915E-01  0.718885E-01
  0.748986E-01  0.750361E-01  0.731719E-01  0.702468E-01  0.669492E-01  0.636529E-01
  0.604839E-01  0.661851E-01  0.632050E-01  0.600428E-01  0.569731E-01  0.544693E-01
  0.530477E-01  0.530477E-01  0.544693E-01  0.569731E-01  0.600428E-01  0.632050E-01
  0.661851E-01  0.689340E-01  0.715356E-01  0.740508E-01  0.763653E-01  0.780875E-01
  0.785329E-01  0.768766E-01  0.725536E-01  0.657915E-01  0.578827E-01  0.508663E-01
  0.467514E-01  0.467514E-01  0.508663E-01  0.578827E-01  0.657915E-01  0.725536E-01
  0.768766E-01  0.785329E-01  0.780875E-01  0.763653E-01  0.740508E-01  0.715356E-01
  0.689340E-01  0.661851E-01  0.714496E-01  0.679382E-01  0.639181E-01  0.600398E-01
  0.571888E-01  0.561363E-01  0.571888E-01  0.600398E-01  0.639181E-01  0.679382E-01
  0.714496E-01  0.742032E-01  0.762917E-01  0.779483E-01  0.793309E-01  0.803697E-01
  0.807059E-01  0.797439E-01  0.768766E-01  0.718885E-01  0.653482E-01  0.586632E-01
  0.536415E-01  0.517764E-01  0.536415E-01  0.586632E-01  0.653482E-01  0.718885E-01
  0.768766E-01  0.797439E-01  0.807059E-01  0.803697E-01  0.793309E-01  0.779483E-01
  0.762917E-01  0.742032E-01  0.714496E-01  0.748986E-01  0.698908E-01  0.642536E-01
  0.592793E-01  0.563490E-01  0.563490E-01  0.592793E-01  0.642536E-01  0.698908E-01
  0.748986E-01  0.785329E-01  0.807059E-01  0.817646E-01  0.821528E-01  0.821528E-01
  0.817646E-01  0.807059E-01  0.785329E-01  0.748986E-01  0.698908E-01  0.642536E-01
  0.592793E-01  0.563490E-01  0.563490E-01  0.592793E-01  0.642536E-01  0.698908E-01
  0.748986E-01  0.785329E-01  0.807059E-01  0.817646E-01  0.821528E-01  0.821528E-01
  0.817646E-01  0.807059E-01  0.785329E-01  0.748986E-01  0.745563E-01  0.670240E-01
  0.593806E-01  0.536700E-01  0.515553E-01  0.536700E-01  0.593806E-01  0.670240E-01
  0.745563E-01  0.803558E-01  0.837465E-01  0.849604E-01  0.846906E-01  0.836187E-01
  0.821528E-01  0.803697E-01  0.780875E-01  0.750361E-01  0.711044E-01  0.665736E-01
  0.621872E-01  0.589576E-01  0.577649E-01  0.589576E-01  0.621872E-01  0.665736E-01
  0.711044E-01  0.750361E-01  0.780875E-01  0.803697E-01  0.821528E-01  0.836187E-01
  0.846906E-01  0.849604E-01  0.837465E-01  0.803558E-01  0.745563E-01  0.686281E-01
  0.582775E-01  0.492912E-01  0.440942E-01  0.440942E-01  0.492912E-01  0.582775E-01
  0.686281E-01  0.777409E-01  0.838414E-01  0.865154E-01  0.864422E-01  0.846906E-01
  0.821528E-01  0.793309E-01  0.763653E-01  0.731719E-01  0.696333E-01  0.658007E-01
  0.620209E-01  0.589058E-01  0.571273E-01  0.571273E-01  0.589058E-01  0.620209E-01
  0.658007E-01  0.696333E-01  0.731719E-01  0.763653E-01  0.793309E-01  0.821528E-01
  0.846906E-01  0.864422E-01  0.865154E-01  0.838414E-01  0.777409E-01  0.686281E-01
  0.569845E-01  0.449698E-01  0.364025E-01  0.333170E-01  0.364025E-01  0.449698E-01
  0.569845E-01  0.694366E-01  0.793570E-01  0.850407E-01  0.865154E-01  0.849604E-01
  0.817646E-01  0.779483E-01  0.740508E-01  0.702468E-01  0.665249E-01  0.628708E-01
  0.594099E-01  0.564543E-01  0.544285E-01  0.537038E-01  0.544285E-01  0.564543E-01
  0.594099E-01  0.628708E-01  0.665249E-01  0.702468E-01  0.740508E-01  0.779483E-01
  0.817646E-01  0.849604E-01  0.865154E-01  0.850407E-01  0.793570E-01  0.694366E-01
  0.569845E-01  0.420342E-01  0.306089E-01  0.243488E-01  0.243488E-01  0.306089E-01
  0.420342E-01  0.562020E-01  0.696836E-01  0.793570E-01  0.838414E-01  0.837465E-01
  0.807059E-01  0.762917E-01  0.715356E-01  0.669492E-01  0.627064E-01  0.588329E-01
  0.553618E-01  0.524229E-01  0.502435E-01  0.490722E-01  0.490722E-01  0.502435E-01
  0.524229E-01  0.553618E-01  0.588329E-01  0.627064E-01  0.669492E-01  0.715356E-01
  0.762917E-01  0.807059E-01  0.837465E-01  0.838414E-01  0.793570E-01  0.696836E-01
  0.562020E-01  0.420342E-01  0.276550E-01  0.188380E-01  0.158065E-01  0.188380E-01
  0.276550E-01  0.410251E-01  0.562020E-01  0.694366E-01  0.777409E-01  0.803558E-01
  0.785329E-01  0.742032E-01  0.689340E-01  0.636529E-01  0.587897E-01  0.544867E-01
  0.507738E-01  0.476896E-01  0.453310E-01  0.438342E-01  0.433193E-01  0.438342E-01
  0.453310E-01  0.476896E-01  0.507738E-01  0.544867E-01  0.587897E-01  0.636529E-01
  0.689340E-01  0.742032E-01  0.785329E-01  0.803558E-01  0.777409E-01  0.694366E-01
  0.562020E-01  0.410251E-01  0.276550E-01  0.170378E-01  0.116080E-01  0.116080E-01
  0.170378E-01  0.276550E-01  0.420342E-01  0.569845E-01  0.686281E-01  0.745563E-01
  0.748986E-01  0.714496E-01  0.661851E-01  0.604839E-01  0.550879E-01  0.503138E-01
  0.462530E-01  0.429191E-01  0.403349E-01  0.385542E-01  0.376421E-01  0.376421E-01
  0.385542E-01  0.403349E-01  0.429191E-01  0.462530E-01  0.503138E-01  0.550879E-01
  0.604839E-01  0.661851E-01  0.714496E-01  0.748986E-01  0.745563E-01  0.686281E-01
  0.569845E-01  0.420342E-01  0.276550E-01  0.170378E-01  0.754337E-02  0.529640E-02
  0.754337E-02  0.145923E-01  0.266057E-01  0.420342E-01  0.571157E-01  0.677088E-01
  0.718885E-01  0.705538E-01  0.659339E-01  0.600270E-01  0.540673E-01  0.486604E-01
  0.440356E-01  0.402392E-01  0.372637E-01  0.351117E-01  0.338044E-01  0.333654E-01
  0.338044E-01  0.351117E-01  0.372637E-01  0.402392E-01  0.440356E-01  0.486604E-01
  0.540673E-01  0.600270E-01  0.659339E-01  0.705538E-01  0.718885E-01  0.677088E-01
  0.571157E-01  0.420342E-01  0.266057E-01  0.145923E-01  0.754337E-02  0.529640E-02
  0.529640E-02  0.921424E-02  0.176997E-01  0.306089E-01  0.455148E-01  0.582153E-01
  0.653482E-01  0.663732E-01  0.630182E-01  0.575017E-01  0.514420E-01  0.457300E-01
  0.407596E-01  0.366480E-01  0.333917E-01  0.309628E-01  0.293458E-01  0.285372E-01
  0.285372E-01  0.293458E-01  0.309628E-01  0.333917E-01  0.366480E-01  0.407596E-01
  0.457300E-01  0.514420E-01  0.575017E-01  0.630182E-01  0.663732E-01  0.653482E-01
  0.582153E-01  0.455148E-01  0.306089E-01  0.176997E-01  0.921424E-02  0.529640E-02
  0.754337E-02  0.921424E-02  0.146527E-01  0.243488E-01  0.372044E-01  0.499110E-01
  0.586632E-01  0.616615E-01  0.597184E-01  0.548749E-01  0.489627E-01  0.431200E-01
  0.379104E-01  0.335432E-01  0.300442E-01  0.273750E-01  0.254951E-01  0.243775E-01
  0.240067E-01  0.243775E-01  0.254951E-01  0.273750E-01  0.300442E-01  0.335432E-01
  0.379104E-01  0.431200E-01  0.489627E-01  0.548749E-01  0.597184E-01  0.616615E-01
  0.586632E-01  0.499110E-01  0.372044E-01  0.243488E-01  0.146527E-01  0.921424E-02
  0.754337E-02  0.145923E-01  0.176997E-01  0.243488E-01  0.342040E-01  0.450848E-01
  0.536415E-01  0.574956E-01  0.565560E-01  0.523649E-01  0.467080E-01  0.408539E-01
  0.354977E-01  0.309374E-01  0.272404E-01  0.243716E-01  0.222745E-01  0.209031E-01
  0.202258E-01  0.202258E-01  0.209031E-01  0.222745E-01  0.243716E-01  0.272404E-01
  0.309374E-01  0.354977E-01  0.408539E-01  0.467080E-01  0.523649E-01  0.565560E-01
  0.574956E-01  0.536415E-01  0.450848E-01  0.342040E-01  0.243488E-01  0.176997E-01
  0.145923E-01  0.145923E-01  0.266057E-01  0.306089E-01  0.372044E-01  0.450848E-01
  0.517764E-01  0.550369E-01  0.542387E-01  0.503393E-01  0.448480E-01  0.389997E-01
  0.335413E-01  0.288285E-01  0.249665E-01  0.219301E-01  0.196536E-01  0.180754E-01
  0.171487E-01  0.168432E-01  0.171487E-01  0.180754E-01  0.196536E-01  0.219301E-01
  0.249665E-01  0.288285E-01  0.335413E-01  0.389997E-01  0.448480E-01  0.503393E-01
  0.542387E-01  0.550369E-01  0.517764E-01  0.450848E-01  0.372044E-01  0.306089E-01
  0.266057E-01  0.253163E-01  0.266057E-01  0.420342E-01  0.455148E-01  0.499110E-01
  0.536415E-01  0.550369E-01  0.533843E-01  0.491959E-01  0.436027E-01  0.376638E-01
  0.320820E-01  0.272219E-01  0.232066E-01  0.200186E-01  0.175865E-01  0.158354E-01
  0.147047E-01  0.141508E-01  0.141508E-01  0.147047E-01  0.158354E-01  0.175865E-01
  0.200186E-01  0.232066E-01  0.272219E-01  0.320820E-01  0.376638E-01  0.436027E-01
  0.491959E-01  0.533843E-01  0.550369E-01  0.536415E-01  0.499110E-01  0.455148E-01
  0.420342E-01  0.402303E-01  0.402303E-01  0.420342E-01  0.571157E-01  0.582153E-01
  0.586632E-01  0.574956E-01  0.542387E-01  0.491959E-01  0.431624E-01  0.369588E-01
  0.311738E-01  0.261325E-01  0.219505E-01  0.186088E-01  0.160287E-01  0.141237E-01
  0.128204E-01  0.120622E-01  0.118135E-01  0.120622E-01  0.128204E-01  0.141237E-01
  0.160287E-01  0.186088E-01  0.219505E-01  0.261325E-01  0.311738E-01  0.369588E-01
  0.431624E-01  0.491959E-01  0.542387E-01  0.574956E-01  0.586632E-01  0.582153E-01
  0.571157E-01  0.562020E-01  0.558693E-01  0.562020E-01  0.571157E-01  0.677088E-01
  0.653482E-01  0.616615E-01  0.565560E-01  0.503393E-01  0.436027E-01  0.369588E-01
  0.308645E-01  0.255803E-01  0.211953E-01  0.176791E-01  0.149427E-01  0.128880E-01
  0.114289E-01  0.104962E-01  0.100420E-01  0.100420E-01  0.104962E-01  0.114289E-01
  0.128880E-01  0.149427E-01  0.176791E-01  0.211953E-01  0.255803E-01  0.308645E-01
  0.369588E-01  0.436027E-01  0.503393E-01  0.565560E-01  0.616615E-01  0.653482E-01
  0.677088E-01  0.690634E-01  0.696836E-01  0.696836E-01  0.690634E-01  0.677088E-01
  0.718885E-01  0.663732E-01  0.597184E-01  0.523649E-01  0.448480E-01  0.376638E-01
  0.311738E-01  0.255803E-01  0.209429E-01  0.172165E-01  0.143012E-01  0.120866E-01
  0.104745E-01  0.938336E-02  0.875270E-02  0.854636E-02  0.875270E-02  0.938336E-02
  0.104745E-01  0.120866E-01  0.143012E-01  0.172165E-01  0.209429E-01  0.255803E-01
  0.311738E-01  0.376638E-01  0.448480E-01  0.523649E-01  0.597184E-01  0.663732E-01
  0.718885E-01  0.759846E-01  0.785051E-01  0.793570E-01  0.785051E-01  0.759846E-01
  0.718885E-01  0.705538E-01  0.630182E-01  0.548749E-01  0.467080E-01  0.389997E-01
  0.320820E-01  0.261325E-01  0.211953E-01  0.172165E-01  0.140888E-01  0.116922E-01
  0.991698E-02  0.867011E-02  0.787877E-02  0.749460E-02  0.749460E-02  0.787877E-02
  0.867011E-02  0.991698E-02  0.116922E-01  0.140888E-01  0.172165E-01  0.211953E-01
  0.261325E-01  0.320820E-01  0.389997E-01  0.467080E-01  0.548749E-01  0.630182E-01
  0.705538E-01  0.768766E-01  0.814438E-01  0.838414E-01  0.838414E-01  0.814438E-01
  0.768766E-01  0.705538E-01  0.659339E-01  0.575017E-01  0.489627E-01  0.408539E-01
  0.335413E-01  0.272219E-01  0.219505E-01  0.176791E-01  0.143012E-01  0.116922E-01
  0.973353E-02  0.832170E-02  0.737277E-02  0.682644E-02  0.664799E-02  0.682644E-02
  0.737277E-02  0.832170E-02  0.973353E-02  0.116922E-01  0.143012E-01  0.176791E-01
  0.219505E-01  0.272219E-01  0.335413E-01  0.408539E-01  0.489627E-01  0.575017E-01
  0.659339E-01  0.735884E-01  0.797439E-01  0.837465E-01  0.851361E-01  0.837465E-01
  0.797439E-01  0.735884E-01  0.659339E-01  0.600270E-01  0.514420E-01  0.431200E-01
  0.354977E-01  0.288285E-01  0.232066E-01  0.186088E-01  0.149427E-01  0.120866E-01
  0.991698E-02  0.832170E-02  0.720711E-02  0.650224E-02  0.616092E-02  0.616092E-02
  0.650224E-02  0.720711E-02  0.832170E-02  0.991698E-02  0.120866E-01  0.149427E-01
  0.186088E-01  0.232066E-01  0.288285E-01  0.354977E-01  0.431200E-01  0.514420E-01
  0.600270E-01  0.682608E-01  0.754054E-01  0.807059E-01  0.835350E-01  0.835350E-01
  0.807059E-01  0.754054E-01  0.682608E-01  0.600270E-01  0.540673E-01  0.457300E-01
  0.379104E-01  0.309374E-01  0.249665E-01  0.200186E-01  0.160287E-01  0.128880E-01
  0.104745E-01  0.867011E-02  0.737277E-02  0.650224E-02  0.600210E-02  0.583906E-02
  0.600210E-02  0.650224E-02  0.737277E-02  0.867011E-02  0.104745E-01  0.128880E-01
  0.160287E-01  0.200186E-01  0.249665E-01  0.309374E-01  0.379104E-01  0.457300E-01
  0.540673E-01  0.624055E-01  0.700668E-01  0.762917E-01  0.803697E-01  0.817910E-01
  0.803697E-01  0.762917E-01  0.700668E-01  0.624055E-01  0.540673E-01  0.486604E-01
  0.407596E-01  0.335432E-01  0.272404E-01  0.219301E-01  0.175865E-01  0.141237E-01
  0.114289E-01  0.938336E-02  0.787877E-02  0.682644E-02  0.616092E-02  0.583906E-02
  0.583906E-02  0.616092E-02  0.682644E-02  0.787877E-02  0.938336E-02  0.114289E-01
  0.141237E-01  0.175865E-01  0.219301E-01  0.272404E-01  0.335432E-01  0.407596E-01
  0.486604E-01  0.568355E-01  0.646979E-01  0.715356E-01  0.766165E-01  0.793309E-01
  0.793309E-01  0.766165E-01  0.715356E-01  0.646979E-01  0.568355E-01  0.486604E-01
  0.440356E-01  0.366480E-01  0.300442E-01  0.243716E-01  0.196536E-01  0.158354E-01
  0.128204E-01  0.104962E-01  0.875270E-02  0.749460E-02  0.664799E-02  0.616092E-02
  0.600210E-02  0.616092E-02  0.664799E-02  0.749460E-02  0.875270E-02  0.104962E-01
  0.128204E-01  0.158354E-01  0.196536E-01  0.243716E-01  0.300442E-01  0.366480E-01
  0.440356E-01  0.518974E-01  0.597475E-01  0.669492E-01  0.727926E-01  0.766165E-01
  0.779483E-01  0.766165E-01  0.727926E-01  0.669492E-01  0.597475E-01  0.518974E-01
  0.440356E-01  0.402392E-01  0.333917E-01  0.273750E-01  0.222745E-01  0.180754E-01
  0.147047E-01  0.120622E-01  0.100420E-01  0.854636E-02  0.749460E-02  0.682644E-02
  0.650224E-02  0.650224E-02  0.682644E-02  0.749460E-02  0.854636E-02  0.100420E-01
  0.120622E-01  0.147047E-01  0.180754E-01  0.222745E-01  0.273750E-01  0.333917E-01
  0.402392E-01  0.476928E-01  0.553639E-01  0.627064E-01  0.690668E-01  0.737789E-01
  0.762917E-01  0.762917E-01  0.737789E-01  0.690668E-01  0.627064E-01  0.553639E-01
  0.476928E-01  0.402392E-01  0.372637E-01  0.309628E-01  0.254951E-01  0.209031E-01
  0.171487E-01  0.141508E-01  0.118135E-01  0.100420E-01  0.875270E-02  0.787877E-02
  0.737277E-02  0.720711E-02  0.737277E-02  0.787877E-02  0.875270E-02  0.100420E-01
  0.118135E-01  0.141508E-01  0.171487E-01  0.209031E-01  0.254951E-01  0.309628E-01
  0.372637E-01  0.442373E-01  0.515782E-01  0.588329E-01  0.654290E-01  0.707429E-01
  0.742032E-01  0.754054E-01  0.742032E-01  0.707429E-01  0.654290E-01  0.588329E-01
  0.515782E-01  0.442373E-01  0.372637E-01  0.351117E-01  0.293458E-01  0.243775E-01
  0.202258E-01  0.168432E-01  0.141508E-01  0.120622E-01  0.104962E-01  0.938336E-02
  0.867011E-02  0.832170E-02  0.832170E-02  0.867011E-02  0.938336E-02  0.104962E-01
  0.120622E-01  0.141508E-01  0.168432E-01  0.202258E-01  0.243775E-01  0.293458E-01
  0.351117E-01  0.415549E-01  0.484300E-01  0.553618E-01  0.618667E-01  0.674035E-01
  0.714496E-01  0.735884E-01  0.735884E-01  0.714496E-01  0.674035E-01  0.618667E-01
  0.553618E-01  0.484300E-01  0.415549E-01  0.351117E-01  0.338044E-01  0.285372E-01
  0.240067E-01  0.202258E-01  0.171487E-01  0.147047E-01  0.128204E-01  0.114289E-01
  0.104745E-01  0.991698E-02  0.973353E-02  0.991698E-02  0.104745E-01  0.114289E-01
  0.128204E-01  0.147047E-01  0.171487E-01  0.202258E-01  0.240067E-01  0.285372E-01
  0.338044E-01  0.397039E-01  0.460194E-01  0.524229E-01  0.585020E-01  0.638116E-01
  0.679382E-01  0.705538E-01  0.714495E-01  0.705538E-01  0.679382E-01  0.638116E-01
  0.585020E-01  0.524229E-01  0.460194E-01  0.397039E-01  0.338044E-01  0.333654E-01
  0.285372E-01  0.243775E-01  0.209031E-01  0.180754E-01  0.158354E-01  0.141237E-01
  0.128880E-01  0.120866E-01  0.116922E-01  0.116922E-01  0.120866E-01  0.128880E-01
  0.141237E-01  0.158354E-01  0.180754E-01  0.209031E-01  0.243775E-01  0.285372E-01
  0.333654E-01  0.387548E-01  0.444881E-01  0.502435E-01  0.556352E-01  0.602877E-01
  0.639181E-01  0.663732E-01  0.676030E-01  0.676030E-01  0.663732E-01  0.639181E-01
  0.602877E-01  0.556352E-01  0.502435E-01  0.444881E-01  0.387548E-01  0.333654E-01
  0.338044E-01  0.293458E-01  0.254951E-01  0.222745E-01  0.196536E-01  0.175865E-01
  0.160287E-01  0.149427E-01  0.143012E-01  0.140888E-01  0.143012E-01  0.149427E-01
  0.160287E-01  0.175865E-01  0.196536E-01  0.222745E-01  0.254951E-01  0.293458E-01
  0.338044E-01  0.387548E-01  0.439610E-01  0.490722E-01  0.536732E-01  0.573934E-01
  0.600398E-01  0.616615E-01  0.624783E-01  0.627192E-01  0.624783E-01  0.616615E-01
  0.600398E-01  0.573934E-01  0.536732E-01  0.490722E-01  0.439610E-01  0.387548E-01
  0.338044E-01  0.351117E-01  0.309628E-01  0.273750E-01  0.243716E-01  0.219301E-01
  0.200186E-01  0.186088E-01  0.176791E-01  0.172165E-01  0.172165E-01  0.176791E-01
  0.186088E-01  0.200186E-01  0.219301E-01  0.243716E-01  0.273750E-01  0.309628E-01
  0.351117E-01  0.397039E-01  0.444881E-01  0.490722E-01  0.529720E-01  0.557440E-01
  0.571888E-01  0.574956E-01  0.571817E-01  0.568364E-01  0.568364E-01  0.571817E-01
  0.574956E-01  0.571888E-01  0.557440E-01  0.529720E-01  0.490722E-01  0.444881E-01
  0.397039E-01  0.351117E-01  0.372637E-01  0.333917E-01  0.300442E-01  0.272404E-01
  0.249665E-01  0.232066E-01  0.219505E-01  0.211953E-01  0.209429E-01  0.211953E-01
  0.219505E-01  0.232066E-01  0.249665E-01  0.272404E-01  0.300442E-01  0.333917E-01
  0.372637E-01  0.415549E-01  0.460194E-01  0.502435E-01  0.536732E-01  0.557440E-01
  0.561363E-01  0.550369E-01  0.531711E-01  0.515141E-01  0.508616E-01  0.515141E-01
  0.531711E-01  0.550369E-01  0.561363E-01  0.557440E-01  0.536732E-01  0.502435E-01
  0.460194E-01  0.415549E-01  0.372637E-01  0.402392E-01  0.366480E-01  0.335432E-01
  0.309374E-01  0.288285E-01  0.272219E-01  0.261325E-01  0.255803E-01  0.255803E-01
  0.261325E-01  0.272219E-01  0.288285E-01  0.309374E-01  0.335432E-01  0.366480E-01
  0.402392E-01  0.442373E-01  0.484300E-01  0.524229E-01  0.556352E-01  0.573934E-01
  0.571888E-01  0.550369E-01  0.516751E-01  0.483544E-01  0.463202E-01  0.463202E-01
  0.483544E-01  0.516751E-01  0.550369E-01  0.571888E-01  0.573934E-01  0.556352E-01
  0.524229E-01  0.484300E-01  0.442373E-01  0.402392E-01  0.440356E-01  0.407596E-01
  0.379104E-01  0.354977E-01  0.335413E-01  0.320820E-01  0.311738E-01  0.308645E-01
  0.311738E-01  0.320820E-01  0.335413E-01  0.354977E-01  0.379104E-01  0.407596E-01
  0.440356E-01  0.476928E-01  0.515782E-01  0.553618E-01  0.585020E-01  0.602877E-01
  0.600398E-01  0.574956E-01  0.531711E-01  0.483544E-01  0.446285E-01  0.432334E-01
  0.446285E-01  0.483544E-01  0.531711E-01  0.574956E-01  0.600398E-01  0.602877E-01
  0.585020E-01  0.553618E-01  0.515782E-01  0.476928E-01  0.440356E-01  0.486604E-01
  0.457300E-01  0.431200E-01  0.408539E-01  0.389997E-01  0.376638E-01  0.369588E-01
  0.369588E-01  0.376638E-01  0.389997E-01  0.408539E-01  0.431200E-01  0.457300E-01
  0.486604E-01  0.518974E-01  0.553639E-01  0.588329E-01  0.618667E-01  0.638116E-01
  0.639181E-01  0.616615E-01  0.571817E-01  0.515141E-01  0.463202E-01  0.432334E-01
  0.432334E-01  0.463202E-01  0.515141E-01  0.571817E-01  0.616615E-01  0.639181E-01
  0.638116E-01  0.618667E-01  0.588329E-01  0.553639E-01  0.518974E-01  0.486604E-01
  0.540673E-01  0.514420E-01  0.489627E-01  0.467080E-01  0.448480E-01  0.436027E-01
  0.431624E-01  0.436027E-01  0.448480E-01  0.467080E-01  0.489627E-01  0.514420E-01
  0.540673E-01  0.568355E-01  0.597475E-01  0.627064E-01  0.654290E-01  0.674035E-01
  0.679382E-01  0.663732E-01  0.624783E-01  0.568364E-01  0.508616E-01  0.463202E-01
  0.446285E-01  0.463202E-01  0.508616E-01  0.568364E-01  0.624783E-01  0.663732E-01
  0.679382E-01  0.674035E-01  0.654290E-01  0.627064E-01  0.597475E-01  0.568355E-01
  0.540673E-01  0.600270E-01  0.575017E-01  0.548749E-01  0.523649E-01  0.503393E-01
  0.491959E-01  0.491959E-01  0.503393E-01  0.523649E-01  0.548749E-01  0.575017E-01
  0.600270E-01  0.624055E-01  0.646979E-01  0.669492E-01  0.690668E-01  0.707429E-01
  0.714496E-01  0.705538E-01  0.676030E-01  0.627192E-01  0.568364E-01  0.515141E-01
  0.483544E-01  0.483544E-01  0.515141E-01  0.568364E-01  0.627192E-01  0.676030E-01
  0.705538E-01  0.714496E-01  0.707429E-01  0.690668E-01  0.669492E-01  0.646979E-01
  0.624055E-01  0.600270E-01  0.659339E-01  0.630182E-01  0.597184E-01  0.565560E-01
  0.542387E-01  0.533843E-01  0.542387E-01  0.565560E-01  0.597184E-01  0.630182E-01
  0.659339E-01  0.682608E-01  0.700668E-01  0.715356E-01  0.727926E-01  0.737789E-01
  0.742032E-01  0.735884E-01  0.714495E-01  0.676030E-01  0.624783E-01  0.571817E-01
  0.531711E-01  0.516751E-01  0.531711E-01  0.571817E-01  0.624783E-01  0.676030E-01
  0.714495E-01  0.735884E-01  0.742032E-01  0.737789E-01  0.727926E-01  0.715356E-01
  0.700668E-01  0.682608E-01  0.659339E-01  0.705538E-01  0.663732E-01  0.616615E-01
  0.574956E-01  0.550369E-01  0.550369E-01  0.574956E-01  0.616615E-01  0.663732E-01
  0.705538E-01  0.735884E-01  0.754054E-01  0.762917E-01  0.766165E-01  0.766165E-01
  0.762917E-01  0.754054E-01  0.735884E-01  0.705538E-01  0.663732E-01  0.616615E-01
  0.574956E-01  0.550369E-01  0.550369E-01  0.574956E-01  0.616615E-01  0.663732E-01
  0.705538E-01  0.735884E-01  0.754054E-01  0.762917E-01  0.766165E-01  0.766165E-01
  0.762917E-01  0.754054E-01  0.735884E-01  0.705538E-01  0.718885E-01  0.653482E-01
  0.586632E-01  0.536415E-01  0.517764E-01  0.536415E-01  0.586632E-01  0.653482E-01
  0.718885E-01  0.768766E-01  0.797439E-01  0.807059E-01  0.803697E-01  0.793309E-01
  0.779483E-01  0.762917E-01  0.742032E-01  0.714496E-01  0.679382E-01  0.639181E-01
  0.600398E-01  0.571888E-01  0.561363E-01  0.571888E-01  0.600398E-01  0.639181E-01
  0.679382E-01  0.714496E-01  0.742032E-01  0.762917E-01  0.779483E-01  0.793309E-01
  0.803697E-01  0.807059E-01  0.797439E-01  0.768766E-01  0.718885E-01  0.677088E-01
  0.582153E-01  0.499110E-01  0.450848E-01  0.450848E-01  0.499110E-01  0.582153E-01
  0.677088E-01  0.759846E-01  0.814438E-01  0.837465E-01  0.835350E-01  0.817910E-01
  0.793309E-01  0.766165E-01  0.737789E-01  0.707429E-01  0.674035E-01  0.638116E-01
  0.602877E-01  0.573934E-01  0.557440E-01  0.557440E-01  0.573934E-01  0.602877E-01
  0.638116E-01  0.674035E-01  0.707429E-01  0.737789E-01  0.766165E-01  0.793309E-01
  0.817910E-01  0.835350E-01  0.837465E-01  0.814438E-01  0.759846E-01  0.677088E-01
  0.571157E-01  0.455148E-01  0.372044E-01  0.342040E-01  0.372044E-01  0.455148E-01
  0.571157E-01  0.690634E-01  0.785051E-01  0.838414E-01  0.851361E-01  0.835350E-01
  0.803697E-01  0.766165E-01  0.727926E-01  0.690668E-01  0.654290E-01  0.618667E-01
  0.585020E-01  0.556352E-01  0.536732E-01  0.529720E-01  0.536732E-01  0.556352E-01
  0.585020E-01  0.618667E-01  0.654290E-01  0.690668E-01  0.727926E-01  0.766165E-01
  0.803697E-01  0.835350E-01  0.851361E-01  0.838414E-01  0.785051E-01  0.690634E-01
  0.571157E-01  0.420342E-01  0.306089E-01  0.243488E-01  0.243488E-01  0.306089E-01
  0.420342E-01  0.562020E-01  0.696836E-01  0.793570E-01  0.838414E-01  0.837465E-01
  0.807059E-01  0.762917E-01  0.715356E-01  0.669492E-01  0.627064E-01  0.588329E-01
  0.553618E-01  0.524229E-01  0.502435E-01  0.490722E-01  0.490722E-01  0.502435E-01
  0.524229E-01  0.553618E-01  0.588329E-01  0.627064E-01  0.669492E-01  0.715356E-01
  0.762917E-01  0.807059E-01  0.837465E-01  0.838414E-01  0.793570E-01  0.696836E-01
  0.562020E-01  0.420342E-01  0.266057E-01  0.176997E-01  0.146527E-01  0.176997E-01
  0.266057E-01  0.402303E-01  0.558693E-01  0.696836E-01  0.785051E-01  0.814438E-01
  0.797439E-01  0.754054E-01  0.700668E-01  0.646979E-01  0.597475E-01  0.553639E-01
  0.515782E-01  0.484300E-01  0.460194E-01  0.444881E-01  0.439610E-01  0.444881E-01
  0.460194E-01  0.484300E-01  0.515782E-01  0.553639E-01  0.597475E-01  0.646979E-01
  0.700668E-01  0.754054E-01  0.797439E-01  0.814438E-01  0.785051E-01  0.696836E-01
  0.558693E-01  0.402303E-01  0.266057E-01  0.145923E-01  0.921424E-02  0.921424E-02
  0.145923E-01  0.253163E-01  0.402303E-01  0.562020E-01  0.690634E-01  0.759846E-01
  0.768766E-01  0.735884E-01  0.682608E-01  0.624055E-01  0.568355E-01  0.518974E-01
  0.476928E-01  0.442373E-01  0.415549E-01  0.397039E-01  0.387548E-01  0.387548E-01
  0.397039E-01  0.415549E-01  0.442373E-01  0.476928E-01  0.518974E-01  0.568355E-01
  0.624055E-01  0.682608E-01  0.735884E-01  0.768766E-01  0.759846E-01  0.690634E-01
  0.562020E-01  0.402303E-01  0.253163E-01  0.145923E-01  0.754337E-02  0.529640E-02
  0.754337E-02  0.145923E-01  0.266057E-01  0.420342E-01  0.571157E-01  0.677088E-01
  0.718885E-01  0.705538E-01  0.659339E-01  0.600270E-01  0.540673E-01  0.486604E-01
  0.440356E-01  0.402392E-01  0.372637E-01  0.351117E-01  0.338044E-01  0.333654E-01
  0.338044E-01  0.351117E-01  0.372637E-01  0.402392E-01  0.440356E-01  0.486604E-01
  0.540673E-01  0.600270E-01  0.659339E-01  0.705538E-01  0.718885E-01  0.677088E-01
  0.571157E-01  0.420342E-01  0.266057E-01  0.145923E-01  0.754337E-02  0.274797E-02
  0.274797E-02  0.638750E-02  0.145923E-01  0.276550E-01  0.434075E-01  0.574207E-01
  0.657915E-01  0.676030E-01  0.645673E-01  0.590754E-01  0.529079E-01  0.470481E-01
  0.419329E-01  0.376963E-01  0.343394E-01  0.318344E-01  0.301662E-01  0.293317E-01
  0.293317E-01  0.301662E-01  0.318344E-01  0.343394E-01  0.376963E-01  0.419329E-01
  0.470481E-01  0.529079E-01  0.590754E-01  0.645673E-01  0.676030E-01  0.657915E-01
  0.574207E-01  0.434075E-01  0.276550E-01  0.145923E-01  0.638750E-02  0.274797E-02
  0.274797E-02  0.420452E-02  0.921424E-02  0.188380E-01  0.325515E-01  0.470574E-01
  0.578827E-01  0.624783E-01  0.613872E-01  0.568156E-01  0.508640E-01  0.448574E-01
  0.394554E-01  0.349104E-01  0.312640E-01  0.284806E-01  0.265194E-01  0.253532E-01
  0.249662E-01  0.253532E-01  0.265194E-01  0.284806E-01  0.312640E-01  0.349104E-01
  0.394554E-01  0.448574E-01  0.508640E-01  0.568156E-01  0.613872E-01  0.624783E-01
  0.578827E-01  0.470574E-01  0.325515E-01  0.188380E-01  0.921424E-02  0.420452E-02
  0.274797E-02  0.638750E-02  0.921424E-02  0.158065E-01  0.265440E-01  0.395345E-01
  0.508663E-01  0.571817E-01  0.578006E-01  0.543009E-01  0.487920E-01  0.428288E-01
  0.372727E-01  0.325035E-01  0.286236E-01  0.256084E-01  0.234026E-01  0.219592E-01
  0.212463E-01  0.212463E-01  0.219592E-01  0.234026E-01  0.256084E-01  0.286236E-01
  0.325035E-01  0.372727E-01  0.428288E-01  0.487920E-01  0.543009E-01  0.578006E-01
  0.571817E-01  0.508663E-01  0.395345E-01  0.265440E-01  0.158065E-01  0.921424E-02
  0.638750E-02  0.638750E-02  0.145923E-01  0.188380E-01  0.265440E-01  0.367990E-01
  0.467514E-01  0.531711E-01  0.546239E-01  0.519159E-01  0.468528E-01  0.410217E-01
  0.354038E-01  0.304811E-01  0.264192E-01  0.232158E-01  0.208102E-01  0.191404E-01
  0.181593E-01  0.178359E-01  0.181593E-01  0.191404E-01  0.208102E-01  0.232158E-01
  0.264192E-01  0.304811E-01  0.354038E-01  0.410217E-01  0.468528E-01  0.519159E-01
  0.546239E-01  0.531711E-01  0.467514E-01  0.367990E-01  0.265440E-01  0.188380E-01
  0.145923E-01  0.133117E-01  0.145923E-01  0.276550E-01  0.325515E-01  0.395345E-01
  0.467514E-01  0.516751E-01  0.527459E-01  0.501780E-01  0.453100E-01  0.395568E-01
  0.338965E-01  0.288564E-01  0.246455E-01  0.212845E-01  0.187131E-01  0.168580E-01
  0.156585E-01  0.150706E-01  0.150706E-01  0.156585E-01  0.168580E-01  0.187131E-01
  0.212845E-01  0.246455E-01  0.288564E-01  0.338965E-01  0.395568E-01  0.453100E-01
  0.501780E-01  0.527459E-01  0.516751E-01  0.467514E-01  0.395345E-01  0.325515E-01
  0.276550E-01  0.253163E-01  0.253163E-01  0.276550E-01  0.434075E-01  0.470574E-01
  0.508663E-01  0.531711E-01  0.527459E-01  0.495387E-01  0.444460E-01  0.385879E-01
  0.328235E-01  0.276556E-01  0.233027E-01  0.197969E-01  0.170787E-01  0.150659E-01
  0.136859E-01  0.128822E-01  0.126185E-01  0.128822E-01  0.136859E-01  0.150659E-01
  0.170787E-01  0.197969E-01  0.233027E-01  0.276556E-01  0.328235E-01  0.385879E-01
  0.444460E-01  0.495387E-01  0.527459E-01  0.531711E-01  0.508663E-01  0.470574E-01
  0.434075E-01  0.410251E-01  0.402303E-01  0.410251E-01  0.434075E-01  0.574207E-01
  0.578827E-01  0.571817E-01  0.546239E-01  0.501780E-01  0.444460E-01  0.382473E-01
  0.322616E-01  0.269134E-01  0.223969E-01  0.187397E-01  0.158779E-01  0.137207E-01
  0.121843E-01  0.112007E-01  0.107214E-01  0.107214E-01  0.112007E-01  0.121843E-01
  0.137207E-01  0.158779E-01  0.187397E-01  0.223969E-01  0.269134E-01  0.322616E-01
  0.382473E-01  0.444460E-01  0.501780E-01  0.546239E-01  0.571817E-01  0.578827E-01
  0.574207E-01  0.566720E-01  0.562020E-01  0.562020E-01  0.566720E-01  0.574207E-01
  0.657915E-01  0.624783E-01  0.578006E-01  0.519159E-01  0.453100E-01  0.385879E-01
  0.322616E-01  0.266616E-01  0.219393E-01  0.181058E-01  0.150880E-01  0.127854E-01
  0.111031E-01  0.996203E-02  0.930200E-02  0.908606E-02  0.930200E-02  0.996203E-02
  0.111031E-01  0.127854E-01  0.150880E-01  0.181058E-01  0.219393E-01  0.266616E-01
  0.322616E-01  0.385879E-01  0.453100E-01  0.519159E-01  0.578006E-01  0.624783E-01
  0.657915E-01  0.679013E-01  0.690634E-01  0.694366E-01  0.690634E-01  0.679013E-01
  0.657915E-01  0.676030E-01  0.613872E-01  0.543009E-01  0.468528E-01  0.395568E-01
  0.328235E-01  0.269134E-01  0.219393E-01  0.178943E-01  0.146957E-01  0.122337E-01
  0.104031E-01  0.911392E-02  0.829470E-02  0.789687E-02  0.789687E-02  0.829470E-02
  0.911392E-02  0.104031E-01  0.122337E-01  0.146957E-01  0.178943E-01  0.219393E-01
  0.269134E-01  0.328235E-01  0.395568E-01  0.468528E-01  0.543009E-01  0.613872E-01
  0.676030E-01  0.725536E-01  0.759846E-01  0.777409E-01  0.777409E-01  0.759846E-01
  0.725536E-01  0.676030E-01  0.645673E-01  0.568156E-01  0.487920E-01  0.410217E-01
  0.338965E-01  0.276556E-01  0.223969E-01  0.181058E-01  0.146957E-01  0.120513E-01
  0.100589E-01  0.861916E-02  0.765000E-02  0.709155E-02  0.690906E-02  0.709155E-02
  0.765000E-02  0.861916E-02  0.100589E-01  0.120513E-01  0.146957E-01  0.181058E-01
  0.223969E-01  0.276556E-01  0.338965E-01  0.410217E-01  0.487920E-01  0.568156E-01
  0.645673E-01  0.714495E-01  0.768766E-01  0.803558E-01  0.815550E-01  0.803558E-01
  0.768766E-01  0.714495E-01  0.645673E-01  0.590754E-01  0.508640E-01  0.428288E-01
  0.354038E-01  0.288564E-01  0.233027E-01  0.187397E-01  0.150880E-01  0.122337E-01
  0.100589E-01  0.845649E-02  0.733556E-02  0.662601E-02  0.628206E-02  0.628206E-02
  0.662601E-02  0.733556E-02  0.845649E-02  0.100589E-01  0.122337E-01  0.150880E-01
  0.187397E-01  0.233027E-01  0.288564E-01  0.354038E-01  0.428288E-01  0.508640E-01
  0.590754E-01  0.668771E-01  0.735884E-01  0.785329E-01  0.811602E-01  0.811602E-01
  0.785329E-01  0.735884E-01  0.668771E-01  0.590754E-01  0.529079E-01  0.448574E-01
  0.372727E-01  0.304811E-01  0.246455E-01  0.197969E-01  0.158779E-01  0.127854E-01
  0.104031E-01  0.861916E-02  0.733556E-02  0.647379E-02  0.597818E-02  0.581646E-02
  0.597818E-02  0.647379E-02  0.733556E-02  0.861916E-02  0.104031E-01  0.127854E-01
  0.158779E-01  0.197969E-01  0.246455E-01  0.304811E-01  0.372727E-01  0.448574E-01
  0.529079E-01  0.609241E-01  0.682608E-01  0.742032E-01  0.780875E-01  0.794397E-01
  0.780875E-01  0.742032E-01  0.682608E-01  0.609241E-01  0.529079E-01  0.470481E-01
  0.394554E-01  0.325035E-01  0.264192E-01  0.212845E-01  0.170787E-01  0.137207E-01
  0.111031E-01  0.911392E-02  0.765000E-02  0.662601E-02  0.597818E-02  0.566466E-02
  0.566466E-02  0.597818E-02  0.662601E-02  0.765000E-02  0.911392E-02  0.111031E-01
  0.137207E-01  0.170787E-01  0.212845E-01  0.264192E-01  0.325035E-01  0.394554E-01
  0.470481E-01  0.548851E-01  0.624055E-01  0.689340E-01  0.737789E-01  0.763653E-01
  0.763653E-01  0.737789E-01  0.689340E-01  0.624055E-01  0.548851E-01  0.470481E-01
  0.419329E-01  0.349104E-01  0.286236E-01  0.232158E-01  0.187131E-01  0.150659E-01
  0.121843E-01  0.996203E-02  0.829470E-02  0.709155E-02  0.628206E-02  0.581646E-02
  0.566466E-02  0.581646E-02  0.628206E-02  0.709155E-02  0.829470E-02  0.996203E-02
  0.121843E-01  0.150659E-01  0.187131E-01  0.232158E-01  0.286236E-01  0.349104E-01
  0.419329E-01  0.493951E-01  0.568355E-01  0.636529E-01  0.691789E-01  0.727926E-01
  0.740508E-01  0.727926E-01  0.691789E-01  0.636529E-01  0.568355E-01  0.493951E-01
  0.419329E-01  0.376963E-01  0.312640E-01  0.256084E-01  0.208102E-01  0.168580E-01
  0.136859E-01  0.112007E-01  0.930200E-02  0.789687E-02  0.690906E-02  0.628206E-02
  0.597818E-02  0.597818E-02  0.628206E-02  0.690906E-02  0.789687E-02  0.930200E-02
  0.112007E-01  0.136859E-01  0.168580E-01  0.208102E-01  0.256084E-01  0.312640E-01
  0.376963E-01  0.446955E-01  0.518974E-01  0.587897E-01  0.647584E-01  0.691789E-01
  0.715356E-01  0.715356E-01  0.691789E-01  0.647584E-01  0.587897E-01  0.518974E-01
  0.446955E-01  0.376963E-01  0.343394E-01  0.284806E-01  0.234026E-01  0.191404E-01
  0.156585E-01  0.128822E-01  0.107214E-01  0.908606E-02  0.789687E-02  0.709155E-02
  0.662601E-02  0.647379E-02  0.662601E-02  0.709155E-02  0.789687E-02  0.908606E-02
  0.107214E-01  0.128822E-01  0.156585E-01  0.191404E-01  0.234026E-01  0.284806E-01
  0.343394E-01  0.408364E-01  0.476928E-01  0.544867E-01  0.606783E-01  0.656757E-01
  0.689340E-01  0.700668E-01  0.689340E-01  0.656757E-01  0.606783E-01  0.544867E-01
  0.476928E-01  0.408364E-01  0.343394E-01  0.318344E-01  0.265194E-01  0.219592E-01
  0.181593E-01  0.150706E-01  0.126185E-01  0.107214E-01  0.930200E-02  0.829470E-02
  0.765000E-02  0.733556E-02  0.733556E-02  0.765000E-02  0.829470E-02  0.930200E-02
  0.107214E-01  0.126185E-01  0.150706E-01  0.181593E-01  0.219592E-01  0.265194E-01
  0.318344E-01  0.378107E-01  0.442373E-01  0.507738E-01  0.569632E-01  0.622761E-01
  0.661851E-01  0.682608E-01  0.682608E-01  0.661851E-01  0.622761E-01  0.569632E-01
  0.507738E-01  0.442373E-01  0.378107E-01  0.318344E-01  0.301662E-01  0.253532E-01
  0.212463E-01  0.178359E-01  0.150706E-01  0.128822E-01  0.112007E-01  0.996203E-02
  0.911392E-02  0.861916E-02  0.845649E-02  0.861916E-02  0.911392E-02  0.996203E-02
  0.112007E-01  0.128822E-01  0.150706E-01  0.178359E-01  0.212463E-01  0.253532E-01
  0.301662E-01  0.356215E-01  0.415549E-01  0.476896E-01  0.536455E-01  0.589724E-01
  0.632050E-01  0.659339E-01  0.668771E-01  0.659339E-01  0.632050E-01  0.589724E-01
  0.536455E-01  0.476896E-01  0.415549E-01  0.356215E-01  0.301662E-01  0.293317E-01
  0.249662E-01  0.212463E-01  0.181593E-01  0.156585E-01  0.136859E-01  0.121843E-01
  0.111031E-01  0.104031E-01  0.100589E-01  0.100589E-01  0.104031E-01  0.111031E-01
  0.121843E-01  0.136859E-01  0.156585E-01  0.181593E-01  0.212463E-01  0.249662E-01
  0.293317E-01  0.342911E-01  0.397039E-01  0.453310E-01  0.508473E-01  0.558770E-01
  0.600428E-01  0.630182E-01  0.645673E-01  0.645673E-01  0.630182E-01  0.600428E-01
  0.558770E-01  0.508473E-01  0.453310E-01  0.397039E-01  0.342911E-01  0.293317E-01
  0.293317E-01  0.253532E-01  0.219592E-01  0.191404E-01  0.168580E-01  0.150659E-01
  0.137207E-01  0.127854E-01  0.122337E-01  0.120513E-01  0.122337E-01  0.127854E-01
  0.137207E-01  0.150659E-01  0.168580E-01  0.191404E-01  0.219592E-01  0.253532E-01
  0.293317E-01  0.338443E-01  0.387548E-01  0.438342E-01  0.487790E-01  0.532575E-01
  0.569731E-01  0.597184E-01  0.613872E-01  0.619451E-01  0.613872E-01  0.597184E-01
  0.569731E-01  0.532575E-01  0.487790E-01  0.438342E-01  0.387548E-01  0.338443E-01
  0.293317E-01  0.301662E-01  0.265194E-01  0.234026E-01  0.208102E-01  0.187131E-01
  0.170787E-01  0.158779E-01  0.150880E-01  0.146957E-01  0.146957E-01  0.150880E-01
  0.158779E-01  0.170787E-01  0.187131E-01  0.208102E-01  0.234026E-01  0.265194E-01
  0.301662E-01  0.342911E-01  0.387548E-01  0.433193E-01  0.476698E-01  0.514730E-01
  0.544693E-01  0.565560E-01  0.578006E-01  0.583611E-01  0.583611E-01  0.578006E-01
  0.565560E-01  0.544693E-01  0.514730E-01  0.476698E-01  0.433193E-01  0.387548E-01
  0.342911E-01  0.301662E-01  0.318344E-01  0.284806E-01  0.256084E-01  0.232158E-01
  0.212845E-01  0.197969E-01  0.187397E-01  0.181058E-01  0.178943E-01  0.181058E-01
  0.187397E-01  0.197969E-01  0.212845E-01  0.232158E-01  0.256084E-01  0.284806E-01
  0.318344E-01  0.356215E-01  0.397039E-01  0.438342E-01  0.476698E-01  0.508366E-01
  0.530477E-01  0.542387E-01  0.546239E-01  0.546014E-01  0.545438E-01  0.546014E-01
  0.546239E-01  0.542387E-01  0.530477E-01  0.508366E-01  0.476698E-01  0.438342E-01
  0.397039E-01  0.356215E-01  0.318344E-01  0.343394E-01  0.312640E-01  0.286236E-01
  0.264192E-01  0.246455E-01  0.233027E-01  0.223969E-01  0.219393E-01  0.219393E-01
  0.223969E-01  0.233027E-01  0.246455E-01  0.264192E-01  0.286236E-01  0.312640E-01
  0.343394E-01  0.378107E-01  0.415549E-01  0.453310E-01  0.487790E-01  0.514730E-01
  0.530477E-01  0.533843E-01  0.527459E-01  0.517269E-01  0.509991E-01  0.509991E-01
  0.517269E-01  0.527459E-01  0.533843E-01  0.530477E-01  0.514730E-01  0.487790E-01
  0.453310E-01  0.415549E-01  0.378107E-01  0.343394E-01  0.376963E-01  0.349104E-01
  0.325035E-01  0.304811E-01  0.288564E-01  0.276556E-01  0.269134E-01  0.266616E-01
  0.269134E-01  0.276556E-01  0.288564E-01  0.304811E-01  0.325035E-01  0.349104E-01
  0.376963E-01  0.408364E-01  0.442373E-01  0.476896E-01  0.508473E-01  0.532575E-01
  0.544693E-01  0.542387E-01  0.527459E-01  0.506492E-01  0.488635E-01  0.481674E-01
  0.488635E-01  0.506492E-01  0.527459E-01  0.542387E-01  0.544693E-01  0.532575E-01
  0.508473E-01  0.476896E-01  0.442373E-01  0.408364E-01  0.376963E-01  0.419329E-01
  0.394554E-01  0.372727E-01  0.354038E-01  0.338965E-01  0.328235E-01  0.322616E-01
  0.322616E-01  0.328235E-01  0.338965E-01  0.354038E-01  0.372727E-01  0.394554E-01
  0.419329E-01  0.446955E-01  0.476928E-01  0.507738E-01  0.536455E-01  0.558770E-01
  0.569731E-01  0.565560E-01  0.546239E-01  0.517269E-01  0.488635E-01  0.470956E-01
  0.470956E-01  0.488635E-01  0.517269E-01  0.546239E-01  0.565560E-01  0.569731E-01
  0.558770E-01  0.536455E-01  0.507738E-01  0.476928E-01  0.446955E-01  0.419329E-01
  0.470481E-01  0.448574E-01  0.428288E-01  0.410217E-01  0.395568E-01  0.385879E-01
  0.382473E-01  0.385879E-01  0.395568E-01  0.410217E-01  0.428288E-01  0.448574E-01
  0.470481E-01  0.493951E-01  0.518974E-01  0.544867E-01  0.569632E-01  0.589724E-01
  0.600428E-01  0.597184E-01  0.578006E-01  0.546014E-01  0.509991E-01  0.481674E-01
  0.470956E-01  0.481674E-01  0.509991E-01  0.546014E-01  0.578006E-01  0.597184E-01
  0.600428E-01  0.589724E-01  0.569632E-01  0.544867E-01  0.518974E-01  0.493951E-01
  0.470481E-01  0.529079E-01  0.508640E-01  0.487920E-01  0.468528E-01  0.453100E-01
  0.444460E-01  0.444460E-01  0.453100E-01  0.468528E-01  0.487920E-01  0.508640E-01
  0.529079E-01  0.548851E-01  0.568355E-01  0.587897E-01  0.606783E-01  0.622761E-01
  0.632050E-01  0.630182E-01  0.613872E-01  0.583611E-01  0.545438E-01  0.509991E-01
  0.488635E-01  0.488635E-01  0.509991E-01  0.545438E-01  0.583611E-01  0.613872E-01
  0.630182E-01  0.632050E-01  0.622761E-01  0.606783E-01  0.587897E-01  0.568355E-01
  0.548851E-01  0.529079E-01  0.590754E-01  0.568156E-01  0.543009E-01  0.519159E-01
  0.501780E-01  0.495387E-01  0.501780E-01  0.519159E-01  0.543009E-01  0.568156E-01
  0.590754E-01  0.609241E-01  0.624055E-01  0.636529E-01  0.647584E-01  0.656757E-01
  0.661851E-01  0.659339E-01  0.645673E-01  0.619451E-01  0.583611E-01  0.546014E-01
  0.517269E-01  0.506492E-01  0.517269E-01  0.546014E-01  0.583611E-01  0.619451E-01
  0.645673E-01  0.659339E-01  0.661851E-01  0.656757E-01  0.647584E-01  0.636529E-01
  0.624055E-01  0.609241E-01  0.590754E-01  0.645673E-01  0.613872E-01  0.578006E-01
  0.546239E-01  0.527459E-01  0.527459E-01  0.546239E-01  0.578006E-01  0.613872E-01
  0.645673E-01  0.668771E-01  0.682608E-01  0.689340E-01  0.691789E-01  0.691789E-01
  0.689340E-01  0.682608E-01  0.668771E-01  0.645673E-01  0.613872E-01  0.578006E-01
  0.546239E-01  0.527459E-01  0.527459E-01  0.546239E-01  0.578006E-01  0.613872E-01
  0.645673E-01  0.668771E-01  0.682608E-01  0.689340E-01  0.691789E-01  0.691789E-01
  0.689340E-01  0.682608E-01  0.668771E-01  0.645673E-01  0.676030E-01  0.624783E-01
  0.571817E-01  0.531711E-01  0.516751E-01  0.531711E-01  0.571817E-01  0.624783E-01
  0.676030E-01  0.714495E-01  0.735884E-01  0.742032E-01  0.737789E-01  0.727926E-01
  0.715356E-01  0.700668E-01  0.682608E-01  0.659339E-01  0.630182E-01  0.597184E-01
  0.565560E-01  0.542387E-01  0.533843E-01  0.542387E-01  0.565560E-01  0.597184E-01
  0.630182E-01  0.659339E-01  0.682608E-01  0.700668E-01  0.715356E-01  0.727926E-01
  0.737789E-01  0.742032E-01  0.735884E-01  0.714495E-01  0.676030E-01  0.657915E-01
  0.578827E-01  0.508663E-01  0.467514E-01  0.467514E-01  0.508663E-01  0.578827E-01
  0.657915E-01  0.725536E-01  0.768766E-01  0.785329E-01  0.780875E-01  0.763653E-01
  0.740508E-01  0.715356E-01  0.689340E-01  0.661851E-01  0.632050E-01  0.600428E-01
  0.569731E-01  0.544693E-01  0.530477E-01  0.530477E-01  0.544693E-01  0.569731E-01
  0.600428E-01  0.632050E-01  0.661851E-01  0.689340E-01  0.715356E-01  0.740508E-01
  0.763653E-01  0.780875E-01  0.785329E-01  0.768766E-01  0.725536E-01  0.657915E-01
  0.574207E-01  0.470574E-01  0.395345E-01  0.367990E-01  0.395345E-01  0.470574E-01
  0.574207E-01  0.679013E-01  0.759846E-01  0.803558E-01  0.811602E-01  0.794397E-01
  0.763653E-01  0.727926E-01  0.691789E-01  0.656757E-01  0.622761E-01  0.589724E-01
  0.558770E-01  0.532575E-01  0.514730E-01  0.508366E-01  0.514730E-01  0.532575E-01
  0.558770E-01  0.589724E-01  0.622761E-01  0.656757E-01  0.691789E-01  0.727926E-01
  0.763653E-01  0.794397E-01  0.811602E-01  0.803558E-01  0.759846E-01  0.679013E-01
  0.574207E-01  0.434075E-01  0.325515E-01  0.265440E-01  0.265440E-01  0.325515E-01
  0.434075E-01  0.566720E-01  0.690634E-01  0.777409E-01  0.815550E-01  0.811602E-01
  0.780875E-01  0.737789E-01  0.691789E-01  0.647584E-01  0.606783E-01  0.569632E-01
  0.536455E-01  0.508473E-01  0.487790E-01  0.476698E-01  0.476698E-01  0.487790E-01
  0.508473E-01  0.536455E-01  0.569632E-01  0.606783E-01  0.647584E-01  0.691789E-01
  0.737789E-01  0.780875E-01  0.811602E-01  0.815550E-01  0.777409E-01  0.690634E-01
  0.566720E-01  0.434075E-01  0.276550E-01  0.188380E-01  0.158065E-01  0.188380E-01
  0.276550E-01  0.410251E-01  0.562020E-01  0.694366E-01  0.777409E-01  0.803558E-01
  0.785329E-01  0.742032E-01  0.689340E-01  0.636529E-01  0.587897E-01  0.544867E-01
  0.507738E-01  0.476896E-01  0.453310E-01  0.438342E-01  0.433193E-01  0.438342E-01
  0.453310E-01  0.476896E-01  0.507738E-01  0.544867E-01  0.587897E-01  0.636529E-01
  0.689340E-01  0.742032E-01  0.785329E-01  0.803558E-01  0.777409E-01  0.694366E-01
  0.562020E-01  0.410251E-01  0.276550E-01  0.145923E-01  0.921424E-02  0.921424E-02
  0.145923E-01  0.253163E-01  0.402303E-01  0.562020E-01  0.690634E-01  0.759846E-01
  0.768766E-01  0.735884E-01  0.682608E-01  0.624055E-01  0.568355E-01  0.518974E-01
  0.476928E-01  0.442373E-01  0.415549E-01  0.397039E-01  0.387548E-01  0.387548E-01
  0.397039E-01  0.415549E-01  0.442373E-01  0.476928E-01  0.518974E-01  0.568355E-01
  0.624055E-01  0.682608E-01  0.735884E-01  0.768766E-01  0.759846E-01  0.690634E-01
  0.562020E-01  0.402303E-01  0.253163E-01  0.145923E-01  0.638750E-02  0.420452E-02
  0.638750E-02  0.133117E-01  0.253163E-01  0.410251E-01  0.566720E-01  0.679013E-01
  0.725536E-01  0.714495E-01  0.668771E-01  0.609241E-01  0.548851E-01  0.493951E-01
  0.446955E-01  0.408364E-01  0.378107E-01  0.356215E-01  0.342911E-01  0.338443E-01
  0.342911E-01  0.356215E-01  0.378107E-01  0.408364E-01  0.446955E-01  0.493951E-01
  0.548851E-01  0.609241E-01  0.668771E-01  0.714495E-01  0.725536E-01  0.679013E-01
  0.566720E-01  0.410251E-01  0.253163E-01  0.133117E-01  0.638750E-02  0.274797E-02
  0.274797E-02  0.638750E-02  0.145923E-01  0.276550E-01  0.434075E-01  0.574207E-01
  0.657915E-01  0.676030E-01  0.645673E-01  0.590754E-01  0.529079E-01  0.470481E-01
  0.419329E-01  0.376963E-01  0.343394E-01  0.318344E-01  0.301662E-01  0.293317E-01
  0.293317E-01  0.301662E-01  0.318344E-01  0.343394E-01  0.376963E-01  0.419329E-01
  0.470481E-01  0.529079E-01  0.590754E-01  0.645673E-01  0.676030E-01  0.657915E-01
  0.574207E-01  0.434075E-01  0.276550E-01  0.145923E-01  0.638750E-02  0.274797E-02
  0.138655E-02  0.274797E-02  0.754337E-02  0.170378E-01  0.309426E-01  0.460107E-01
  0.575480E-01  0.627192E-01  0.619451E-01  0.574800E-01  0.515197E-01  0.454580E-01
  0.399896E-01  0.353829E-01  0.316852E-01  0.288622E-01  0.268728E-01  0.256898E-01
  0.252973E-01  0.256898E-01  0.268728E-01  0.288622E-01  0.316852E-01  0.353829E-01
  0.399896E-01  0.454580E-01  0.515197E-01  0.574800E-01  0.619451E-01  0.627192E-01
  0.575480E-01  0.460107E-01  0.309426E-01  0.170378E-01  0.754337E-02  0.274797E-02
  0.138655E-02  0.274797E-02  0.529640E-02  0.116080E-01  0.225160E-01  0.364118E-01
  0.491591E-01  0.568364E-01  0.583611E-01  0.552817E-01  0.498769E-01  0.438662E-01
  0.382080E-01  0.333289E-01  0.293520E-01  0.262592E-01  0.239957E-01  0.225144E-01
  0.217826E-01  0.217826E-01  0.225144E-01  0.239957E-01  0.262592E-01  0.293520E-01
  0.333289E-01  0.382080E-01  0.438662E-01  0.498769E-01  0.552817E-01  0.583611E-01
  0.568364E-01  0.491591E-01  0.364118E-01  0.225160E-01  0.116080E-01  0.529640E-02
  0.274797E-02  0.274797E-02  0.754337E-02  0.116080E-01  0.195777E-01  0.310013E-01
  0.429449E-01  0.515141E-01  0.546014E-01  0.528013E-01  0.480893E-01  0.423022E-01
  0.365948E-01  0.315413E-01  0.273512E-01  0.240400E-01  0.215508E-01  0.198220E-01
  0.188058E-01  0.184709E-01  0.188058E-01  0.198220E-01  0.215508E-01  0.240400E-01
  0.273512E-01  0.315413E-01  0.365948E-01  0.423022E-01  0.480893E-01  0.528013E-01
  0.546014E-01  0.515141E-01  0.429449E-01  0.310013E-01  0.195777E-01  0.116080E-01
  0.754337E-02  0.638750E-02  0.754337E-02  0.170378E-01  0.225160E-01  0.310013E-01
  0.406607E-01  0.483544E-01  0.517269E-01  0.506023E-01  0.464178E-01  0.408752E-01
  0.351910E-01  0.300334E-01  0.256847E-01  0.221988E-01  0.195261E-01  0.175953E-01
  0.163457E-01  0.157331E-01  0.157331E-01  0.163457E-01  0.175953E-01  0.195261E-01
  0.221988E-01  0.256847E-01  0.300334E-01  0.351910E-01  0.408752E-01  0.464178E-01
  0.506023E-01  0.517269E-01  0.483544E-01  0.406607E-01  0.310013E-01  0.225160E-01
  0.170378E-01  0.145923E-01  0.145923E-01  0.170378E-01  0.309426E-01  0.364118E-01
  0.429449E-01  0.483544E-01  0.506492E-01  0.493009E-01  0.452097E-01  0.397597E-01
  0.340757E-01  0.288360E-01  0.243589E-01  0.207273E-01  0.179012E-01  0.158036E-01
  0.143630E-01  0.135234E-01  0.132479E-01  0.135234E-01  0.143630E-01  0.158036E-01
  0.179012E-01  0.207273E-01  0.243589E-01  0.288360E-01  0.340757E-01  0.397597E-01
  0.452097E-01  0.493009E-01  0.506492E-01  0.483544E-01  0.429449E-01  0.364118E-01
  0.309426E-01  0.276550E-01  0.266057E-01  0.276550E-01  0.309426E-01  0.460107E-01
  0.491591E-01  0.515141E-01  0.517269E-01  0.493009E-01  0.447669E-01  0.391413E-01
  0.333482E-01  0.279945E-01  0.233881E-01  0.196203E-01  0.166561E-01  0.144142E-01
  0.128134E-01  0.117870E-01  0.112867E-01  0.112867E-01  0.117870E-01  0.128134E-01
  0.144142E-01  0.166561E-01  0.196203E-01  0.233881E-01  0.279945E-01  0.333482E-01
  0.391413E-01  0.447669E-01  0.493009E-01  0.517269E-01  0.515141E-01  0.491591E-01
  0.460107E-01  0.434075E-01  0.420342E-01  0.420342E-01  0.434075E-01  0.460107E-01
  0.575480E-01  0.568364E-01  0.546014E-01  0.506023E-01  0.452097E-01  0.391413E-01
  0.330943E-01  0.275575E-01  0.227923E-01  0.188777E-01  0.157751E-01  0.133973E-01
  0.116543E-01  0.104694E-01  0.978353E-02  0.955913E-02  0.978353E-02  0.104694E-01
  0.116543E-01  0.133973E-01  0.157751E-01  0.188777E-01  0.227923E-01  0.275575E-01
  0.330943E-01  0.391413E-01  0.452097E-01  0.506023E-01  0.546014E-01  0.568364E-01
  0.575480E-01  0.574207E-01  0.571157E-01  0.569845E-01  0.571157E-01  0.574207E-01
  0.575480E-01  0.627192E-01  0.583611E-01  0.528013E-01  0.464178E-01  0.397597E-01
  0.333482E-01  0.275575E-01  0.225910E-01  0.185039E-01  0.152485E-01  0.127303E-01
  0.108505E-01  0.952289E-02  0.867820E-02  0.826793E-02  0.826793E-02  0.867820E-02
  0.952289E-02  0.108505E-01  0.127303E-01  0.152485E-01  0.185039E-01  0.225910E-01
  0.275575E-01  0.333482E-01  0.397597E-01  0.464178E-01  0.528013E-01  0.583611E-01
  0.627192E-01  0.657915E-01  0.677088E-01  0.686281E-01  0.686281E-01  0.677088E-01
  0.657915E-01  0.627192E-01  0.619451E-01  0.552817E-01  0.480893E-01  0.408752E-01
  0.340757E-01  0.279945E-01  0.227923E-01  0.185039E-01  0.150732E-01  0.123997E-01
  0.103772E-01  0.891116E-02  0.792256E-02  0.735256E-02  0.716628E-02  0.735256E-02
  0.792256E-02  0.891116E-02  0.103772E-01  0.123997E-01  0.150732E-01  0.185039E-01
  0.227923E-01  0.279945E-01  0.340757E-01  0.408752E-01  0.480893E-01  0.552817E-01
  0.619451E-01  0.676030E-01  0.718885E-01  0.745563E-01  0.754621E-01  0.745563E-01
  0.718885E-01  0.676030E-01  0.619451E-01  0.574800E-01  0.498769E-01  0.423022E-01
  0.351910E-01  0.288360E-01  0.233881E-01  0.188777E-01  0.152485E-01  0.123997E-01
  0.102209E-01  0.861087E-02  0.748257E-02  0.676762E-02  0.642083E-02  0.642083E-02
  0.676762E-02  0.748257E-02  0.861087E-02  0.102209E-01  0.123997E-01  0.152485E-01
  0.188777E-01  0.233881E-01  0.288360E-01  0.351910E-01  0.423022E-01  0.498769E-01
  0.574800E-01  0.645673E-01  0.705538E-01  0.748986E-01  0.771851E-01  0.771851E-01
  0.748986E-01  0.705538E-01  0.645673E-01  0.574800E-01  0.515197E-01  0.438662E-01
  0.365948E-01  0.300334E-01  0.243589E-01  0.196203E-01  0.157751E-01  0.127303E-01
  0.103772E-01  0.861087E-02  0.733812E-02  0.648284E-02  0.599045E-02  0.582963E-02
  0.599045E-02  0.648284E-02  0.733812E-02  0.861087E-02  0.103772E-01  0.127303E-01
  0.157751E-01  0.196203E-01  0.243589E-01  0.300334E-01  0.365948E-01  0.438662E-01
  0.515197E-01  0.590754E-01  0.659339E-01  0.714496E-01  0.750361E-01  0.762812E-01
  0.750361E-01  0.714496E-01  0.659339E-01  0.590754E-01  0.515197E-01  0.454580E-01
  0.382080E-01  0.315413E-01  0.256847E-01  0.207273E-01  0.166561E-01  0.133973E-01
  0.108505E-01  0.891116E-02  0.748257E-02  0.648284E-02  0.584988E-02  0.554320E-02
  0.554320E-02  0.584988E-02  0.648284E-02  0.748257E-02  0.891116E-02  0.108505E-01
  0.133973E-01  0.166561E-01  0.207273E-01  0.256847E-01  0.315413E-01  0.382080E-01
  0.454580E-01  0.529079E-01  0.600270E-01  0.661851E-01  0.707429E-01  0.731719E-01
  0.731719E-01  0.707429E-01  0.661851E-01  0.600270E-01  0.529079E-01  0.454580E-01
  0.399896E-01  0.333289E-01  0.273512E-01  0.221988E-01  0.179012E-01  0.144142E-01
  0.116543E-01  0.952289E-02  0.792256E-02  0.676762E-02  0.599045E-02  0.554320E-02
  0.539729E-02  0.554320E-02  0.599045E-02  0.676762E-02  0.792256E-02  0.952289E-02
  0.116543E-01  0.144142E-01  0.179012E-01  0.221988E-01  0.273512E-01  0.333289E-01
  0.399896E-01  0.470481E-01  0.540673E-01  0.604839E-01  0.656757E-01  0.690668E-01
  0.702468E-01  0.690668E-01  0.656757E-01  0.604839E-01  0.540673E-01  0.470481E-01
  0.399896E-01  0.353829E-01  0.293520E-01  0.240400E-01  0.195261E-01  0.158036E-01
  0.128134E-01  0.104694E-01  0.867820E-02  0.735256E-02  0.642083E-02  0.582963E-02
  0.554320E-02  0.554320E-02  0.582963E-02  0.642083E-02  0.735256E-02  0.867820E-02
  0.104694E-01  0.128134E-01  0.158036E-01  0.195261E-01  0.240400E-01  0.293520E-01
  0.353829E-01  0.419329E-01  0.486604E-01  0.550879E-01  0.606462E-01  0.647584E-01
  0.669492E-01  0.669492E-01  0.647584E-01  0.606462E-01  0.550879E-01  0.486604E-01
  0.419329E-01  0.353829E-01  0.316852E-01  0.262592E-01  0.215508E-01  0.175953E-01
  0.143630E-01  0.117870E-01  0.978353E-02  0.826793E-02  0.716628E-02  0.642083E-02
  0.599045E-02  0.584988E-02  0.599045E-02  0.642083E-02  0.716628E-02  0.826793E-02
  0.978353E-02  0.117870E-01  0.143630E-01  0.175953E-01  0.215508E-01  0.262592E-01
  0.316852E-01  0.376963E-01  0.440356E-01  0.503138E-01  0.560327E-01  0.606462E-01
  0.636529E-01  0.646979E-01  0.636529E-01  0.606462E-01  0.560327E-01  0.503138E-01
  0.440356E-01  0.376963E-01  0.316852E-01  0.288622E-01  0.239957E-01  0.198220E-01
  0.163457E-01  0.135234E-01  0.112867E-01  0.955913E-02  0.826793E-02  0.735256E-02
  0.676762E-02  0.648284E-02  0.648284E-02  0.676762E-02  0.735256E-02  0.826793E-02
  0.955913E-02  0.112867E-01  0.135234E-01  0.163457E-01  0.198220E-01  0.239957E-01
  0.288622E-01  0.343394E-01  0.402392E-01  0.462530E-01  0.519600E-01  0.568679E-01
  0.604839E-01  0.624055E-01  0.624055E-01  0.604839E-01  0.568679E-01  0.519600E-01
  0.462530E-01  0.402392E-01  0.343394E-01  0.288622E-01  0.268728E-01  0.225144E-01
  0.188058E-01  0.157331E-01  0.132479E-01  0.112867E-01  0.978353E-02  0.867820E-02
  0.792256E-02  0.748257E-02  0.733812E-02  0.748257E-02  0.792256E-02  0.867820E-02
  0.978353E-02  0.112867E-01  0.132479E-01  0.157331E-01  0.188058E-01  0.225144E-01
  0.268728E-01  0.318344E-01  0.372637E-01  0.429191E-01  0.484545E-01  0.534452E-01
  0.574387E-01  0.600270E-01  0.609241E-01  0.600270E-01  0.574387E-01  0.534452E-01
  0.484545E-01  0.429191E-01  0.372637E-01  0.318344E-01  0.268728E-01  0.256898E-01
  0.217826E-01  0.184709E-01  0.157331E-01  0.135234E-01  0.117870E-01  0.104694E-01
  0.952289E-02  0.891116E-02  0.861087E-02  0.861087E-02  0.891116E-02  0.952289E-02
  0.104694E-01  0.117870E-01  0.135234E-01  0.157331E-01  0.184709E-01  0.217826E-01
  0.256898E-01  0.301662E-01  0.351117E-01  0.403349E-01  0.455524E-01  0.504091E-01
  0.545156E-01  0.575017E-01  0.590754E-01  0.590754E-01  0.575017E-01  0.545156E-01
  0.504091E-01  0.455524E-01  0.403349E-01  0.351117E-01  0.301662E-01  0.256898E-01
  0.252973E-01  0.217826E-01  0.188058E-01  0.163457E-01  0.143630E-01  0.128134E-01
  0.116543E-01  0.108505E-01  0.103772E-01  0.102209E-01  0.103772E-01  0.108505E-01
  0.116543E-01  0.128134E-01  0.143630E-01  0.163457E-01  0.188058E-01  0.217826E-01
  0.252973E-01  0.293317E-01  0.338044E-01  0.385542E-01  0.433411E-01  0.478670E-01
  0.518117E-01  0.548749E-01  0.568156E-01  0.574800E-01  0.568156E-01  0.548749E-01
  0.518117E-01  0.478670E-01  0.433411E-01  0.385542E-01  0.338044E-01  0.293317E-01
  0.252973E-01  0.256898E-01  0.225144E-01  0.198220E-01  0.175953E-01  0.158036E-01
  0.144142E-01  0.133973E-01  0.127303E-01  0.123997E-01  0.123997E-01  0.127303E-01
  0.133973E-01  0.144142E-01  0.158036E-01  0.175953E-01  0.198220E-01  0.225144E-01
  0.256898E-01  0.293317E-01  0.333654E-01  0.376421E-01  0.419419E-01  0.459997E-01
  0.495484E-01  0.523649E-01  0.543009E-01  0.552817E-01  0.552817E-01  0.543009E-01
  0.523649E-01  0.495484E-01  0.459997E-01  0.419419E-01  0.376421E-01  0.333654E-01
  0.293317E-01  0.256898E-01  0.268728E-01  0.239957E-01  0.215508E-01  0.195261E-01
  0.179012E-01  0.166561E-01  0.157751E-01  0.152485E-01  0.150732E-01  0.152485E-01
  0.157751E-01  0.166561E-01  0.179012E-01  0.195261E-01  0.215508E-01  0.239957E-01
  0.268728E-01  0.301662E-01  0.338044E-01  0.376421E-01  0.414614E-01  0.450023E-01
  0.480180E-01  0.503393E-01  0.519159E-01  0.528013E-01  0.530828E-01  0.528013E-01
  0.519159E-01  0.503393E-01  0.480180E-01  0.450023E-01  0.414614E-01  0.376421E-01
  0.338044E-01  0.301662E-01  0.268728E-01  0.288622E-01  0.262592E-01  0.240400E-01
  0.221988E-01  0.207273E-01  0.196203E-01  0.188777E-01  0.185039E-01  0.185039E-01
  0.188777E-01  0.196203E-01  0.207273E-01  0.221988E-01  0.240400E-01  0.262592E-01
  0.288622E-01  0.318344E-01  0.351117E-01  0.385542E-01  0.419419E-01  0.450023E-01
  0.474742E-01  0.491959E-01  0.501780E-01  0.506023E-01  0.507239E-01  0.507239E-01
  0.506023E-01  0.501780E-01  0.491959E-01  0.474742E-01  0.450023E-01  0.419419E-01
  0.385542E-01  0.351117E-01  0.318344E-01  0.288622E-01  0.316852E-01  0.293520E-01
  0.273512E-01  0.256847E-01  0.243589E-01  0.233881E-01  0.227923E-01  0.225910E-01
  0.227923E-01  0.233881E-01  0.243589E-01  0.256847E-01  0.273512E-01  0.293520E-01
  0.316852E-01  0.343394E-01  0.372637E-01  0.403349E-01  0.433411E-01  0.459997E-01
  0.480180E-01  0.491959E-01  0.495387E-01  0.493009E-01  0.488983E-01  0.487128E-01
  0.488983E-01  0.493009E-01  0.495387E-01  0.491959E-01  0.480180E-01  0.459997E-01
  0.433411E-01  0.403349E-01  0.372637E-01  0.343394E-01  0.316852E-01  0.353829E-01
  0.333289E-01  0.315413E-01  0.300334E-01  0.288360E-01  0.279945E-01  0.275575E-01
  0.275575E-01  0.279945E-01  0.288360E-01  0.300334E-01  0.315413E-01  0.333289E-01
  0.353829E-01  0.376963E-01  0.402392E-01  0.429191E-01  0.455524E-01  0.478670E-01
  0.495484E-01  0.503393E-01  0.501780E-01  0.493009E-01  0.482099E-01  0.474762E-01
  0.474762E-01  0.482099E-01  0.493009E-01  0.501780E-01  0.503393E-01  0.495484E-01
  0.478670E-01  0.455524E-01  0.429191E-01  0.402392E-01  0.376963E-01  0.353829E-01
  0.399896E-01  0.382080E-01  0.365948E-01  0.351910E-01  0.340757E-01  0.333482E-01
  0.330943E-01  0.333482E-01  0.340757E-01  0.351910E-01  0.365948E-01  0.382080E-01
  0.399896E-01  0.419329E-01  0.440356E-01  0.462530E-01  0.484545E-01  0.504091E-01
  0.518117E-01  0.523649E-01  0.519159E-01  0.506023E-01  0.488983E-01  0.474762E-01
  0.469246E-01  0.474762E-01  0.488983E-01  0.506023E-01  0.519159E-01  0.523649E-01
  0.518117E-01  0.504091E-01  0.484545E-01  0.462530E-01  0.440356E-01  0.419329E-01
  0.399896E-01  0.454580E-01  0.438662E-01  0.423022E-01  0.408752E-01  0.397597E-01
  0.391413E-01  0.391413E-01  0.397597E-01  0.408752E-01  0.423022E-01  0.438662E-01
  0.454580E-01  0.470481E-01  0.486604E-01  0.503138E-01  0.519600E-01  0.534452E-01
  0.545156E-01  0.548749E-01  0.543009E-01  0.528013E-01  0.507239E-01  0.487128E-01
  0.474762E-01  0.474762E-01  0.487128E-01  0.507239E-01  0.528013E-01  0.543009E-01
  0.548749E-01  0.545156E-01  0.534452E-01  0.519600E-01  0.503138E-01  0.486604E-01
  0.470481E-01  0.454580E-01  0.515197E-01  0.498769E-01  0.480893E-01  0.464178E-01
  0.452097E-01  0.447669E-01  0.452097E-01  0.464178E-01  0.480893E-01  0.498769E-01
  0.515197E-01  0.529079E-01  0.540673E-01  0.550879E-01  0.560327E-01  0.568679E-01
  0.574387E-01  0.575017E-01  0.568156E-01  0.552817E-01  0.530828E-01  0.507239E-01
  0.488983E-01  0.482099E-01  0.488983E-01  0.507239E-01  0.530828E-01  0.552817E-01
  0.568156E-01  0.575017E-01  0.574387E-01  0.568679E-01  0.560327E-01  0.550879E-01
  0.540673E-01  0.529079E-01  0.515197E-01  0.574800E-01  0.552817E-01  0.528013E-01
  0.506023E-01  0.493009E-01  0.493009E-01  0.506023E-01  0.528013E-01  0.552817E-01
  0.574800E-01  0.590754E-01  0.600270E-01  0.604839E-01  0.606462E-01  0.606462E-01
  0.604839E-01  0.600270E-01  0.590754E-01  0.574800E-01  0.552817E-01  0.528013E-01
  0.506023E-01  0.493009E-01  0.493009E-01  0.506023E-01  0.528013E-01  0.552817E-01
  0.574800E-01  0.590754E-01  0.600270E-01  0.604839E-01  0.606462E-01  0.606462E-01
  0.604839E-01  0.600270E-01  0.590754E-01  0.574800E-01  0.619451E-01  0.583611E-01
  0.546014E-01  0.517269E-01  0.506492E-01  0.517269E-01  0.546014E-01  0.583611E-01
  0.619451E-01  0.645673E-01  0.659339E-01  0.661851E-01  0.656757E-01  0.647584E-01
  0.636529E-01  0.624055E-01  0.609241E-01  0.590754E-01  0.568156E-01  0.543009E-01
  0.519159E-01  0.501780E-01  0.495387E-01  0.501780E-01  0.519159E-01  0.543009E-01
  0.568156E-01  0.590754E-01  0.609241E-01  0.624055E-01  0.636529E-01  0.647584E-01
  0.656757E-01  0.661851E-01  0.659339E-01  0.645673E-01  0.619451E-01  0.627192E-01
  0.568364E-01  0.515141E-01  0.483544E-01  0.483544E-01  0.515141E-01  0.568364E-01
  0.627192E-01  0.676030E-01  0.705538E-01  0.714496E-01  0.707429E-01  0.690668E-01
  0.669492E-01  0.646979E-01  0.624055E-01  0.600270E-01  0.575017E-01  0.548749E-01
  0.523649E-01  0.503393E-01  0.491959E-01  0.491959E-01  0.503393E-01  0.523649E-01
  0.548749E-01  0.575017E-01  0.600270E-01  0.624055E-01  0.646979E-01  0.669492E-01
  0.690668E-01  0.707429E-01  0.714496E-01  0.705538E-01  0.676030E-01  0.627192E-01
  0.575480E-01  0.491591E-01  0.429449E-01  0.406607E-01  0.429449E-01  0.491591E-01
  0.575480E-01  0.657915E-01  0.718885E-01  0.748986E-01  0.750361E-01  0.731719E-01
  0.702468E-01  0.669492E-01  0.636529E-01  0.604839E-01  0.574387E-01  0.545156E-01
  0.518117E-01  0.495484E-01  0.480180E-01  0.474742E-01  0.480180E-01  0.495484E-01
  0.518117E-01  0.545156E-01  0.574387E-01  0.604839E-01  0.636529E-01  0.669492E-01
  0.702468E-01  0.731719E-01  0.750361E-01  0.748986E-01  0.718885E-01  0.657915E-01
  0.575480E-01  0.460107E-01  0.364118E-01  0.310013E-01  0.310013E-01  0.364118E-01
  0.460107E-01  0.574207E-01  0.677088E-01  0.745563E-01  0.771851E-01  0.762812E-01
  0.731719E-01  0.690668E-01  0.647584E-01  0.606462E-01  0.568679E-01  0.534452E-01
  0.504091E-01  0.478670E-01  0.459997E-01  0.450023E-01  0.450023E-01  0.459997E-01
  0.478670E-01  0.504091E-01  0.534452E-01  0.568679E-01  0.606462E-01  0.647584E-01
  0.690668E-01  0.731719E-01  0.762812E-01  0.771851E-01  0.745563E-01  0.677088E-01
  0.574207E-01  0.460107E-01  0.309426E-01  0.225160E-01  0.195777E-01  0.225160E-01
  0.309426E-01  0.434075E-01  0.571157E-01  0.686281E-01  0.754621E-01  0.771851E-01
  0.750361E-01  0.707429E-01  0.656757E-01  0.606462E-01  0.560327E-01  0.519600E-01
  0.484545E-01  0.455524E-01  0.433411E-01  0.419419E-01  0.414614E-01  0.419419E-01
  0.433411E-01  0.455524E-01  0.484545E-01  0.519600E-01  0.560327E-01  0.606462E-01
  0.656757E-01  0.707429E-01  0.750361E-01  0.771851E-01  0.754621E-01  0.686281E-01
  0.571157E-01  0.434075E-01  0.309426E-01  0.170378E-01  0.116080E-01  0.116080E-01
  0.170378E-01  0.276550E-01  0.420342E-01  0.569845E-01  0.686281E-01  0.745563E-01
  0.748986E-01  0.714496E-01  0.661851E-01  0.604839E-01  0.550879E-01  0.503138E-01
  0.462530E-01  0.429191E-01  0.403349E-01  0.385542E-01  0.376421E-01  0.376421E-01
  0.385542E-01  0.403349E-01  0.429191E-01  0.462530E-01  0.503138E-01  0.550879E-01
  0.604839E-01  0.661851E-01  0.714496E-01  0.748986E-01  0.745563E-01  0.686281E-01
  0.569845E-01  0.420342E-01  0.276550E-01  0.170378E-01  0.754337E-02  0.529640E-02
  0.754337E-02  0.145923E-01  0.266057E-01  0.420342E-01  0.571157E-01  0.677088E-01
  0.718885E-01  0.705538E-01  0.659339E-01  0.600270E-01  0.540673E-01  0.486604E-01
  0.440356E-01  0.402392E-01  0.372637E-01  0.351117E-01  0.338044E-01  0.333654E-01
  0.338044E-01  0.351117E-01  0.372637E-01  0.402392E-01  0.440356E-01  0.486604E-01
  0.540673E-01  0.600270E-01  0.659339E-01  0.705538E-01  0.718885E-01  0.677088E-01
  0.571157E-01  0.420342E-01  0.266057E-01  0.145923E-01  0.754337E-02  0.274797E-02
  0.274797E-02  0.638750E-02  0.145923E-01  0.276550E-01  0.434075E-01  0.574207E-01
  0.657915E-01  0.676030E-01  0.645673E-01  0.590754E-01  0.529079E-01  0.470481E-01
  0.419329E-01  0.376963E-01  0.343394E-01  0.318344E-01  0.301662E-01  0.293317E-01
  0.293317E-01  0.301662E-01  0.318344E-01  0.343394E-01  0.376963E-01  0.419329E-01
  0.470481E-01  0.529079E-01  0.590754E-01  0.645673E-01  0.676030E-01  0.657915E-01
  0.574207E-01  0.434075E-01  0.276550E-01  0.145923E-01  0.638750E-02  0.274797E-02
  0.138655E-02  0.274797E-02  0.754337E-02  0.170378E-01  0.309426E-01  0.460107E-01
  0.575480E-01  0.627192E-01  0.619451E-01  0.574800E-01  0.515197E-01  0.454580E-01
  0.399896E-01  0.353829E-01  0.316852E-01  0.288622E-01  0.268728E-01  0.256898E-01
  0.252973E-01  0.256898E-01  0.268728E-01  0.288622E-01  0.316852E-01  0.353829E-01
  0.399896E-01  0.454580E-01  0.515197E-01  0.574800E-01  0.619451E-01  0.627192E-01
  0.575480E-01  0.460107E-01  0.309426E-01  0.170378E-01  0.754337E-02  0.274797E-02
  0.138655E-02
END_DATAGRID_3D
END_BLOCK_DATAGRID_3D
