
     Program PWSCF v.7.2 starts on 25Mar2026 at 21:57:26 

     This program is part of the open-source Quantum ESPRESSO suite
     for quantum simulation of materials; please cite
         "P. Giannozzi et al., J. Phys.:Condens. Matter 21 395502 (2009);
         "P. Giannozzi et al., J. Phys.:Condens. Matter 29 465901 (2017);
         "P. Giannozzi et al., J. Chem. Phys. 152 154105 (2020);
          URL http://www.quantum-espresso.org", 
     in publications or presentations arising from this work. More details at
     http://www.quantum-espresso.org/quote

     Parallel version (MPI), running on     1 processors

     MPI processes distributed on     1 nodes
     4579 MiB available memory on the printing compute node when the environment starts

     Reading input from scf_k08.in

     Current dimensions of program PWSCF are:
     Max number of different atomic species (ntypx) = 10
     Max number of k-points (npk) =  40000
     Max angular momentum in pseudopotentials (lmaxx) =  4

     Subspace diagonalization in iterative solution of the eigenvalue problem:
     a serial algorithm will be used


     G-vector sticks info
     --------------------
     sticks:   dense  smooth     PW     G-vecs:    dense   smooth      PW
     Sum         433     433    151                 5961     5961    1139

     Using Slab Decomposition



     bravais-lattice index     =            2
     lattice parameter (alat)  =      10.2000  a.u.
     unit-cell volume          =     265.3020 (a.u.)^3
     number of atoms/cell      =            2
     number of atomic types    =            1
     number of electrons       =         8.00
     number of Kohn-Sham states=            4
     kinetic-energy cutoff     =      30.0000  Ry
     charge density cutoff     =     120.0000  Ry
     scf convergence threshold =      1.0E-08
     mixing beta               =       0.7000
     number of iterations used =            8  plain     mixing
     Exchange-correlation= SLA  PZ   NOGX NOGC
                           (   1   1   0   0   0   0   0)

     celldm(1)=  10.200000  celldm(2)=   0.000000  celldm(3)=   0.000000
     celldm(4)=   0.000000  celldm(5)=   0.000000  celldm(6)=   0.000000

     crystal axes: (cart. coord. in units of alat)
               a(1) = (  -0.500000   0.000000   0.500000 )  
               a(2) = (   0.000000   0.500000   0.500000 )  
               a(3) = (  -0.500000   0.500000   0.000000 )  

     reciprocal axes: (cart. coord. in units 2 pi/alat)
               b(1) = ( -1.000000 -1.000000  1.000000 )  
               b(2) = (  1.000000  1.000000  1.000000 )  
               b(3) = ( -1.000000  1.000000 -1.000000 )  


     PseudoPot. # 1 for Si read from file:
     ../../pseudo/Si.pz-vbc.UPF
     MD5 check sum: 9f25e6ff280f3123e9b3a84715b2e9c9
     Pseudo is Norm-conserving, Zval =  4.0
     Generated by new atomic code, or converted to UPF format
     Using radial grid of  431 points,  2 beta functions with: 
                l(1) =   0
                l(2) =   1

     atomic species   valence    mass     pseudopotential
        Si             4.00    28.08600     Si( 1.00)

     48 Sym. Ops., with inversion, found (24 have fractional translation)



   Cartesian axes

     site n.     atom                  positions (alat units)
         1           Si  tau(   1) = (   0.0000000   0.0000000   0.0000000  )
         2           Si  tau(   2) = (   0.2500000   0.2500000   0.2500000  )

     number of k points=    60
                       cart. coord. in units 2pi/alat
        k(    1) = (  -0.0625000   0.0625000   0.0625000), wk =   0.0078125
        k(    2) = (  -0.1875000   0.1875000  -0.0625000), wk =   0.0234375
        k(    3) = (  -0.3125000   0.3125000  -0.1875000), wk =   0.0234375
        k(    4) = (  -0.4375000   0.4375000  -0.3125000), wk =   0.0234375
        k(    5) = (   0.4375000  -0.4375000   0.5625000), wk =   0.0234375
        k(    6) = (   0.3125000  -0.3125000   0.4375000), wk =   0.0234375
        k(    7) = (   0.1875000  -0.1875000   0.3125000), wk =   0.0234375
        k(    8) = (   0.0625000  -0.0625000   0.1875000), wk =   0.0234375
        k(    9) = (  -0.0625000   0.3125000   0.0625000), wk =   0.0234375
        k(   10) = (  -0.1875000   0.4375000  -0.0625000), wk =   0.0468750
        k(   11) = (  -0.3125000   0.5625000  -0.1875000), wk =   0.0468750
        k(   12) = (   0.5625000  -0.3125000   0.6875000), wk =   0.0468750
        k(   13) = (   0.4375000  -0.1875000   0.5625000), wk =   0.0468750
        k(   14) = (   0.3125000  -0.0625000   0.4375000), wk =   0.0468750
        k(   15) = (   0.1875000   0.0625000   0.3125000), wk =   0.0468750
        k(   16) = (  -0.0625000   0.5625000   0.0625000), wk =   0.0234375
        k(   17) = (  -0.1875000   0.6875000  -0.0625000), wk =   0.0468750
        k(   18) = (   0.6875000  -0.1875000   0.8125000), wk =   0.0468750
        k(   19) = (   0.5625000  -0.0625000   0.6875000), wk =   0.0468750
        k(   20) = (   0.4375000   0.0625000   0.5625000), wk =   0.0468750
        k(   21) = (   0.3125000   0.1875000   0.4375000), wk =   0.0468750
        k(   22) = (  -0.0625000   0.8125000   0.0625000), wk =   0.0234375
        k(   23) = (   0.8125000  -0.0625000   0.9375000), wk =   0.0468750
        k(   24) = (   0.6875000   0.0625000   0.8125000), wk =   0.0468750
        k(   25) = (   0.5625000   0.1875000   0.6875000), wk =   0.0468750
        k(   26) = (   0.4375000   0.3125000   0.5625000), wk =   0.0468750
        k(   27) = (  -0.0625000  -0.9375000   0.0625000), wk =   0.0234375
        k(   28) = (  -0.1875000  -0.8125000  -0.0625000), wk =   0.0468750
        k(   29) = (  -0.3125000  -0.6875000  -0.1875000), wk =   0.0468750
        k(   30) = (  -0.0625000  -0.6875000   0.0625000), wk =   0.0234375
        k(   31) = (  -0.1875000  -0.5625000  -0.0625000), wk =   0.0468750
        k(   32) = (  -0.0625000  -0.4375000   0.0625000), wk =   0.0234375
        k(   33) = (  -0.1875000   0.1875000   0.1875000), wk =   0.0078125
        k(   34) = (  -0.3125000   0.3125000   0.0625000), wk =   0.0234375
        k(   35) = (  -0.4375000   0.4375000  -0.0625000), wk =   0.0234375
        k(   36) = (   0.4375000  -0.4375000   0.8125000), wk =   0.0234375
        k(   37) = (   0.3125000  -0.3125000   0.6875000), wk =   0.0234375
        k(   38) = (   0.1875000  -0.1875000   0.5625000), wk =   0.0234375
        k(   39) = (  -0.1875000   0.4375000   0.1875000), wk =   0.0234375
        k(   40) = (  -0.3125000   0.5625000   0.0625000), wk =   0.0468750
        k(   41) = (   0.5625000  -0.3125000   0.9375000), wk =   0.0468750
        k(   42) = (   0.4375000  -0.1875000   0.8125000), wk =   0.0468750
        k(   43) = (   0.3125000  -0.0625000   0.6875000), wk =   0.0468750
        k(   44) = (  -0.1875000   0.6875000   0.1875000), wk =   0.0234375
        k(   45) = (   0.6875000  -0.1875000   1.0625000), wk =   0.0468750
        k(   46) = (   0.5625000  -0.0625000   0.9375000), wk =   0.0468750
        k(   47) = (   0.4375000   0.0625000   0.8125000), wk =   0.0468750
        k(   48) = (  -0.1875000  -1.0625000   0.1875000), wk =   0.0234375
        k(   49) = (  -0.3125000  -0.9375000   0.0625000), wk =   0.0468750
        k(   50) = (  -0.1875000  -0.8125000   0.1875000), wk =   0.0234375
        k(   51) = (  -0.3125000   0.3125000   0.3125000), wk =   0.0078125
        k(   52) = (  -0.4375000   0.4375000   0.1875000), wk =   0.0234375
        k(   53) = (   0.4375000  -0.4375000   1.0625000), wk =   0.0234375
        k(   54) = (   0.3125000  -0.3125000   0.9375000), wk =   0.0234375
        k(   55) = (  -0.3125000   0.5625000   0.3125000), wk =   0.0234375
        k(   56) = (   0.5625000  -0.3125000   1.1875000), wk =   0.0468750
        k(   57) = (   0.4375000  -0.1875000   1.0625000), wk =   0.0468750
        k(   58) = (  -0.3125000  -1.1875000   0.3125000), wk =   0.0234375
        k(   59) = (  -0.4375000   0.4375000   0.4375000), wk =   0.0078125
        k(   60) = (   0.4375000  -0.4375000   1.3125000), wk =   0.0234375

     Dense  grid:     5961 G-vectors     FFT dimensions: (  32,  32,  32)

     Estimated max dynamical RAM per process >       7.82 MB

     Initial potential from superposition of free atoms

     starting charge       7.9990, renormalised to       8.0000
     Starting wfcs are    8 randomized atomic wfcs

     total cpu time spent up to now is        0.5 secs

     Self-consistent Calculation

     iteration #  1     ecut=    30.00 Ry     beta= 0.70
     Davidson diagonalization with overlap
     ethr =  1.00E-02,  avg # of iterations =  2.0

     Threshold (ethr) on eigenvalues was too large:
     Diagonalizing with lowered threshold

     Davidson diagonalization with overlap
     ethr =  6.93E-04,  avg # of iterations =  1.0

     total cpu time spent up to now is        1.2 secs

     total energy              =     -15.84862055 Ry
     estimated scf accuracy    <       0.06112731 Ry

     iteration #  2     ecut=    30.00 Ry     beta= 0.70
     Davidson diagonalization with overlap
     ethr =  7.64E-04,  avg # of iterations =  1.0

     total cpu time spent up to now is        1.5 secs

     total energy              =     -15.85186067 Ry
     estimated scf accuracy    <       0.00221146 Ry

     iteration #  3     ecut=    30.00 Ry     beta= 0.70
     Davidson diagonalization with overlap
     ethr =  2.76E-05,  avg # of iterations =  2.5

     total cpu time spent up to now is        1.9 secs

     total energy              =     -15.85235423 Ry
     estimated scf accuracy    <       0.00007395 Ry

     iteration #  4     ecut=    30.00 Ry     beta= 0.70
     Davidson diagonalization with overlap
     ethr =  9.24E-07,  avg # of iterations =  3.1

     total cpu time spent up to now is        2.3 secs

     total energy              =     -15.85238535 Ry
     estimated scf accuracy    <       0.00000218 Ry

     iteration #  5     ecut=    30.00 Ry     beta= 0.70
     Davidson diagonalization with overlap
     ethr =  2.72E-08,  avg # of iterations =  3.8

     total cpu time spent up to now is        2.8 secs

     total energy              =     -15.85238674 Ry
     estimated scf accuracy    <       0.00000009 Ry

     iteration #  6     ecut=    30.00 Ry     beta= 0.70
     Davidson diagonalization with overlap
     ethr =  1.16E-09,  avg # of iterations =  2.9

     total cpu time spent up to now is        3.3 secs

     End of self-consistent calculation

          k =-0.0625 0.0625 0.0625 (   731 PWs)   bands (ev):

    -5.7697   5.7008   6.1430   6.1430

          k =-0.1875 0.1875-0.0625 (   732 PWs)   bands (ev):

    -5.4941   4.1899   5.3073   6.0261

          k =-0.3125 0.3125-0.1875 (   743 PWs)   bands (ev):

    -4.8271   1.9137   4.8136   5.5529

          k =-0.4375 0.4375-0.3125 (   744 PWs)   bands (ev):

    -3.8877  -0.0317   4.5982   5.1352

          k = 0.4375-0.4375 0.5625 (   741 PWs)   bands (ev):

    -3.4107  -0.7666   4.6539   4.9089

          k = 0.3125-0.3125 0.4375 (   747 PWs)   bands (ev):

    -4.2114   0.5465   4.9261   4.9492

          k = 0.1875-0.1875 0.3125 (   742 PWs)   bands (ev):

    -5.0890   2.6615   5.2058   5.4238

          k = 0.0625-0.0625 0.1875 (   731 PWs)   bands (ev):

    -5.6312   4.9547   5.6994   5.8757

          k =-0.0625 0.3125 0.0625 (   738 PWs)   bands (ev):

    -5.3556   4.0720   5.1232   5.2245

          k =-0.1875 0.4375-0.0625 (   738 PWs)   bands (ev):

    -4.8155   2.5488   4.1219   4.9563

          k =-0.3125 0.5625-0.1875 (   736 PWs)   bands (ev):

    -3.9404   0.6266   3.6308   4.5257

          k = 0.5625-0.3125 0.6875 (   737 PWs)   bands (ev):

    -3.1362  -0.6396   3.3390   4.4271

          k = 0.4375-0.1875 0.5625 (   740 PWs)   bands (ev):

    -3.6221   0.0859   3.2543   4.7250

          k = 0.3125-0.0625 0.4375 (   742 PWs)   bands (ev):

    -4.5590   1.8790   3.5445   5.2535

          k = 0.1875 0.0625 0.3125 (   739 PWs)   bands (ev):

    -5.2212   3.3711   4.7110   5.6408

          k =-0.0625 0.5625 0.0625 (   732 PWs)   bands (ev):

    -4.4042   2.0717   3.9766   4.1041

          k =-0.1875 0.6875-0.0625 (   738 PWs)   bands (ev):

    -3.6287   0.8098   3.1542   3.7408

          k = 0.6875-0.1875 0.8125 (   732 PWs)   bands (ev):

    -2.6908  -0.4352   2.2797   3.7088

          k = 0.5625-0.0625 0.6875 (   731 PWs)   bands (ev):

    -2.7605  -0.3408   1.9053   4.0676

          k = 0.4375 0.0625 0.5625 (   738 PWs)   bands (ev):

    -3.6945   0.6218   2.5442   4.6775

          k = 0.3125 0.1875 0.4375 (   741 PWs)   bands (ev):

    -4.4409   1.2309   4.2576   5.1527

          k =-0.0625 0.8125 0.0625 (   740 PWs)   bands (ev):

    -2.9580  -0.0678   3.2610   3.4937

          k = 0.8125-0.0625 0.9375 (   735 PWs)   bands (ev):

    -2.0167  -1.0806   2.6690   3.2338

          k = 0.6875 0.0625 0.8125 (   730 PWs)   bands (ev):

    -2.0992  -0.9216   1.8977   3.5606

          k = 0.5625 0.1875 0.6875 (   732 PWs)   bands (ev):

    -2.8743  -0.5647   2.5138   4.1855

          k = 0.4375 0.3125 0.5625 (   739 PWs)   bands (ev):

    -3.5060  -0.4467   4.0882   4.8027

          k =-0.0625-0.9375 0.0625 (   736 PWs)   bands (ev):

    -2.0740  -1.1019   3.1185   3.3691

          k =-0.1875-0.8125-0.0625 (   740 PWs)   bands (ev):

    -2.8668  -0.1315   2.8353   3.3981

          k =-0.3125-0.6875-0.1875 (   736 PWs)   bands (ev):

    -3.3442   0.0845   2.9245   4.0205

          k =-0.0625-0.6875 0.0625 (   732 PWs)   bands (ev):

    -3.7389   1.0018   3.5468   3.7407

          k =-0.1875-0.5625-0.0625 (   737 PWs)   bands (ev):

    -4.2821   1.7042   3.5942   4.2743

          k =-0.0625-0.4375 0.0625 (   732 PWs)   bands (ev):

    -4.9451   3.1054   4.5466   4.5727

          k =-0.1875 0.1875 0.1875 (   733 PWs)   bands (ev):

    -5.3585   3.4434   5.6895   5.6895

          k =-0.3125 0.3125 0.0625 (   740 PWs)   bands (ev):

    -4.9543   2.6119   4.1173   5.7158

          k =-0.4375 0.4375-0.0625 (   738 PWs)   bands (ev):

    -4.1817   1.2267   2.9957   5.1933

          k = 0.4375-0.4375 0.8125 (   735 PWs)   bands (ev):

    -3.2451  -0.3291   2.8596   4.6422

          k = 0.3125-0.3125 0.6875 (   734 PWs)   bands (ev):

    -3.2300  -0.3574   3.1762   4.3108

          k = 0.1875-0.1875 0.5625 (   741 PWs)   bands (ev):

    -4.1659   1.2216   3.8061   4.2827

          k =-0.1875 0.4375 0.1875 (   736 PWs)   bands (ev):

    -4.6893   1.9233   4.6697   4.7148

          k =-0.3125 0.5625 0.0625 (   740 PWs)   bands (ev):

    -4.0423   1.1739   3.0544   4.5137

          k = 0.5625-0.3125 0.9375 (   735 PWs)   bands (ev):

    -3.1159   0.0574   2.2266   3.9149

          k = 0.4375-0.1875 0.8125 (   730 PWs)   bands (ev):

    -2.6020  -0.5894   2.2421   3.5852

          k = 0.3125-0.0625 0.6875 (   736 PWs)   bands (ev):

    -3.4155   0.4675   2.6724   3.7746

          k =-0.1875 0.6875 0.1875 (   740 PWs)   bands (ev):

    -3.5295   0.5144   3.0286   3.9417

          k = 0.6875-0.1875 1.0625 (   734 PWs)   bands (ev):

    -2.6972  -0.2765   2.4108   3.2103

          k = 0.5625-0.0625 0.9375 (   730 PWs)   bands (ev):

    -1.8542  -1.0445   2.0666   2.6803

          k = 0.4375 0.0625 0.8125 (   732 PWs)   bands (ev):

    -2.4780  -0.4950   2.0682   3.1799

          k =-0.1875-1.0625 0.1875 (   735 PWs)   bands (ev):

    -2.0296  -1.0338   2.1788   3.5889

          k =-0.3125-0.9375 0.0625 (   734 PWs)   bands (ev):

    -1.9265  -1.0558   2.2771   2.9135

          k =-0.1875-0.8125 0.1875 (   735 PWs)   bands (ev):

    -2.7991  -0.2456   2.4649   3.7077

          k =-0.3125 0.3125 0.3125 (   751 PWs)   bands (ev):

    -4.5765   1.1859   5.2677   5.2677

          k =-0.4375 0.4375 0.1875 (   744 PWs)   bands (ev):

    -4.0791   0.6062   3.7584   5.1795

          k = 0.4375-0.4375 1.0625 (   734 PWs)   bands (ev):

    -3.2568   0.1100   2.1443   4.5750

          k = 0.3125-0.3125 0.9375 (   727 PWs)   bands (ev):

    -2.3992  -0.6765   1.7773   4.0076

          k =-0.3125 0.5625 0.3125 (   737 PWs)   bands (ev):

    -3.7502   0.0264   4.1194   4.5919

          k = 0.5625-0.3125 1.1875 (   734 PWs)   bands (ev):

    -3.1051  -0.3150   2.7493   4.0878

          k = 0.4375-0.1875 1.0625 (   731 PWs)   bands (ev):

    -2.2584  -0.7318   1.8725   3.3397

          k =-0.3125-1.1875 0.3125 (   733 PWs)   bands (ev):

    -2.7299  -0.5905   2.3254   4.1110

          k =-0.4375 0.4375 0.4375 (   739 PWs)   bands (ev):

    -3.6424  -0.5202   5.0433   5.0433

          k = 0.4375-0.4375 1.3125 (   743 PWs)   bands (ev):

    -3.2743  -0.6942   3.7888   4.7628

     highest occupied level (ev):     6.1430

!    total energy              =     -15.85238677 Ry
     estimated scf accuracy    <          5.6E-09 Ry

     The total energy is the sum of the following terms:
     one-electron contribution =       4.78605785 Ry
     hartree contribution      =       1.07826964 Ry
     xc contribution           =      -4.81695566 Ry
     ewald contribution        =     -16.89975860 Ry

     convergence has been achieved in   6 iterations

     Writing all to output data dir ./tmp/Si.save/

     init_run     :      0.53s CPU      0.53s WALL (       1 calls)
     electrons    :      2.71s CPU      2.74s WALL (       1 calls)

     Called by init_run:
     wfcinit      :      0.37s CPU      0.37s WALL (       1 calls)
     potinit      :      0.00s CPU      0.00s WALL (       1 calls)
     hinit0       :      0.15s CPU      0.15s WALL (       1 calls)

     Called by electrons:
     c_bands      :      2.32s CPU      2.35s WALL (       7 calls)
     sum_band     :      0.37s CPU      0.37s WALL (       7 calls)
     v_of_rho     :      0.01s CPU      0.01s WALL (       7 calls)
     mix_rho      :      0.00s CPU      0.00s WALL (       7 calls)

     Called by c_bands:
     init_us_2    :      0.08s CPU      0.08s WALL (     900 calls)
     init_us_2:cp :      0.08s CPU      0.08s WALL (     900 calls)
     cegterg      :      2.25s CPU      2.28s WALL (     420 calls)

     Called by *egterg:
     cdiaghg      :      0.05s CPU      0.05s WALL (    1341 calls)
     h_psi        :      2.29s CPU      2.32s WALL (    1461 calls)
     g_psi        :      0.01s CPU      0.01s WALL (     981 calls)

     Called by h_psi:
     h_psi:calbec :      0.07s CPU      0.07s WALL (    1461 calls)
     vloc_psi     :      2.14s CPU      2.17s WALL (    1461 calls)
     add_vuspsi   :      0.06s CPU      0.06s WALL (    1461 calls)

     General routines
     calbec       :      0.07s CPU      0.07s WALL (    1461 calls)
     fft          :      0.14s CPU      0.14s WALL (      21 calls)
     ffts         :      0.00s CPU      0.00s WALL (       7 calls)
     fftw         :      1.96s CPU      1.98s WALL (   12270 calls)

     Parallel routines

     PWSCF        :      3.25s CPU      3.30s WALL


   This run was terminated on:  21:57:29  25Mar2026            

=------------------------------------------------------------------------------=
   JOB DONE.
=------------------------------------------------------------------------------=
