
     Program PWSCF v.7.2 starts on 25Mar2026 at 21:57:23 

     This program is part of the open-source Quantum ESPRESSO suite
     for quantum simulation of materials; please cite
         "P. Giannozzi et al., J. Phys.:Condens. Matter 21 395502 (2009);
         "P. Giannozzi et al., J. Phys.:Condens. Matter 29 465901 (2017);
         "P. Giannozzi et al., J. Chem. Phys. 152 154105 (2020);
          URL http://www.quantum-espresso.org", 
     in publications or presentations arising from this work. More details at
     http://www.quantum-espresso.org/quote

     Parallel version (MPI), running on     1 processors

     MPI processes distributed on     1 nodes
     4508 MiB available memory on the printing compute node when the environment starts

     Reading input from scf_k06.in

     Current dimensions of program PWSCF are:
     Max number of different atomic species (ntypx) = 10
     Max number of k-points (npk) =  40000
     Max angular momentum in pseudopotentials (lmaxx) =  4

     Subspace diagonalization in iterative solution of the eigenvalue problem:
     a serial algorithm will be used


     G-vector sticks info
     --------------------
     sticks:   dense  smooth     PW     G-vecs:    dense   smooth      PW
     Sum         433     433    151                 5961     5961    1139

     Using Slab Decomposition



     bravais-lattice index     =            2
     lattice parameter (alat)  =      10.2000  a.u.
     unit-cell volume          =     265.3020 (a.u.)^3
     number of atoms/cell      =            2
     number of atomic types    =            1
     number of electrons       =         8.00
     number of Kohn-Sham states=            4
     kinetic-energy cutoff     =      30.0000  Ry
     charge density cutoff     =     120.0000  Ry
     scf convergence threshold =      1.0E-08
     mixing beta               =       0.7000
     number of iterations used =            8  plain     mixing
     Exchange-correlation= SLA  PZ   NOGX NOGC
                           (   1   1   0   0   0   0   0)

     celldm(1)=  10.200000  celldm(2)=   0.000000  celldm(3)=   0.000000
     celldm(4)=   0.000000  celldm(5)=   0.000000  celldm(6)=   0.000000

     crystal axes: (cart. coord. in units of alat)
               a(1) = (  -0.500000   0.000000   0.500000 )  
               a(2) = (   0.000000   0.500000   0.500000 )  
               a(3) = (  -0.500000   0.500000   0.000000 )  

     reciprocal axes: (cart. coord. in units 2 pi/alat)
               b(1) = ( -1.000000 -1.000000  1.000000 )  
               b(2) = (  1.000000  1.000000  1.000000 )  
               b(3) = ( -1.000000  1.000000 -1.000000 )  


     PseudoPot. # 1 for Si read from file:
     ../../pseudo/Si.pz-vbc.UPF
     MD5 check sum: 9f25e6ff280f3123e9b3a84715b2e9c9
     Pseudo is Norm-conserving, Zval =  4.0
     Generated by new atomic code, or converted to UPF format
     Using radial grid of  431 points,  2 beta functions with: 
                l(1) =   0
                l(2) =   1

     atomic species   valence    mass     pseudopotential
        Si             4.00    28.08600     Si( 1.00)

     48 Sym. Ops., with inversion, found (24 have fractional translation)



   Cartesian axes

     site n.     atom                  positions (alat units)
         1           Si  tau(   1) = (   0.0000000   0.0000000   0.0000000  )
         2           Si  tau(   2) = (   0.2500000   0.2500000   0.2500000  )

     number of k points=    28
                       cart. coord. in units 2pi/alat
        k(    1) = (  -0.0833333   0.0833333   0.0833333), wk =   0.0185185
        k(    2) = (  -0.2500000   0.2500000  -0.0833333), wk =   0.0555556
        k(    3) = (  -0.4166667   0.4166667  -0.2500000), wk =   0.0555556
        k(    4) = (   0.4166667  -0.4166667   0.5833333), wk =   0.0555556
        k(    5) = (   0.2500000  -0.2500000   0.4166667), wk =   0.0555556
        k(    6) = (   0.0833333  -0.0833333   0.2500000), wk =   0.0555556
        k(    7) = (  -0.0833333   0.4166667   0.0833333), wk =   0.0555556
        k(    8) = (  -0.2500000   0.5833333  -0.0833333), wk =   0.1111111
        k(    9) = (   0.5833333  -0.2500000   0.7500000), wk =   0.1111111
        k(   10) = (   0.4166667  -0.0833333   0.5833333), wk =   0.1111111
        k(   11) = (   0.2500000   0.0833333   0.4166667), wk =   0.1111111
        k(   12) = (  -0.0833333   0.7500000   0.0833333), wk =   0.0555556
        k(   13) = (   0.7500000  -0.0833333   0.9166667), wk =   0.1111111
        k(   14) = (   0.5833333   0.0833333   0.7500000), wk =   0.1111111
        k(   15) = (   0.4166667   0.2500000   0.5833333), wk =   0.1111111
        k(   16) = (  -0.0833333  -0.9166667   0.0833333), wk =   0.0555556
        k(   17) = (  -0.2500000  -0.7500000  -0.0833333), wk =   0.1111111
        k(   18) = (  -0.0833333  -0.5833333   0.0833333), wk =   0.0555556
        k(   19) = (  -0.2500000   0.2500000   0.2500000), wk =   0.0185185
        k(   20) = (  -0.4166667   0.4166667   0.0833333), wk =   0.0555556
        k(   21) = (   0.4166667  -0.4166667   0.9166667), wk =   0.0555556
        k(   22) = (   0.2500000  -0.2500000   0.7500000), wk =   0.0555556
        k(   23) = (  -0.2500000   0.5833333   0.2500000), wk =   0.0555556
        k(   24) = (   0.5833333  -0.2500000   1.0833333), wk =   0.1111111
        k(   25) = (   0.4166667  -0.0833333   0.9166667), wk =   0.1111111
        k(   26) = (  -0.2500000  -1.0833333   0.2500000), wk =   0.0555556
        k(   27) = (  -0.4166667   0.4166667   0.4166667), wk =   0.0185185
        k(   28) = (   0.4166667  -0.4166667   1.2500000), wk =   0.0555556

     Dense  grid:     5961 G-vectors     FFT dimensions: (  32,  32,  32)

     Estimated max dynamical RAM per process >       6.38 MB

     Initial potential from superposition of free atoms

     starting charge       7.9990, renormalised to       8.0000
     Starting wfcs are    8 randomized atomic wfcs

     total cpu time spent up to now is        0.4 secs

     Self-consistent Calculation

     iteration #  1     ecut=    30.00 Ry     beta= 0.70
     Davidson diagonalization with overlap
     ethr =  1.00E-02,  avg # of iterations =  2.0

     Threshold (ethr) on eigenvalues was too large:
     Diagonalizing with lowered threshold

     Davidson diagonalization with overlap
     ethr =  6.93E-04,  avg # of iterations =  1.0

     total cpu time spent up to now is        0.7 secs

     total energy              =     -15.84860199 Ry
     estimated scf accuracy    <       0.06116127 Ry

     iteration #  2     ecut=    30.00 Ry     beta= 0.70
     Davidson diagonalization with overlap
     ethr =  7.65E-04,  avg # of iterations =  1.0

     total cpu time spent up to now is        0.9 secs

     total energy              =     -15.85185167 Ry
     estimated scf accuracy    <       0.00220860 Ry

     iteration #  3     ecut=    30.00 Ry     beta= 0.70
     Davidson diagonalization with overlap
     ethr =  2.76E-05,  avg # of iterations =  2.5

     total cpu time spent up to now is        1.0 secs

     total energy              =     -15.85234772 Ry
     estimated scf accuracy    <       0.00007360 Ry

     iteration #  4     ecut=    30.00 Ry     beta= 0.70
     Davidson diagonalization with overlap
     ethr =  9.20E-07,  avg # of iterations =  3.1

     total cpu time spent up to now is        1.2 secs

     total energy              =     -15.85237830 Ry
     estimated scf accuracy    <       0.00000206 Ry

     iteration #  5     ecut=    30.00 Ry     beta= 0.70
     Davidson diagonalization with overlap
     ethr =  2.58E-08,  avg # of iterations =  4.1

     total cpu time spent up to now is        1.5 secs

     total energy              =     -15.85237970 Ry
     estimated scf accuracy    <       0.00000009 Ry

     iteration #  6     ecut=    30.00 Ry     beta= 0.70
     Davidson diagonalization with overlap
     ethr =  1.18E-09,  avg # of iterations =  2.8

     total cpu time spent up to now is        1.7 secs

     End of self-consistent calculation

          k =-0.0833 0.0833 0.0833 (   731 PWs)   bands (ev):

    -5.7293   5.3722   6.0828   6.0828

          k =-0.2500 0.2500-0.0833 (   739 PWs)   bands (ev):

    -5.2430   3.2805   4.8174   5.8728

          k =-0.4167 0.4167-0.2500 (   745 PWs)   bands (ev):

    -4.1228   0.4622   4.3534   5.2237

          k = 0.4167-0.4167 0.5833 (   743 PWs)   bands (ev):

    -3.3947  -0.7193   4.4269   4.8331

          k = 0.2500-0.2500 0.4167 (   742 PWs)   bands (ev):

    -4.5467   1.3282   4.8904   4.9368

          k = 0.0833-0.0833 0.2500 (   731 PWs)   bands (ev):

    -5.4839   4.3061   5.4200   5.6218

          k =-0.0833 0.4167 0.0833 (   736 PWs)   bands (ev):

    -4.9973   3.1173   4.6667   4.6737

          k =-0.2500 0.5833-0.0833 (   737 PWs)   bands (ev):

    -4.0665   1.2566   3.3058   4.2787

          k = 0.5833-0.2500 0.7500 (   733 PWs)   bands (ev):

    -2.9103  -0.5537   2.7003   4.0418

          k = 0.4167-0.0833 0.5833 (   739 PWs)   bands (ev):

    -3.6598   0.5435   2.6434   4.5450

          k = 0.2500 0.0833 0.4167 (   737 PWs)   bands (ev):

    -4.7665   2.2534   4.0222   5.2360

          k =-0.0833 0.7500 0.0833 (   735 PWs)   bands (ev):

    -3.3422   0.4405   3.2652   3.6228

          k = 0.7500-0.0833 0.9167 (   736 PWs)   bands (ev):

    -2.1154  -0.9201   2.3868   3.1961

          k = 0.5833 0.0833 0.7500 (   730 PWs)   bands (ev):

    -2.4826  -0.5998   1.8916   3.7578

          k = 0.4167 0.2500 0.5833 (   737 PWs)   bands (ev):

    -3.5393  -0.1891   3.6307   4.6477

          k =-0.0833-0.9167 0.0833 (   736 PWs)   bands (ev):

    -2.2150  -0.9310   2.9877   3.4028

          k =-0.2500-0.7500-0.0833 (   737 PWs)   bands (ev):

    -3.1666   0.2092   2.7259   3.5453

          k =-0.0833-0.5833 0.0833 (   732 PWs)   bands (ev):

    -4.2782   1.8195   3.8284   4.0542

          k =-0.2500 0.2500 0.2500 (   745 PWs)   bands (ev):

    -5.0082   2.2763   5.4585   5.4585

          k =-0.4167 0.4167 0.0833 (   740 PWs)   bands (ev):

    -4.3135   1.3527   3.2693   5.2883

          k = 0.4167-0.4167 0.9167 (   734 PWs)   bands (ev):

    -3.1008  -0.0992   2.1248   4.4810

          k = 0.2500-0.2500 0.7500 (   735 PWs)   bands (ev):

    -3.0500  -0.1790   2.6246   3.9857

          k =-0.2500 0.5833 0.2500 (   738 PWs)   bands (ev):

    -3.8783   0.5228   3.7636   4.3676

          k = 0.5833-0.2500 1.0833 (   732 PWs)   bands (ev):

    -2.8504  -0.1965   2.2254   3.5376

          k = 0.4167-0.0833 0.9167 (   732 PWs)   bands (ev):

    -1.9983  -0.9278   2.0437   2.8456

          k =-0.2500-1.0833 0.2500 (   732 PWs)   bands (ev):

    -2.2118  -0.8446   1.9138   3.7866

          k =-0.4167 0.4167 0.4167 (   739 PWs)   bands (ev):

    -3.7798  -0.3069   5.0653   5.0653

          k = 0.4167-0.4167 1.2500 (   737 PWs)   bands (ev):

    -3.1554  -0.6034   3.1925   4.6118

     highest occupied level (ev):     6.0828

!    total energy              =     -15.85237974 Ry
     estimated scf accuracy    <          8.1E-09 Ry

     The total energy is the sum of the following terms:
     one-electron contribution =       4.78604716 Ry
     hartree contribution      =       1.07830070 Ry
     xc contribution           =      -4.81696900 Ry
     ewald contribution        =     -16.89975860 Ry

     convergence has been achieved in   6 iterations

     Writing all to output data dir ./tmp/Si.save/

     init_run     :      0.38s CPU      0.39s WALL (       1 calls)
     electrons    :      1.26s CPU      1.27s WALL (       1 calls)

     Called by init_run:
     wfcinit      :      0.22s CPU      0.23s WALL (       1 calls)
     potinit      :      0.00s CPU      0.00s WALL (       1 calls)
     hinit0       :      0.15s CPU      0.15s WALL (       1 calls)

     Called by electrons:
     c_bands      :      1.06s CPU      1.07s WALL (       7 calls)
     sum_band     :      0.18s CPU      0.18s WALL (       7 calls)
     v_of_rho     :      0.01s CPU      0.01s WALL (       7 calls)
     mix_rho      :      0.00s CPU      0.00s WALL (       7 calls)

     Called by c_bands:
     init_us_2    :      0.04s CPU      0.04s WALL (     420 calls)
     init_us_2:cp :      0.04s CPU      0.04s WALL (     420 calls)
     cegterg      :      1.03s CPU      1.04s WALL (     196 calls)

     Called by *egterg:
     cdiaghg      :      0.02s CPU      0.02s WALL (     631 calls)
     h_psi        :      1.10s CPU      1.12s WALL (     687 calls)
     g_psi        :      0.01s CPU      0.01s WALL (     463 calls)

     Called by h_psi:
     h_psi:calbec :      0.03s CPU      0.03s WALL (     687 calls)
     vloc_psi     :      1.04s CPU      1.05s WALL (     687 calls)
     add_vuspsi   :      0.03s CPU      0.03s WALL (     687 calls)

     General routines
     calbec       :      0.03s CPU      0.03s WALL (     687 calls)
     fft          :      0.14s CPU      0.14s WALL (      21 calls)
     ffts         :      0.00s CPU      0.00s WALL (       7 calls)
     fftw         :      0.96s CPU      0.97s WALL (    5734 calls)

     Parallel routines

     PWSCF        :      1.66s CPU      1.69s WALL


   This run was terminated on:  21:57:25  25Mar2026            

=------------------------------------------------------------------------------=
   JOB DONE.
=------------------------------------------------------------------------------=
