
     Program PWSCF v.7.2 starts on 25Mar2026 at 22: 0:50 

     This program is part of the open-source Quantum ESPRESSO suite
     for quantum simulation of materials; please cite
         "P. Giannozzi et al., J. Phys.:Condens. Matter 21 395502 (2009);
         "P. Giannozzi et al., J. Phys.:Condens. Matter 29 465901 (2017);
         "P. Giannozzi et al., J. Chem. Phys. 152 154105 (2020);
          URL http://www.quantum-espresso.org", 
     in publications or presentations arising from this work. More details at
     http://www.quantum-espresso.org/quote

     Parallel version (MPI), running on     1 processors

     MPI processes distributed on     1 nodes
     4676 MiB available memory on the printing compute node when the environment starts

     Reading input from scf_k06.in

     Current dimensions of program PWSCF are:
     Max number of different atomic species (ntypx) = 10
     Max number of k-points (npk) =  40000
     Max angular momentum in pseudopotentials (lmaxx) =  4

     Subspace diagonalization in iterative solution of the eigenvalue problem:
     a serial algorithm will be used


     G-vector sticks info
     --------------------
     sticks:   dense  smooth     PW     G-vecs:    dense   smooth      PW
     Sum         475     475    151                 6855     6855    1243

     Using Slab Decomposition



     bravais-lattice index     =            2
     lattice parameter (alat)  =      10.7000  a.u.
     unit-cell volume          =     306.2607 (a.u.)^3
     number of atoms/cell      =            2
     number of atomic types    =            1
     number of electrons       =         8.00
     number of Kohn-Sham states=            4
     kinetic-energy cutoff     =      30.0000  Ry
     charge density cutoff     =     120.0000  Ry
     scf convergence threshold =      1.0E-08
     mixing beta               =       0.7000
     number of iterations used =            8  plain     mixing
     Exchange-correlation= SLA-PZ-NOGX-NOGC
                           (   1   1   0   0   0   0   0)

     celldm(1)=  10.700000  celldm(2)=   0.000000  celldm(3)=   0.000000
     celldm(4)=   0.000000  celldm(5)=   0.000000  celldm(6)=   0.000000

     crystal axes: (cart. coord. in units of alat)
               a(1) = (  -0.500000   0.000000   0.500000 )  
               a(2) = (   0.000000   0.500000   0.500000 )  
               a(3) = (  -0.500000   0.500000   0.000000 )  

     reciprocal axes: (cart. coord. in units 2 pi/alat)
               b(1) = ( -1.000000 -1.000000  1.000000 )  
               b(2) = (  1.000000  1.000000  1.000000 )  
               b(3) = ( -1.000000  1.000000 -1.000000 )  


     PseudoPot. # 1 for Ge read from file:
     ../../pseudo/Ge.pz-hgh.UPF
     MD5 check sum: 4f4dbf79373ba026d545ed2bc1c74a27
     Pseudo is Norm-conserving, Zval =  4.0
     Generated in analytical, separable form
     Using radial grid of 1207 points,  6 beta functions with: 
                l(1) =   0
                l(2) =   0
                l(3) =   0
                l(4) =   1
                l(5) =   1
                l(6) =   2

     atomic species   valence    mass     pseudopotential
        Ge             4.00    72.63000     Ge( 1.00)

     48 Sym. Ops., with inversion, found (24 have fractional translation)



   Cartesian axes

     site n.     atom                  positions (alat units)
         1           Ge  tau(   1) = (   0.0000000   0.0000000   0.0000000  )
         2           Ge  tau(   2) = (   0.2500000   0.2500000   0.2500000  )

     number of k points=    28
                       cart. coord. in units 2pi/alat
        k(    1) = (  -0.0833333   0.0833333   0.0833333), wk =   0.0185185
        k(    2) = (  -0.2500000   0.2500000  -0.0833333), wk =   0.0555556
        k(    3) = (  -0.4166667   0.4166667  -0.2500000), wk =   0.0555556
        k(    4) = (   0.4166667  -0.4166667   0.5833333), wk =   0.0555556
        k(    5) = (   0.2500000  -0.2500000   0.4166667), wk =   0.0555556
        k(    6) = (   0.0833333  -0.0833333   0.2500000), wk =   0.0555556
        k(    7) = (  -0.0833333   0.4166667   0.0833333), wk =   0.0555556
        k(    8) = (  -0.2500000   0.5833333  -0.0833333), wk =   0.1111111
        k(    9) = (   0.5833333  -0.2500000   0.7500000), wk =   0.1111111
        k(   10) = (   0.4166667  -0.0833333   0.5833333), wk =   0.1111111
        k(   11) = (   0.2500000   0.0833333   0.4166667), wk =   0.1111111
        k(   12) = (  -0.0833333   0.7500000   0.0833333), wk =   0.0555556
        k(   13) = (   0.7500000  -0.0833333   0.9166667), wk =   0.1111111
        k(   14) = (   0.5833333   0.0833333   0.7500000), wk =   0.1111111
        k(   15) = (   0.4166667   0.2500000   0.5833333), wk =   0.1111111
        k(   16) = (  -0.0833333  -0.9166667   0.0833333), wk =   0.0555556
        k(   17) = (  -0.2500000  -0.7500000  -0.0833333), wk =   0.1111111
        k(   18) = (  -0.0833333  -0.5833333   0.0833333), wk =   0.0555556
        k(   19) = (  -0.2500000   0.2500000   0.2500000), wk =   0.0185185
        k(   20) = (  -0.4166667   0.4166667   0.0833333), wk =   0.0555556
        k(   21) = (   0.4166667  -0.4166667   0.9166667), wk =   0.0555556
        k(   22) = (   0.2500000  -0.2500000   0.7500000), wk =   0.0555556
        k(   23) = (  -0.2500000   0.5833333   0.2500000), wk =   0.0555556
        k(   24) = (   0.5833333  -0.2500000   1.0833333), wk =   0.1111111
        k(   25) = (   0.4166667  -0.0833333   0.9166667), wk =   0.1111111
        k(   26) = (  -0.2500000  -1.0833333   0.2500000), wk =   0.0555556
        k(   27) = (  -0.4166667   0.4166667   0.4166667), wk =   0.0185185
        k(   28) = (   0.4166667  -0.4166667   1.2500000), wk =   0.0555556

     Dense  grid:     6855 G-vectors     FFT dimensions: (  32,  32,  32)

     Estimated max dynamical RAM per process >       8.32 MB

     Initial potential from superposition of free atoms

     starting charge       6.0000, renormalised to       8.0000
     Starting wfcs are   18 randomized atomic wfcs

     total cpu time spent up to now is        0.6 secs

     Self-consistent Calculation

     iteration #  1     ecut=    30.00 Ry     beta= 0.70
     Davidson diagonalization with overlap
     ethr =  1.00E-02,  avg # of iterations =  1.0

     Threshold (ethr) on eigenvalues was too large:
     Diagonalizing with lowered threshold

     Davidson diagonalization with overlap
     ethr =  9.48E-04,  avg # of iterations =  1.0

     total cpu time spent up to now is        0.9 secs

     total energy              =     -15.98236346 Ry
     estimated scf accuracy    <       0.07627126 Ry

     iteration #  2     ecut=    30.00 Ry     beta= 0.70
     Davidson diagonalization with overlap
     ethr =  9.53E-04,  avg # of iterations =  1.0

     total cpu time spent up to now is        1.1 secs

     total energy              =     -15.98572959 Ry
     estimated scf accuracy    <       0.00343235 Ry

     iteration #  3     ecut=    30.00 Ry     beta= 0.70
     Davidson diagonalization with overlap
     ethr =  4.29E-05,  avg # of iterations =  2.1

     total cpu time spent up to now is        1.3 secs

     total energy              =     -15.98608929 Ry
     estimated scf accuracy    <       0.00010326 Ry

     iteration #  4     ecut=    30.00 Ry     beta= 0.70
     Davidson diagonalization with overlap
     ethr =  1.29E-06,  avg # of iterations =  3.2

     total cpu time spent up to now is        1.5 secs

     total energy              =     -15.98612501 Ry
     estimated scf accuracy    <       0.00000051 Ry

     iteration #  5     ecut=    30.00 Ry     beta= 0.70
     Davidson diagonalization with overlap
     ethr =  6.34E-09,  avg # of iterations =  6.0

     total cpu time spent up to now is        1.8 secs

     total energy              =     -15.98612718 Ry
     estimated scf accuracy    <       0.00000011 Ry

     iteration #  6     ecut=    30.00 Ry     beta= 0.70
     Davidson diagonalization with overlap
     ethr =  1.41E-09,  avg # of iterations =  2.2

     total cpu time spent up to now is        2.0 secs

     total energy              =     -15.98612717 Ry
     estimated scf accuracy    <       0.00000012 Ry

     iteration #  7     ecut=    30.00 Ry     beta= 0.70
     Davidson diagonalization with overlap
     ethr =  1.41E-09,  avg # of iterations =  1.8

     total cpu time spent up to now is        2.2 secs

     End of self-consistent calculation

          k =-0.0833 0.0833 0.0833 (   875 PWs)   bands (ev):

    -7.2303   3.8401   5.2518   5.2518

          k =-0.2500 0.2500-0.0833 (   859 PWs)   bands (ev):

    -6.7919   1.5691   3.8849   4.9786

          k =-0.4167 0.4167-0.2500 (   854 PWs)   bands (ev):

    -5.8074  -1.0768   3.2849   4.2689

          k = 0.4167-0.4167 0.5833 (   849 PWs)   bands (ev):

    -5.2196  -2.1096   3.2948   3.8734

          k = 0.2500-0.2500 0.4167 (   854 PWs)   bands (ev):

    -6.1730  -0.2772   3.8173   3.9742

          k = 0.0833-0.0833 0.2500 (   864 PWs)   bands (ev):

    -7.0085   2.5588   4.5648   4.6301

          k =-0.0833 0.4167 0.0833 (   855 PWs)   bands (ev):

    -6.5681   1.1771   3.6907   3.7913

          k =-0.2500 0.5833-0.0833 (   852 PWs)   bands (ev):

    -5.7349  -0.6480   2.3866   3.3565

          k = 0.5833-0.2500 0.7500 (   847 PWs)   bands (ev):

    -4.7671  -2.1992   1.7111   3.1446

          k = 0.4167-0.0833 0.5833 (   848 PWs)   bands (ev):

    -5.3872  -1.2718   1.7569   3.6153

          k = 0.2500 0.0833 0.4167 (   852 PWs)   bands (ev):

    -6.3637   0.4603   3.0759   4.2679

          k =-0.0833 0.7500 0.0833 (   847 PWs)   bands (ev):

    -5.0672  -1.5685   2.3880   2.6999

          k = 0.7500-0.0833 0.9167 (   850 PWs)   bands (ev):

    -3.9805  -2.8594   1.6142   2.3255

          k = 0.5833 0.0833 0.7500 (   848 PWs)   bands (ev):

    -4.3732  -2.4466   1.1351   2.8667

          k = 0.4167 0.2500 0.5833 (   847 PWs)   bands (ev):

    -5.3081  -1.7348   2.5274   3.7049

          k =-0.0833-0.9167 0.0833 (   836 PWs)   bands (ev):

    -4.0405  -2.8572   2.1204   2.4711

          k =-0.2500-0.7500-0.0833 (   849 PWs)   bands (ev):

    -4.9262  -1.7612   1.8843   2.6732

          k =-0.0833-0.5833 0.0833 (   846 PWs)   bands (ev):

    -5.9167  -0.2095   2.9181   3.1484

          k =-0.2500 0.2500 0.2500 (   854 PWs)   bands (ev):

    -6.5829   0.6802   4.5528   4.5528

          k =-0.4167 0.4167 0.0833 (   849 PWs)   bands (ev):

    -5.9634  -0.4162   2.3396   4.3488

          k = 0.4167-0.4167 0.9167 (   849 PWs)   bands (ev):

    -4.9103  -1.8962   1.2994   3.5404

          k = 0.2500-0.2500 0.7500 (   845 PWs)   bands (ev):

    -4.8510  -1.9800   1.7212   3.0550

          k =-0.2500 0.5833 0.2500 (   847 PWs)   bands (ev):

    -5.5813  -1.1582   2.6668   3.4432

          k = 0.5833-0.2500 1.0833 (   850 PWs)   bands (ev):

    -4.6735  -2.0913   1.4106   2.6928

          k = 0.4167-0.0833 0.9167 (   850 PWs)   bands (ev):

    -3.9144  -2.8679   1.3146   2.0574

          k =-0.2500-1.0833 0.2500 (   844 PWs)   bands (ev):

    -4.1169  -2.7208   1.1907   2.8524

          k =-0.4167 0.4167 0.4167 (   847 PWs)   bands (ev):

    -5.5308  -1.7287   4.1002   4.1002

          k = 0.4167-0.4167 1.2500 (   845 PWs)   bands (ev):

    -4.9967  -2.1174   2.1246   3.6636

     highest occupied level (ev):     5.2518

!    total energy              =     -15.98612718 Ry
     estimated scf accuracy    <          3.1E-10 Ry

     The total energy is the sum of the following terms:
     one-electron contribution =       3.62605691 Ry
     hartree contribution      =       1.16821809 Ry
     xc contribution           =      -4.67035192 Ry
     ewald contribution        =     -16.11005026 Ry

     convergence has been achieved in   7 iterations

     Writing all to output data dir ./tmp/Ge.save/

     init_run     :      0.65s CPU      0.60s WALL (       1 calls)
     electrons    :      1.68s CPU      1.57s WALL (       1 calls)

     Called by init_run:
     wfcinit      :      0.44s CPU      0.40s WALL (       1 calls)
     potinit      :      0.00s CPU      0.00s WALL (       1 calls)
     hinit0       :      0.20s CPU      0.18s WALL (       1 calls)

     Called by electrons:
     c_bands      :      1.43s CPU      1.33s WALL (       8 calls)
     sum_band     :      0.23s CPU      0.21s WALL (       8 calls)
     v_of_rho     :      0.02s CPU      0.01s WALL (       8 calls)
     mix_rho      :      0.01s CPU      0.00s WALL (       8 calls)

     Called by c_bands:
     init_us_2    :      0.11s CPU      0.10s WALL (     476 calls)
     init_us_2:cp :      0.10s CPU      0.10s WALL (     476 calls)
     cegterg      :      1.27s CPU      1.19s WALL (     224 calls)

     Called by *egterg:
     cdiaghg      :      0.03s CPU      0.02s WALL (     709 calls)
     h_psi        :      1.49s CPU      1.39s WALL (     765 calls)
     g_psi        :      0.01s CPU      0.01s WALL (     513 calls)

     Called by h_psi:
     h_psi:calbec :      0.14s CPU      0.13s WALL (     765 calls)
     vloc_psi     :      1.21s CPU      1.13s WALL (     765 calls)
     add_vuspsi   :      0.13s CPU      0.12s WALL (     765 calls)

     General routines
     calbec       :      0.14s CPU      0.13s WALL (     765 calls)
     fft          :      0.14s CPU      0.13s WALL (      24 calls)
     ffts         :      0.00s CPU      0.00s WALL (       8 calls)
     fftw         :      1.11s CPU      1.03s WALL (    6832 calls)

     Parallel routines

     PWSCF        :      2.36s CPU      2.20s WALL


   This run was terminated on:  22: 0:52  25Mar2026            

=------------------------------------------------------------------------------=
   JOB DONE.
=------------------------------------------------------------------------------=
Note: The following floating-point exceptions are signalling: IEEE_UNDERFLOW_FLAG
