
     Program PWSCF v.7.2 starts on 25Mar2026 at 22: 1: 8 

     This program is part of the open-source Quantum ESPRESSO suite
     for quantum simulation of materials; please cite
         "P. Giannozzi et al., J. Phys.:Condens. Matter 21 395502 (2009);
         "P. Giannozzi et al., J. Phys.:Condens. Matter 29 465901 (2017);
         "P. Giannozzi et al., J. Chem. Phys. 152 154105 (2020);
          URL http://www.quantum-espresso.org", 
     in publications or presentations arising from this work. More details at
     http://www.quantum-espresso.org/quote

     Parallel version (MPI), running on     1 processors

     MPI processes distributed on     1 nodes
     4563 MiB available memory on the printing compute node when the environment starts

     Reading input from scf_k12.in

     Current dimensions of program PWSCF are:
     Max number of different atomic species (ntypx) = 10
     Max number of k-points (npk) =  40000
     Max angular momentum in pseudopotentials (lmaxx) =  4

     Subspace diagonalization in iterative solution of the eigenvalue problem:
     a serial algorithm will be used


     G-vector sticks info
     --------------------
     sticks:   dense  smooth     PW     G-vecs:    dense   smooth      PW
     Sum         475     475    163                 6855     6855    1363

     Using Slab Decomposition



     bravais-lattice index     =            2
     lattice parameter (alat)  =      10.7000  a.u.
     unit-cell volume          =     306.2607 (a.u.)^3
     number of atoms/cell      =            2
     number of atomic types    =            1
     number of electrons       =         8.00
     number of Kohn-Sham states=            4
     kinetic-energy cutoff     =      30.0000  Ry
     charge density cutoff     =     120.0000  Ry
     scf convergence threshold =      1.0E-08
     mixing beta               =       0.7000
     number of iterations used =            8  plain     mixing
     Exchange-correlation= SLA-PZ-NOGX-NOGC
                           (   1   1   0   0   0   0   0)

     celldm(1)=  10.700000  celldm(2)=   0.000000  celldm(3)=   0.000000
     celldm(4)=   0.000000  celldm(5)=   0.000000  celldm(6)=   0.000000

     crystal axes: (cart. coord. in units of alat)
               a(1) = (  -0.500000   0.000000   0.500000 )  
               a(2) = (   0.000000   0.500000   0.500000 )  
               a(3) = (  -0.500000   0.500000   0.000000 )  

     reciprocal axes: (cart. coord. in units 2 pi/alat)
               b(1) = ( -1.000000 -1.000000  1.000000 )  
               b(2) = (  1.000000  1.000000  1.000000 )  
               b(3) = ( -1.000000  1.000000 -1.000000 )  


     PseudoPot. # 1 for Ge read from file:
     ../../pseudo/Ge.pz-hgh.UPF
     MD5 check sum: 4f4dbf79373ba026d545ed2bc1c74a27
     Pseudo is Norm-conserving, Zval =  4.0
     Generated in analytical, separable form
     Using radial grid of 1207 points,  6 beta functions with: 
                l(1) =   0
                l(2) =   0
                l(3) =   0
                l(4) =   1
                l(5) =   1
                l(6) =   2

     atomic species   valence    mass     pseudopotential
        Ge             4.00    72.63000     Ge( 1.00)

     48 Sym. Ops., with inversion, found (24 have fractional translation)



   Cartesian axes

     site n.     atom                  positions (alat units)
         1           Ge  tau(   1) = (   0.0000000   0.0000000   0.0000000  )
         2           Ge  tau(   2) = (   0.2500000   0.2500000   0.2500000  )

     number of k points=   182

     Number of k-points >= 100: set verbosity='high' to print them.

     Dense  grid:     6855 G-vectors     FFT dimensions: (  32,  32,  32)

     Estimated max dynamical RAM per process >      16.31 MB

     Initial potential from superposition of free atoms

     starting charge       6.0000, renormalised to       8.0000
     Starting wfcs are   18 randomized atomic wfcs

     total cpu time spent up to now is        2.5 secs

     Self-consistent Calculation

     iteration #  1     ecut=    30.00 Ry     beta= 0.70
     Davidson diagonalization with overlap
     ethr =  1.00E-02,  avg # of iterations =  1.0

     Threshold (ethr) on eigenvalues was too large:
     Diagonalizing with lowered threshold

     Davidson diagonalization with overlap
     ethr =  9.48E-04,  avg # of iterations =  1.0

     total cpu time spent up to now is        5.1 secs

     total energy              =     -15.98244136 Ry
     estimated scf accuracy    <       0.07626109 Ry

     iteration #  2     ecut=    30.00 Ry     beta= 0.70
     Davidson diagonalization with overlap
     ethr =  9.53E-04,  avg # of iterations =  1.0

     total cpu time spent up to now is        6.4 secs

     total energy              =     -15.98580771 Ry
     estimated scf accuracy    <       0.00342850 Ry

     iteration #  3     ecut=    30.00 Ry     beta= 0.70
     Davidson diagonalization with overlap
     ethr =  4.29E-05,  avg # of iterations =  2.1

     total cpu time spent up to now is        7.8 secs

     total energy              =     -15.98616931 Ry
     estimated scf accuracy    <       0.00010242 Ry

     iteration #  4     ecut=    30.00 Ry     beta= 0.70
     Davidson diagonalization with overlap
     ethr =  1.28E-06,  avg # of iterations =  3.0

     total cpu time spent up to now is        9.5 secs

     total energy              =     -15.98620333 Ry
     estimated scf accuracy    <       0.00000051 Ry

     iteration #  5     ecut=    30.00 Ry     beta= 0.70
     Davidson diagonalization with overlap
     ethr =  6.36E-09,  avg # of iterations =  6.1

     total cpu time spent up to now is       12.2 secs

     total energy              =     -15.98620555 Ry
     estimated scf accuracy    <       0.00000011 Ry

     iteration #  6     ecut=    30.00 Ry     beta= 0.70
     Davidson diagonalization with overlap
     ethr =  1.37E-09,  avg # of iterations =  2.2

     total cpu time spent up to now is       13.8 secs

     total energy              =     -15.98620554 Ry
     estimated scf accuracy    <       0.00000013 Ry

     iteration #  7     ecut=    30.00 Ry     beta= 0.70
     Davidson diagonalization with overlap
     ethr =  1.37E-09,  avg # of iterations =  1.8

     total cpu time spent up to now is       15.0 secs

     End of self-consistent calculation

     Number of k-points >= 100: set verbosity='high' to print the bands.

     highest occupied level (ev):     5.3697

!    total energy              =     -15.98620555 Ry
     estimated scf accuracy    <          5.2E-10 Ry

     The total energy is the sum of the following terms:
     one-electron contribution =       3.62612238 Ry
     hartree contribution      =       1.16796643 Ry
     xc contribution           =      -4.67024409 Ry
     ewald contribution        =     -16.11005026 Ry

     convergence has been achieved in   7 iterations

     Writing all to output data dir ./tmp/Ge.save/

     init_run     :      2.53s CPU      2.46s WALL (       1 calls)
     electrons    :     11.60s CPU     12.56s WALL (       1 calls)

     Called by init_run:
     wfcinit      :      2.29s CPU      2.22s WALL (       1 calls)
     potinit      :      0.01s CPU      0.00s WALL (       1 calls)
     hinit0       :      0.22s CPU      0.22s WALL (       1 calls)

     Called by electrons:
     c_bands      :     10.10s CPU     10.94s WALL (       8 calls)
     sum_band     :      1.48s CPU      1.60s WALL (       8 calls)
     v_of_rho     :      0.01s CPU      0.01s WALL (       8 calls)
     mix_rho      :      0.01s CPU      0.01s WALL (       8 calls)

     Called by c_bands:
     init_us_2    :      0.72s CPU      0.77s WALL (    3094 calls)
     init_us_2:cp :      0.71s CPU      0.77s WALL (    3094 calls)
     cegterg      :      9.01s CPU      9.75s WALL (    1456 calls)

     Called by *egterg:
     cdiaghg      :      0.18s CPU      0.19s WALL (    4595 calls)
     h_psi        :      9.76s CPU     10.37s WALL (    4959 calls)
     g_psi        :      0.05s CPU      0.06s WALL (    3321 calls)

     Called by h_psi:
     h_psi:calbec :      0.94s CPU      1.00s WALL (    4959 calls)
     vloc_psi     :      7.87s CPU      8.35s WALL (    4959 calls)
     add_vuspsi   :      0.87s CPU      0.93s WALL (    4959 calls)

     General routines
     calbec       :      0.93s CPU      0.99s WALL (    4959 calls)
     fft          :      0.14s CPU      0.14s WALL (      24 calls)
     ffts         :      0.00s CPU      0.00s WALL (       8 calls)
     fftw         :      7.13s CPU      7.58s WALL (   44510 calls)

     Parallel routines

     PWSCF        :     14.19s CPU     15.08s WALL


   This run was terminated on:  22: 1:23  25Mar2026            

=------------------------------------------------------------------------------=
   JOB DONE.
=------------------------------------------------------------------------------=
Note: The following floating-point exceptions are signalling: IEEE_UNDERFLOW_FLAG
