
     Program PWSCF v.7.2 starts on 25Mar2026 at 21:58:28 

     This program is part of the open-source Quantum ESPRESSO suite
     for quantum simulation of materials; please cite
         "P. Giannozzi et al., J. Phys.:Condens. Matter 21 395502 (2009);
         "P. Giannozzi et al., J. Phys.:Condens. Matter 29 465901 (2017);
         "P. Giannozzi et al., J. Chem. Phys. 152 154105 (2020);
          URL http://www.quantum-espresso.org", 
     in publications or presentations arising from this work. More details at
     http://www.quantum-espresso.org/quote

     Parallel version (MPI), running on     1 processors

     MPI processes distributed on     1 nodes
     4624 MiB available memory on the printing compute node when the environment starts

     Reading input from scf_e040.in

     Current dimensions of program PWSCF are:
     Max number of different atomic species (ntypx) = 10
     Max number of k-points (npk) =  40000
     Max angular momentum in pseudopotentials (lmaxx) =  4

     Subspace diagonalization in iterative solution of the eigenvalue problem:
     a serial algorithm will be used


     G-vector sticks info
     --------------------
     sticks:   dense  smooth     PW     G-vecs:    dense   smooth      PW
     Sum         583     583    187                 9185     9185    1687

     Using Slab Decomposition



     bravais-lattice index     =            2
     lattice parameter (alat)  =      10.2000  a.u.
     unit-cell volume          =     265.3020 (a.u.)^3
     number of atoms/cell      =            2
     number of atomic types    =            1
     number of electrons       =         8.00
     number of Kohn-Sham states=            4
     kinetic-energy cutoff     =      40.0000  Ry
     charge density cutoff     =     160.0000  Ry
     scf convergence threshold =      1.0E-08
     mixing beta               =       0.7000
     number of iterations used =            8  plain     mixing
     Exchange-correlation= SLA  PZ   NOGX NOGC
                           (   1   1   0   0   0   0   0)

     celldm(1)=  10.200000  celldm(2)=   0.000000  celldm(3)=   0.000000
     celldm(4)=   0.000000  celldm(5)=   0.000000  celldm(6)=   0.000000

     crystal axes: (cart. coord. in units of alat)
               a(1) = (  -0.500000   0.000000   0.500000 )  
               a(2) = (   0.000000   0.500000   0.500000 )  
               a(3) = (  -0.500000   0.500000   0.000000 )  

     reciprocal axes: (cart. coord. in units 2 pi/alat)
               b(1) = ( -1.000000 -1.000000  1.000000 )  
               b(2) = (  1.000000  1.000000  1.000000 )  
               b(3) = ( -1.000000  1.000000 -1.000000 )  


     PseudoPot. # 1 for Si read from file:
     ../../pseudo/Si.pz-vbc.UPF
     MD5 check sum: 9f25e6ff280f3123e9b3a84715b2e9c9
     Pseudo is Norm-conserving, Zval =  4.0
     Generated by new atomic code, or converted to UPF format
     Using radial grid of  431 points,  2 beta functions with: 
                l(1) =   0
                l(2) =   1

     atomic species   valence    mass     pseudopotential
        Si             4.00    28.08600     Si( 1.00)

     48 Sym. Ops., with inversion, found (24 have fractional translation)



   Cartesian axes

     site n.     atom                  positions (alat units)
         1           Si  tau(   1) = (   0.0000000   0.0000000   0.0000000  )
         2           Si  tau(   2) = (   0.2500000   0.2500000   0.2500000  )

     number of k points=    60
                       cart. coord. in units 2pi/alat
        k(    1) = (  -0.0625000   0.0625000   0.0625000), wk =   0.0078125
        k(    2) = (  -0.1875000   0.1875000  -0.0625000), wk =   0.0234375
        k(    3) = (  -0.3125000   0.3125000  -0.1875000), wk =   0.0234375
        k(    4) = (  -0.4375000   0.4375000  -0.3125000), wk =   0.0234375
        k(    5) = (   0.4375000  -0.4375000   0.5625000), wk =   0.0234375
        k(    6) = (   0.3125000  -0.3125000   0.4375000), wk =   0.0234375
        k(    7) = (   0.1875000  -0.1875000   0.3125000), wk =   0.0234375
        k(    8) = (   0.0625000  -0.0625000   0.1875000), wk =   0.0234375
        k(    9) = (  -0.0625000   0.3125000   0.0625000), wk =   0.0234375
        k(   10) = (  -0.1875000   0.4375000  -0.0625000), wk =   0.0468750
        k(   11) = (  -0.3125000   0.5625000  -0.1875000), wk =   0.0468750
        k(   12) = (   0.5625000  -0.3125000   0.6875000), wk =   0.0468750
        k(   13) = (   0.4375000  -0.1875000   0.5625000), wk =   0.0468750
        k(   14) = (   0.3125000  -0.0625000   0.4375000), wk =   0.0468750
        k(   15) = (   0.1875000   0.0625000   0.3125000), wk =   0.0468750
        k(   16) = (  -0.0625000   0.5625000   0.0625000), wk =   0.0234375
        k(   17) = (  -0.1875000   0.6875000  -0.0625000), wk =   0.0468750
        k(   18) = (   0.6875000  -0.1875000   0.8125000), wk =   0.0468750
        k(   19) = (   0.5625000  -0.0625000   0.6875000), wk =   0.0468750
        k(   20) = (   0.4375000   0.0625000   0.5625000), wk =   0.0468750
        k(   21) = (   0.3125000   0.1875000   0.4375000), wk =   0.0468750
        k(   22) = (  -0.0625000   0.8125000   0.0625000), wk =   0.0234375
        k(   23) = (   0.8125000  -0.0625000   0.9375000), wk =   0.0468750
        k(   24) = (   0.6875000   0.0625000   0.8125000), wk =   0.0468750
        k(   25) = (   0.5625000   0.1875000   0.6875000), wk =   0.0468750
        k(   26) = (   0.4375000   0.3125000   0.5625000), wk =   0.0468750
        k(   27) = (  -0.0625000  -0.9375000   0.0625000), wk =   0.0234375
        k(   28) = (  -0.1875000  -0.8125000  -0.0625000), wk =   0.0468750
        k(   29) = (  -0.3125000  -0.6875000  -0.1875000), wk =   0.0468750
        k(   30) = (  -0.0625000  -0.6875000   0.0625000), wk =   0.0234375
        k(   31) = (  -0.1875000  -0.5625000  -0.0625000), wk =   0.0468750
        k(   32) = (  -0.0625000  -0.4375000   0.0625000), wk =   0.0234375
        k(   33) = (  -0.1875000   0.1875000   0.1875000), wk =   0.0078125
        k(   34) = (  -0.3125000   0.3125000   0.0625000), wk =   0.0234375
        k(   35) = (  -0.4375000   0.4375000  -0.0625000), wk =   0.0234375
        k(   36) = (   0.4375000  -0.4375000   0.8125000), wk =   0.0234375
        k(   37) = (   0.3125000  -0.3125000   0.6875000), wk =   0.0234375
        k(   38) = (   0.1875000  -0.1875000   0.5625000), wk =   0.0234375
        k(   39) = (  -0.1875000   0.4375000   0.1875000), wk =   0.0234375
        k(   40) = (  -0.3125000   0.5625000   0.0625000), wk =   0.0468750
        k(   41) = (   0.5625000  -0.3125000   0.9375000), wk =   0.0468750
        k(   42) = (   0.4375000  -0.1875000   0.8125000), wk =   0.0468750
        k(   43) = (   0.3125000  -0.0625000   0.6875000), wk =   0.0468750
        k(   44) = (  -0.1875000   0.6875000   0.1875000), wk =   0.0234375
        k(   45) = (   0.6875000  -0.1875000   1.0625000), wk =   0.0468750
        k(   46) = (   0.5625000  -0.0625000   0.9375000), wk =   0.0468750
        k(   47) = (   0.4375000   0.0625000   0.8125000), wk =   0.0468750
        k(   48) = (  -0.1875000  -1.0625000   0.1875000), wk =   0.0234375
        k(   49) = (  -0.3125000  -0.9375000   0.0625000), wk =   0.0468750
        k(   50) = (  -0.1875000  -0.8125000   0.1875000), wk =   0.0234375
        k(   51) = (  -0.3125000   0.3125000   0.3125000), wk =   0.0078125
        k(   52) = (  -0.4375000   0.4375000   0.1875000), wk =   0.0234375
        k(   53) = (   0.4375000  -0.4375000   1.0625000), wk =   0.0234375
        k(   54) = (   0.3125000  -0.3125000   0.9375000), wk =   0.0234375
        k(   55) = (  -0.3125000   0.5625000   0.3125000), wk =   0.0234375
        k(   56) = (   0.5625000  -0.3125000   1.1875000), wk =   0.0468750
        k(   57) = (   0.4375000  -0.1875000   1.0625000), wk =   0.0468750
        k(   58) = (  -0.3125000  -1.1875000   0.3125000), wk =   0.0234375
        k(   59) = (  -0.4375000   0.4375000   0.4375000), wk =   0.0078125
        k(   60) = (   0.4375000  -0.4375000   1.3125000), wk =   0.0234375

     Dense  grid:     9185 G-vectors     FFT dimensions: (  32,  32,  32)

     Estimated max dynamical RAM per process >      10.79 MB

     Initial potential from superposition of free atoms

     starting charge       7.9990, renormalised to       8.0000
     Starting wfcs are    8 randomized atomic wfcs

     total cpu time spent up to now is        0.6 secs

     Self-consistent Calculation

     iteration #  1     ecut=    40.00 Ry     beta= 0.70
     Davidson diagonalization with overlap
     ethr =  1.00E-02,  avg # of iterations =  2.0

     Threshold (ethr) on eigenvalues was too large:
     Diagonalizing with lowered threshold

     Davidson diagonalization with overlap
     ethr =  6.93E-04,  avg # of iterations =  1.1

     total cpu time spent up to now is        1.4 secs

     total energy              =     -15.84945509 Ry
     estimated scf accuracy    <       0.06112285 Ry

     iteration #  2     ecut=    40.00 Ry     beta= 0.70
     Davidson diagonalization with overlap
     ethr =  7.64E-04,  avg # of iterations =  1.0

     total cpu time spent up to now is        1.7 secs

     total energy              =     -15.85272393 Ry
     estimated scf accuracy    <       0.00220359 Ry

     iteration #  3     ecut=    40.00 Ry     beta= 0.70
     Davidson diagonalization with overlap
     ethr =  2.75E-05,  avg # of iterations =  2.5

     total cpu time spent up to now is        2.2 secs

     total energy              =     -15.85322849 Ry
     estimated scf accuracy    <       0.00007475 Ry

     iteration #  4     ecut=    40.00 Ry     beta= 0.70
     Davidson diagonalization with overlap
     ethr =  9.34E-07,  avg # of iterations =  3.1

     total cpu time spent up to now is        2.7 secs

     total energy              =     -15.85326144 Ry
     estimated scf accuracy    <       0.00000245 Ry

     iteration #  5     ecut=    40.00 Ry     beta= 0.70
     Davidson diagonalization with overlap
     ethr =  3.06E-08,  avg # of iterations =  3.8

     total cpu time spent up to now is        3.3 secs

     total energy              =     -15.85326295 Ry
     estimated scf accuracy    <       0.00000008 Ry

     iteration #  6     ecut=    40.00 Ry     beta= 0.70
     Davidson diagonalization with overlap
     ethr =  1.04E-09,  avg # of iterations =  3.4

     total cpu time spent up to now is        3.8 secs

     End of self-consistent calculation

          k =-0.0625 0.0625 0.0625 (  1136 PWs)   bands (ev):

    -5.7706   5.6995   6.1421   6.1421

          k =-0.1875 0.1875-0.0625 (  1146 PWs)   bands (ev):

    -5.4950   4.1881   5.3065   6.0254

          k =-0.3125 0.3125-0.1875 (  1128 PWs)   bands (ev):

    -4.8280   1.9122   4.8129   5.5524

          k =-0.4375 0.4375-0.3125 (  1138 PWs)   bands (ev):

    -3.8888  -0.0328   4.5974   5.1350

          k = 0.4375-0.4375 0.5625 (  1143 PWs)   bands (ev):

    -3.4120  -0.7675   4.6532   4.9087

          k = 0.3125-0.3125 0.4375 (  1134 PWs)   bands (ev):

    -4.2124   0.5453   4.9258   4.9484

          k = 0.1875-0.1875 0.3125 (  1131 PWs)   bands (ev):

    -5.0899   2.6599   5.2052   5.4230

          k = 0.0625-0.0625 0.1875 (  1141 PWs)   bands (ev):

    -5.6321   4.9530   5.6988   5.8748

          k =-0.0625 0.3125 0.0625 (  1145 PWs)   bands (ev):

    -5.3565   4.0697   5.1227   5.2236

          k =-0.1875 0.4375-0.0625 (  1128 PWs)   bands (ev):

    -4.8165   2.5469   4.1211   4.9556

          k =-0.3125 0.5625-0.1875 (  1132 PWs)   bands (ev):

    -3.9414   0.6252   3.6297   4.5252

          k = 0.5625-0.3125 0.6875 (  1134 PWs)   bands (ev):

    -3.1376  -0.6406   3.3380   4.4267

          k = 0.4375-0.1875 0.5625 (  1136 PWs)   bands (ev):

    -3.6232   0.0846   3.2534   4.7246

          k = 0.3125-0.0625 0.4375 (  1131 PWs)   bands (ev):

    -4.5600   1.8772   3.5437   5.2530

          k = 0.1875 0.0625 0.3125 (  1137 PWs)   bands (ev):

    -5.2221   3.3693   4.7102   5.6401

          k =-0.0625 0.5625 0.0625 (  1128 PWs)   bands (ev):

    -4.4052   2.0696   3.9760   4.1037

          k =-0.1875 0.6875-0.0625 (  1132 PWs)   bands (ev):

    -3.6297   0.8078   3.1537   3.7405

          k = 0.6875-0.1875 0.8125 (  1131 PWs)   bands (ev):

    -2.6921  -0.4368   2.2791   3.7084

          k = 0.5625-0.0625 0.6875 (  1133 PWs)   bands (ev):

    -2.7618  -0.3424   1.9048   4.0672

          k = 0.4375 0.0625 0.5625 (  1133 PWs)   bands (ev):

    -3.6956   0.6201   2.5436   4.6770

          k = 0.3125 0.1875 0.4375 (  1130 PWs)   bands (ev):

    -4.4418   1.2295   4.2567   5.1522

          k =-0.0625 0.8125 0.0625 (  1126 PWs)   bands (ev):

    -2.9591  -0.0695   3.2607   3.4936

          k = 0.8125-0.0625 0.9375 (  1134 PWs)   bands (ev):

    -2.0181  -1.0822   2.6687   3.2335

          k = 0.6875 0.0625 0.8125 (  1137 PWs)   bands (ev):

    -2.1007  -0.9232   1.8973   3.5603

          k = 0.5625 0.1875 0.6875 (  1137 PWs)   bands (ev):

    -2.8757  -0.5660   2.5129   4.1851

          k = 0.4375 0.3125 0.5625 (  1135 PWs)   bands (ev):

    -3.5072  -0.4478   4.0873   4.8024

          k =-0.0625-0.9375 0.0625 (  1132 PWs)   bands (ev):

    -2.0754  -1.1035   3.1182   3.3690

          k =-0.1875-0.8125-0.0625 (  1133 PWs)   bands (ev):

    -2.8680  -0.1333   2.8349   3.3978

          k =-0.3125-0.6875-0.1875 (  1134 PWs)   bands (ev):

    -3.3454   0.0830   2.9236   4.0202

          k =-0.0625-0.6875 0.0625 (  1126 PWs)   bands (ev):

    -3.7399   0.9997   3.5464   3.7404

          k =-0.1875-0.5625-0.0625 (  1128 PWs)   bands (ev):

    -4.2831   1.7023   3.5936   4.2738

          k =-0.0625-0.4375 0.0625 (  1132 PWs)   bands (ev):

    -4.9461   3.1031   4.5458   4.5722

          k =-0.1875 0.1875 0.1875 (  1140 PWs)   bands (ev):

    -5.3594   3.4415   5.6888   5.6888

          k =-0.3125 0.3125 0.0625 (  1131 PWs)   bands (ev):

    -4.9552   2.6100   4.1165   5.7152

          k =-0.4375 0.4375-0.0625 (  1131 PWs)   bands (ev):

    -4.1827   1.2251   2.9949   5.1929

          k = 0.4375-0.4375 0.8125 (  1132 PWs)   bands (ev):

    -3.2463  -0.3304   2.8586   4.6419

          k = 0.3125-0.3125 0.6875 (  1131 PWs)   bands (ev):

    -3.2313  -0.3587   3.1752   4.3106

          k = 0.1875-0.1875 0.5625 (  1129 PWs)   bands (ev):

    -4.1669   1.2200   3.8051   4.2824

          k =-0.1875 0.4375 0.1875 (  1128 PWs)   bands (ev):

    -4.6903   1.9217   4.6686   4.7142

          k =-0.3125 0.5625 0.0625 (  1127 PWs)   bands (ev):

    -4.0433   1.1721   3.0537   4.5131

          k = 0.5625-0.3125 0.9375 (  1134 PWs)   bands (ev):

    -3.1171   0.0557   2.2260   3.9143

          k = 0.4375-0.1875 0.8125 (  1136 PWs)   bands (ev):

    -2.6034  -0.5909   2.2414   3.5847

          k = 0.3125-0.0625 0.6875 (  1133 PWs)   bands (ev):

    -3.4166   0.4656   2.6718   3.7741

          k =-0.1875 0.6875 0.1875 (  1123 PWs)   bands (ev):

    -3.5306   0.5127   3.0279   3.9415

          k = 0.6875-0.1875 1.0625 (  1132 PWs)   bands (ev):

    -2.6985  -0.2783   2.4103   3.2100

          k = 0.5625-0.0625 0.9375 (  1136 PWs)   bands (ev):

    -1.8557  -1.0462   2.0662   2.6799

          k = 0.4375 0.0625 0.8125 (  1135 PWs)   bands (ev):

    -2.4794  -0.4967   2.0678   3.1795

          k =-0.1875-1.0625 0.1875 (  1138 PWs)   bands (ev):

    -2.0310  -1.0354   2.1784   3.5887

          k =-0.3125-0.9375 0.0625 (  1138 PWs)   bands (ev):

    -1.9280  -1.0575   2.2768   2.9132

          k =-0.1875-0.8125 0.1875 (  1133 PWs)   bands (ev):

    -2.8004  -0.2473   2.4644   3.7074

          k =-0.3125 0.3125 0.3125 (  1137 PWs)   bands (ev):

    -4.5774   1.1845   5.2673   5.2673

          k =-0.4375 0.4375 0.1875 (  1130 PWs)   bands (ev):

    -4.0801   0.6049   3.7575   5.1792

          k = 0.4375-0.4375 1.0625 (  1133 PWs)   bands (ev):

    -3.2580   0.1084   2.1437   4.5746

          k = 0.3125-0.3125 0.9375 (  1136 PWs)   bands (ev):

    -2.4007  -0.6781   1.7768   4.0073

          k =-0.3125 0.5625 0.3125 (  1125 PWs)   bands (ev):

    -3.7513   0.0252   4.1184   4.5916

          k = 0.5625-0.3125 1.1875 (  1133 PWs)   bands (ev):

    -3.1064  -0.3164   2.7484   4.0874

          k = 0.4375-0.1875 1.0625 (  1136 PWs)   bands (ev):

    -2.2599  -0.7335   1.8721   3.3392

          k =-0.3125-1.1875 0.3125 (  1134 PWs)   bands (ev):

    -2.7312  -0.5919   2.3246   4.1107

          k =-0.4375 0.4375 0.4375 (  1143 PWs)   bands (ev):

    -3.6436  -0.5211   5.0430   5.0430

          k = 0.4375-0.4375 1.3125 (  1138 PWs)   bands (ev):

    -3.2756  -0.6951   3.7879   4.7625

     highest occupied level (ev):     6.1421

!    total energy              =     -15.85326300 Ry
     estimated scf accuracy    <          6.4E-09 Ry

     The total energy is the sum of the following terms:
     one-electron contribution =       4.78484710 Ry
     hartree contribution      =       1.07856998 Ry
     xc contribution           =      -4.81692149 Ry
     ewald contribution        =     -16.89975860 Ry

     convergence has been achieved in   6 iterations

     Writing all to output data dir ./tmp_e40/Si.save/

     init_run     :      0.59s CPU      0.60s WALL (       1 calls)
     electrons    :      3.17s CPU      3.22s WALL (       1 calls)

     Called by init_run:
     wfcinit      :      0.42s CPU      0.42s WALL (       1 calls)
     potinit      :      0.01s CPU      0.01s WALL (       1 calls)
     hinit0       :      0.16s CPU      0.16s WALL (       1 calls)

     Called by electrons:
     c_bands      :      2.73s CPU      2.77s WALL (       7 calls)
     sum_band     :      0.42s CPU      0.43s WALL (       7 calls)
     v_of_rho     :      0.01s CPU      0.01s WALL (       7 calls)
     mix_rho      :      0.01s CPU      0.01s WALL (       7 calls)

     Called by c_bands:
     init_us_2    :      0.12s CPU      0.13s WALL (     900 calls)
     init_us_2:cp :      0.12s CPU      0.12s WALL (     900 calls)
     cegterg      :      2.62s CPU      2.66s WALL (     420 calls)

     Called by *egterg:
     cdiaghg      :      0.05s CPU      0.05s WALL (    1370 calls)
     h_psi        :      2.58s CPU      2.61s WALL (    1490 calls)
     g_psi        :      0.02s CPU      0.02s WALL (    1010 calls)

     Called by h_psi:
     h_psi:calbec :      0.10s CPU      0.11s WALL (    1490 calls)
     vloc_psi     :      2.37s CPU      2.39s WALL (    1490 calls)
     add_vuspsi   :      0.09s CPU      0.09s WALL (    1490 calls)

     General routines
     calbec       :      0.10s CPU      0.10s WALL (    1490 calls)
     fft          :      0.15s CPU      0.15s WALL (      21 calls)
     ffts         :      0.00s CPU      0.00s WALL (       7 calls)
     fftw         :      2.19s CPU      2.22s WALL (   12436 calls)

     Parallel routines

     PWSCF        :      3.77s CPU      3.85s WALL


   This run was terminated on:  21:58:32  25Mar2026            

=------------------------------------------------------------------------------=
   JOB DONE.
=------------------------------------------------------------------------------=
