
     Program PWSCF v.7.2 starts on 25Mar2026 at 21:58:33 

     This program is part of the open-source Quantum ESPRESSO suite
     for quantum simulation of materials; please cite
         "P. Giannozzi et al., J. Phys.:Condens. Matter 21 395502 (2009);
         "P. Giannozzi et al., J. Phys.:Condens. Matter 29 465901 (2017);
         "P. Giannozzi et al., J. Chem. Phys. 152 154105 (2020);
          URL http://www.quantum-espresso.org", 
     in publications or presentations arising from this work. More details at
     http://www.quantum-espresso.org/quote

     Parallel version (MPI), running on     1 processors

     MPI processes distributed on     1 nodes
     4625 MiB available memory on the printing compute node when the environment starts

     Reading input from scf_e050.in

     Current dimensions of program PWSCF are:
     Max number of different atomic species (ntypx) = 10
     Max number of k-points (npk) =  40000
     Max angular momentum in pseudopotentials (lmaxx) =  4

     Subspace diagonalization in iterative solution of the eigenvalue problem:
     a serial algorithm will be used


     G-vector sticks info
     --------------------
     sticks:   dense  smooth     PW     G-vecs:    dense   smooth      PW
     Sum         721     721    223                12627    12627    2229

     Using Slab Decomposition



     bravais-lattice index     =            2
     lattice parameter (alat)  =      10.2000  a.u.
     unit-cell volume          =     265.3020 (a.u.)^3
     number of atoms/cell      =            2
     number of atomic types    =            1
     number of electrons       =         8.00
     number of Kohn-Sham states=            4
     kinetic-energy cutoff     =      50.0000  Ry
     charge density cutoff     =     200.0000  Ry
     scf convergence threshold =      1.0E-08
     mixing beta               =       0.7000
     number of iterations used =            8  plain     mixing
     Exchange-correlation= SLA  PZ   NOGX NOGC
                           (   1   1   0   0   0   0   0)

     celldm(1)=  10.200000  celldm(2)=   0.000000  celldm(3)=   0.000000
     celldm(4)=   0.000000  celldm(5)=   0.000000  celldm(6)=   0.000000

     crystal axes: (cart. coord. in units of alat)
               a(1) = (  -0.500000   0.000000   0.500000 )  
               a(2) = (   0.000000   0.500000   0.500000 )  
               a(3) = (  -0.500000   0.500000   0.000000 )  

     reciprocal axes: (cart. coord. in units 2 pi/alat)
               b(1) = ( -1.000000 -1.000000  1.000000 )  
               b(2) = (  1.000000  1.000000  1.000000 )  
               b(3) = ( -1.000000  1.000000 -1.000000 )  


     PseudoPot. # 1 for Si read from file:
     ../../pseudo/Si.pz-vbc.UPF
     MD5 check sum: 9f25e6ff280f3123e9b3a84715b2e9c9
     Pseudo is Norm-conserving, Zval =  4.0
     Generated by new atomic code, or converted to UPF format
     Using radial grid of  431 points,  2 beta functions with: 
                l(1) =   0
                l(2) =   1

     atomic species   valence    mass     pseudopotential
        Si             4.00    28.08600     Si( 1.00)

     48 Sym. Ops., with inversion, found (24 have fractional translation)



   Cartesian axes

     site n.     atom                  positions (alat units)
         1           Si  tau(   1) = (   0.0000000   0.0000000   0.0000000  )
         2           Si  tau(   2) = (   0.2500000   0.2500000   0.2500000  )

     number of k points=    60
                       cart. coord. in units 2pi/alat
        k(    1) = (  -0.0625000   0.0625000   0.0625000), wk =   0.0078125
        k(    2) = (  -0.1875000   0.1875000  -0.0625000), wk =   0.0234375
        k(    3) = (  -0.3125000   0.3125000  -0.1875000), wk =   0.0234375
        k(    4) = (  -0.4375000   0.4375000  -0.3125000), wk =   0.0234375
        k(    5) = (   0.4375000  -0.4375000   0.5625000), wk =   0.0234375
        k(    6) = (   0.3125000  -0.3125000   0.4375000), wk =   0.0234375
        k(    7) = (   0.1875000  -0.1875000   0.3125000), wk =   0.0234375
        k(    8) = (   0.0625000  -0.0625000   0.1875000), wk =   0.0234375
        k(    9) = (  -0.0625000   0.3125000   0.0625000), wk =   0.0234375
        k(   10) = (  -0.1875000   0.4375000  -0.0625000), wk =   0.0468750
        k(   11) = (  -0.3125000   0.5625000  -0.1875000), wk =   0.0468750
        k(   12) = (   0.5625000  -0.3125000   0.6875000), wk =   0.0468750
        k(   13) = (   0.4375000  -0.1875000   0.5625000), wk =   0.0468750
        k(   14) = (   0.3125000  -0.0625000   0.4375000), wk =   0.0468750
        k(   15) = (   0.1875000   0.0625000   0.3125000), wk =   0.0468750
        k(   16) = (  -0.0625000   0.5625000   0.0625000), wk =   0.0234375
        k(   17) = (  -0.1875000   0.6875000  -0.0625000), wk =   0.0468750
        k(   18) = (   0.6875000  -0.1875000   0.8125000), wk =   0.0468750
        k(   19) = (   0.5625000  -0.0625000   0.6875000), wk =   0.0468750
        k(   20) = (   0.4375000   0.0625000   0.5625000), wk =   0.0468750
        k(   21) = (   0.3125000   0.1875000   0.4375000), wk =   0.0468750
        k(   22) = (  -0.0625000   0.8125000   0.0625000), wk =   0.0234375
        k(   23) = (   0.8125000  -0.0625000   0.9375000), wk =   0.0468750
        k(   24) = (   0.6875000   0.0625000   0.8125000), wk =   0.0468750
        k(   25) = (   0.5625000   0.1875000   0.6875000), wk =   0.0468750
        k(   26) = (   0.4375000   0.3125000   0.5625000), wk =   0.0468750
        k(   27) = (  -0.0625000  -0.9375000   0.0625000), wk =   0.0234375
        k(   28) = (  -0.1875000  -0.8125000  -0.0625000), wk =   0.0468750
        k(   29) = (  -0.3125000  -0.6875000  -0.1875000), wk =   0.0468750
        k(   30) = (  -0.0625000  -0.6875000   0.0625000), wk =   0.0234375
        k(   31) = (  -0.1875000  -0.5625000  -0.0625000), wk =   0.0468750
        k(   32) = (  -0.0625000  -0.4375000   0.0625000), wk =   0.0234375
        k(   33) = (  -0.1875000   0.1875000   0.1875000), wk =   0.0078125
        k(   34) = (  -0.3125000   0.3125000   0.0625000), wk =   0.0234375
        k(   35) = (  -0.4375000   0.4375000  -0.0625000), wk =   0.0234375
        k(   36) = (   0.4375000  -0.4375000   0.8125000), wk =   0.0234375
        k(   37) = (   0.3125000  -0.3125000   0.6875000), wk =   0.0234375
        k(   38) = (   0.1875000  -0.1875000   0.5625000), wk =   0.0234375
        k(   39) = (  -0.1875000   0.4375000   0.1875000), wk =   0.0234375
        k(   40) = (  -0.3125000   0.5625000   0.0625000), wk =   0.0468750
        k(   41) = (   0.5625000  -0.3125000   0.9375000), wk =   0.0468750
        k(   42) = (   0.4375000  -0.1875000   0.8125000), wk =   0.0468750
        k(   43) = (   0.3125000  -0.0625000   0.6875000), wk =   0.0468750
        k(   44) = (  -0.1875000   0.6875000   0.1875000), wk =   0.0234375
        k(   45) = (   0.6875000  -0.1875000   1.0625000), wk =   0.0468750
        k(   46) = (   0.5625000  -0.0625000   0.9375000), wk =   0.0468750
        k(   47) = (   0.4375000   0.0625000   0.8125000), wk =   0.0468750
        k(   48) = (  -0.1875000  -1.0625000   0.1875000), wk =   0.0234375
        k(   49) = (  -0.3125000  -0.9375000   0.0625000), wk =   0.0468750
        k(   50) = (  -0.1875000  -0.8125000   0.1875000), wk =   0.0234375
        k(   51) = (  -0.3125000   0.3125000   0.3125000), wk =   0.0078125
        k(   52) = (  -0.4375000   0.4375000   0.1875000), wk =   0.0234375
        k(   53) = (   0.4375000  -0.4375000   1.0625000), wk =   0.0234375
        k(   54) = (   0.3125000  -0.3125000   0.9375000), wk =   0.0234375
        k(   55) = (  -0.3125000   0.5625000   0.3125000), wk =   0.0234375
        k(   56) = (   0.5625000  -0.3125000   1.1875000), wk =   0.0468750
        k(   57) = (   0.4375000  -0.1875000   1.0625000), wk =   0.0468750
        k(   58) = (  -0.3125000  -1.1875000   0.3125000), wk =   0.0234375
        k(   59) = (  -0.4375000   0.4375000   0.4375000), wk =   0.0078125
        k(   60) = (   0.4375000  -0.4375000   1.3125000), wk =   0.0234375

     Dense  grid:    12627 G-vectors     FFT dimensions: (  36,  36,  36)

     Estimated max dynamical RAM per process >      15.03 MB

     Initial potential from superposition of free atoms

     starting charge       7.9990, renormalised to       8.0000
     Starting wfcs are    8 randomized atomic wfcs

     total cpu time spent up to now is        0.9 secs

     Self-consistent Calculation

     iteration #  1     ecut=    50.00 Ry     beta= 0.70
     Davidson diagonalization with overlap
     ethr =  1.00E-02,  avg # of iterations =  2.0

     Threshold (ethr) on eigenvalues was too large:
     Diagonalizing with lowered threshold

     Davidson diagonalization with overlap
     ethr =  6.93E-04,  avg # of iterations =  1.1

     total cpu time spent up to now is        2.2 secs

     total energy              =     -15.84976759 Ry
     estimated scf accuracy    <       0.06106510 Ry

     iteration #  2     ecut=    50.00 Ry     beta= 0.70
     Davidson diagonalization with overlap
     ethr =  7.63E-04,  avg # of iterations =  1.0

     total cpu time spent up to now is        2.8 secs

     total energy              =     -15.85303291 Ry
     estimated scf accuracy    <       0.00220615 Ry

     iteration #  3     ecut=    50.00 Ry     beta= 0.70
     Davidson diagonalization with overlap
     ethr =  2.76E-05,  avg # of iterations =  2.5

     total cpu time spent up to now is        3.5 secs

     total energy              =     -15.85354240 Ry
     estimated scf accuracy    <       0.00007481 Ry

     iteration #  4     ecut=    50.00 Ry     beta= 0.70
     Davidson diagonalization with overlap
     ethr =  9.35E-07,  avg # of iterations =  3.1

     total cpu time spent up to now is        4.4 secs

     total energy              =     -15.85357588 Ry
     estimated scf accuracy    <       0.00000258 Ry

     iteration #  5     ecut=    50.00 Ry     beta= 0.70
     Davidson diagonalization with overlap
     ethr =  3.22E-08,  avg # of iterations =  3.7

     total cpu time spent up to now is        5.3 secs

     total energy              =     -15.85357754 Ry
     estimated scf accuracy    <       0.00000008 Ry

     iteration #  6     ecut=    50.00 Ry     beta= 0.70
     Davidson diagonalization with overlap
     ethr =  1.05E-09,  avg # of iterations =  3.5

     total cpu time spent up to now is        6.3 secs

     End of self-consistent calculation

          k =-0.0625 0.0625 0.0625 (  1570 PWs)   bands (ev):

    -5.7710   5.6993   6.1421   6.1421

          k =-0.1875 0.1875-0.0625 (  1565 PWs)   bands (ev):

    -5.4954   4.1876   5.3065   6.0255

          k =-0.3125 0.3125-0.1875 (  1584 PWs)   bands (ev):

    -4.8286   1.9116   4.8128   5.5525

          k =-0.4375 0.4375-0.3125 (  1586 PWs)   bands (ev):

    -3.8895  -0.0333   4.5974   5.1351

          k = 0.4375-0.4375 0.5625 (  1574 PWs)   bands (ev):

    -3.4127  -0.7679   4.6531   4.9088

          k = 0.3125-0.3125 0.4375 (  1591 PWs)   bands (ev):

    -4.2130   0.5447   4.9259   4.9483

          k = 0.1875-0.1875 0.3125 (  1572 PWs)   bands (ev):

    -5.0904   2.6592   5.2053   5.4229

          k = 0.0625-0.0625 0.1875 (  1566 PWs)   bands (ev):

    -5.6326   4.9525   5.6988   5.8747

          k =-0.0625 0.3125 0.0625 (  1571 PWs)   bands (ev):

    -5.3569   4.0690   5.1227   5.2234

          k =-0.1875 0.4375-0.0625 (  1576 PWs)   bands (ev):

    -4.8170   2.5460   4.1210   4.9555

          k =-0.3125 0.5625-0.1875 (  1584 PWs)   bands (ev):

    -3.9421   0.6246   3.6295   4.5253

          k = 0.5625-0.3125 0.6875 (  1578 PWs)   bands (ev):

    -3.1383  -0.6411   3.3377   4.4268

          k = 0.4375-0.1875 0.5625 (  1582 PWs)   bands (ev):

    -3.6239   0.0840   3.2531   4.7247

          k = 0.3125-0.0625 0.4375 (  1579 PWs)   bands (ev):

    -4.5606   1.8764   3.5436   5.2530

          k = 0.1875 0.0625 0.3125 (  1574 PWs)   bands (ev):

    -5.2226   3.3685   4.7101   5.6401

          k =-0.0625 0.5625 0.0625 (  1587 PWs)   bands (ev):

    -4.4058   2.0685   3.9761   4.1037

          k =-0.1875 0.6875-0.0625 (  1594 PWs)   bands (ev):

    -3.6304   0.8069   3.1537   3.7405

          k = 0.6875-0.1875 0.8125 (  1586 PWs)   bands (ev):

    -2.6928  -0.4375   2.2790   3.7085

          k = 0.5625-0.0625 0.6875 (  1581 PWs)   bands (ev):

    -2.7625  -0.3432   1.9047   4.0672

          k = 0.4375 0.0625 0.5625 (  1585 PWs)   bands (ev):

    -3.6962   0.6194   2.5435   4.6771

          k = 0.3125 0.1875 0.4375 (  1583 PWs)   bands (ev):

    -4.4424   1.2288   4.2565   5.1522

          k =-0.0625 0.8125 0.0625 (  1593 PWs)   bands (ev):

    -2.9598  -0.0704   3.2608   3.4937

          k = 0.8125-0.0625 0.9375 (  1594 PWs)   bands (ev):

    -2.0188  -1.0830   2.6687   3.2336

          k = 0.6875 0.0625 0.8125 (  1592 PWs)   bands (ev):

    -2.1015  -0.9240   1.8974   3.5604

          k = 0.5625 0.1875 0.6875 (  1577 PWs)   bands (ev):

    -2.8764  -0.5666   2.5127   4.1852

          k = 0.4375 0.3125 0.5625 (  1583 PWs)   bands (ev):

    -3.5079  -0.4483   4.0870   4.8025

          k =-0.0625-0.9375 0.0625 (  1595 PWs)   bands (ev):

    -2.0761  -1.1043   3.1183   3.3691

          k =-0.1875-0.8125-0.0625 (  1591 PWs)   bands (ev):

    -2.8687  -0.1342   2.8349   3.3979

          k =-0.3125-0.6875-0.1875 (  1588 PWs)   bands (ev):

    -3.3460   0.0823   2.9234   4.0203

          k =-0.0625-0.6875 0.0625 (  1589 PWs)   bands (ev):

    -3.7405   0.9987   3.5465   3.7405

          k =-0.1875-0.5625-0.0625 (  1582 PWs)   bands (ev):

    -4.2837   1.7013   3.5935   4.2738

          k =-0.0625-0.4375 0.0625 (  1578 PWs)   bands (ev):

    -4.9466   3.1021   4.5458   4.5722

          k =-0.1875 0.1875 0.1875 (  1570 PWs)   bands (ev):

    -5.3599   3.4410   5.6889   5.6889

          k =-0.3125 0.3125 0.0625 (  1577 PWs)   bands (ev):

    -4.9558   2.6093   4.1164   5.7153

          k =-0.4375 0.4375-0.0625 (  1572 PWs)   bands (ev):

    -4.1833   1.2243   2.9948   5.1929

          k = 0.4375-0.4375 0.8125 (  1574 PWs)   bands (ev):

    -3.2471  -0.3310   2.8584   4.6420

          k = 0.3125-0.3125 0.6875 (  1581 PWs)   bands (ev):

    -3.2320  -0.3592   3.1749   4.3107

          k = 0.1875-0.1875 0.5625 (  1591 PWs)   bands (ev):

    -4.1676   1.2193   3.8048   4.2825

          k =-0.1875 0.4375 0.1875 (  1583 PWs)   bands (ev):

    -4.6909   1.9210   4.6683   4.7143

          k =-0.3125 0.5625 0.0625 (  1583 PWs)   bands (ev):

    -4.0439   1.1713   3.0536   4.5132

          k = 0.5625-0.3125 0.9375 (  1583 PWs)   bands (ev):

    -3.1178   0.0549   2.2259   3.9143

          k = 0.4375-0.1875 0.8125 (  1583 PWs)   bands (ev):

    -2.6042  -0.5916   2.2412   3.5848

          k = 0.3125-0.0625 0.6875 (  1586 PWs)   bands (ev):

    -3.4172   0.4648   2.6717   3.7741

          k =-0.1875 0.6875 0.1875 (  1586 PWs)   bands (ev):

    -3.5312   0.5119   3.0278   3.9415

          k = 0.6875-0.1875 1.0625 (  1590 PWs)   bands (ev):

    -2.6992  -0.2792   2.4103   3.2100

          k = 0.5625-0.0625 0.9375 (  1592 PWs)   bands (ev):

    -1.8565  -1.0470   2.0663   2.6800

          k = 0.4375 0.0625 0.8125 (  1590 PWs)   bands (ev):

    -2.4801  -0.4975   2.0677   3.1795

          k =-0.1875-1.0625 0.1875 (  1597 PWs)   bands (ev):

    -2.0317  -1.0361   2.1785   3.5888

          k =-0.3125-0.9375 0.0625 (  1596 PWs)   bands (ev):

    -1.9288  -1.0583   2.2768   2.9132

          k =-0.1875-0.8125 0.1875 (  1596 PWs)   bands (ev):

    -2.8010  -0.2482   2.4644   3.7075

          k =-0.3125 0.3125 0.3125 (  1591 PWs)   bands (ev):

    -4.5780   1.1839   5.2674   5.2674

          k =-0.4375 0.4375 0.1875 (  1578 PWs)   bands (ev):

    -4.0808   0.6043   3.7572   5.1793

          k = 0.4375-0.4375 1.0625 (  1580 PWs)   bands (ev):

    -3.2586   0.1076   2.1436   4.5747

          k = 0.3125-0.3125 0.9375 (  1585 PWs)   bands (ev):

    -2.4014  -0.6788   1.7768   4.0074

          k =-0.3125 0.5625 0.3125 (  1589 PWs)   bands (ev):

    -3.7520   0.0247   4.1181   4.5917

          k = 0.5625-0.3125 1.1875 (  1586 PWs)   bands (ev):

    -3.1071  -0.3170   2.7481   4.0875

          k = 0.4375-0.1875 1.0625 (  1587 PWs)   bands (ev):

    -2.2607  -0.7343   1.8721   3.3393

          k =-0.3125-1.1875 0.3125 (  1583 PWs)   bands (ev):

    -2.7320  -0.5925   2.3245   4.1108

          k =-0.4375 0.4375 0.4375 (  1580 PWs)   bands (ev):

    -3.6443  -0.5215   5.0431   5.0431

          k = 0.4375-0.4375 1.3125 (  1579 PWs)   bands (ev):

    -3.2763  -0.6956   3.7876   4.7626

     highest occupied level (ev):     6.1421

!    total energy              =     -15.85357759 Ry
     estimated scf accuracy    <          7.2E-09 Ry

     The total energy is the sum of the following terms:
     one-electron contribution =       4.78439382 Ry
     hartree contribution      =       1.07867340 Ry
     xc contribution           =      -4.81688621 Ry
     ewald contribution        =     -16.89975861 Ry

     convergence has been achieved in   6 iterations

     Writing all to output data dir ./tmp_e50/Si.save/

     init_run     :      0.88s CPU      0.90s WALL (       1 calls)
     electrons    :      5.25s CPU      5.36s WALL (       1 calls)

     Called by init_run:
     wfcinit      :      0.65s CPU      0.66s WALL (       1 calls)
     potinit      :      0.01s CPU      0.01s WALL (       1 calls)
     hinit0       :      0.21s CPU      0.21s WALL (       1 calls)

     Called by electrons:
     c_bands      :      4.52s CPU      4.61s WALL (       7 calls)
     sum_band     :      0.70s CPU      0.72s WALL (       7 calls)
     v_of_rho     :      0.02s CPU      0.02s WALL (       7 calls)
     mix_rho      :      0.01s CPU      0.01s WALL (       7 calls)

     Called by c_bands:
     init_us_2    :      0.17s CPU      0.18s WALL (     900 calls)
     init_us_2:cp :      0.17s CPU      0.17s WALL (     900 calls)
     cegterg      :      4.37s CPU      4.46s WALL (     420 calls)

     Called by *egterg:
     cdiaghg      :      0.06s CPU      0.06s WALL (    1373 calls)
     h_psi        :      4.38s CPU      4.47s WALL (    1493 calls)
     g_psi        :      0.03s CPU      0.03s WALL (    1013 calls)

     Called by h_psi:
     h_psi:calbec :      0.15s CPU      0.15s WALL (    1493 calls)
     vloc_psi     :      4.07s CPU      4.15s WALL (    1493 calls)
     add_vuspsi   :      0.13s CPU      0.13s WALL (    1493 calls)

     General routines
     calbec       :      0.15s CPU      0.15s WALL (    1493 calls)
     fft          :      0.21s CPU      0.21s WALL (      21 calls)
     ffts         :      0.00s CPU      0.00s WALL (       7 calls)
     fftw         :      3.85s CPU      3.93s WALL (   12496 calls)

     Parallel routines

     PWSCF        :      6.16s CPU      6.30s WALL


   This run was terminated on:  21:58:39  25Mar2026            

=------------------------------------------------------------------------------=
   JOB DONE.
=------------------------------------------------------------------------------=
