
     Program PWSCF v.7.2 starts on 25Mar2026 at 21:58:22 

     This program is part of the open-source Quantum ESPRESSO suite
     for quantum simulation of materials; please cite
         "P. Giannozzi et al., J. Phys.:Condens. Matter 21 395502 (2009);
         "P. Giannozzi et al., J. Phys.:Condens. Matter 29 465901 (2017);
         "P. Giannozzi et al., J. Chem. Phys. 152 154105 (2020);
          URL http://www.quantum-espresso.org", 
     in publications or presentations arising from this work. More details at
     http://www.quantum-espresso.org/quote

     Parallel version (MPI), running on     1 processors

     MPI processes distributed on     1 nodes
     4593 MiB available memory on the printing compute node when the environment starts

     Reading input from scf_e020.in

     Current dimensions of program PWSCF are:
     Max number of different atomic species (ntypx) = 10
     Max number of k-points (npk) =  40000
     Max angular momentum in pseudopotentials (lmaxx) =  4

     Subspace diagonalization in iterative solution of the eigenvalue problem:
     a serial algorithm will be used


     G-vector sticks info
     --------------------
     sticks:   dense  smooth     PW     G-vecs:    dense   smooth      PW
     Sum         283     283    109                 3143     3143     701

     Using Slab Decomposition



     bravais-lattice index     =            2
     lattice parameter (alat)  =      10.2000  a.u.
     unit-cell volume          =     265.3020 (a.u.)^3
     number of atoms/cell      =            2
     number of atomic types    =            1
     number of electrons       =         8.00
     number of Kohn-Sham states=            4
     kinetic-energy cutoff     =      20.0000  Ry
     charge density cutoff     =      80.0000  Ry
     scf convergence threshold =      1.0E-08
     mixing beta               =       0.7000
     number of iterations used =            8  plain     mixing
     Exchange-correlation= SLA  PZ   NOGX NOGC
                           (   1   1   0   0   0   0   0)

     celldm(1)=  10.200000  celldm(2)=   0.000000  celldm(3)=   0.000000
     celldm(4)=   0.000000  celldm(5)=   0.000000  celldm(6)=   0.000000

     crystal axes: (cart. coord. in units of alat)
               a(1) = (  -0.500000   0.000000   0.500000 )  
               a(2) = (   0.000000   0.500000   0.500000 )  
               a(3) = (  -0.500000   0.500000   0.000000 )  

     reciprocal axes: (cart. coord. in units 2 pi/alat)
               b(1) = ( -1.000000 -1.000000  1.000000 )  
               b(2) = (  1.000000  1.000000  1.000000 )  
               b(3) = ( -1.000000  1.000000 -1.000000 )  


     PseudoPot. # 1 for Si read from file:
     ../../pseudo/Si.pz-vbc.UPF
     MD5 check sum: 9f25e6ff280f3123e9b3a84715b2e9c9
     Pseudo is Norm-conserving, Zval =  4.0
     Generated by new atomic code, or converted to UPF format
     Using radial grid of  431 points,  2 beta functions with: 
                l(1) =   0
                l(2) =   1

     atomic species   valence    mass     pseudopotential
        Si             4.00    28.08600     Si( 1.00)

     48 Sym. Ops., with inversion, found (24 have fractional translation)



   Cartesian axes

     site n.     atom                  positions (alat units)
         1           Si  tau(   1) = (   0.0000000   0.0000000   0.0000000  )
         2           Si  tau(   2) = (   0.2500000   0.2500000   0.2500000  )

     number of k points=    60
                       cart. coord. in units 2pi/alat
        k(    1) = (  -0.0625000   0.0625000   0.0625000), wk =   0.0078125
        k(    2) = (  -0.1875000   0.1875000  -0.0625000), wk =   0.0234375
        k(    3) = (  -0.3125000   0.3125000  -0.1875000), wk =   0.0234375
        k(    4) = (  -0.4375000   0.4375000  -0.3125000), wk =   0.0234375
        k(    5) = (   0.4375000  -0.4375000   0.5625000), wk =   0.0234375
        k(    6) = (   0.3125000  -0.3125000   0.4375000), wk =   0.0234375
        k(    7) = (   0.1875000  -0.1875000   0.3125000), wk =   0.0234375
        k(    8) = (   0.0625000  -0.0625000   0.1875000), wk =   0.0234375
        k(    9) = (  -0.0625000   0.3125000   0.0625000), wk =   0.0234375
        k(   10) = (  -0.1875000   0.4375000  -0.0625000), wk =   0.0468750
        k(   11) = (  -0.3125000   0.5625000  -0.1875000), wk =   0.0468750
        k(   12) = (   0.5625000  -0.3125000   0.6875000), wk =   0.0468750
        k(   13) = (   0.4375000  -0.1875000   0.5625000), wk =   0.0468750
        k(   14) = (   0.3125000  -0.0625000   0.4375000), wk =   0.0468750
        k(   15) = (   0.1875000   0.0625000   0.3125000), wk =   0.0468750
        k(   16) = (  -0.0625000   0.5625000   0.0625000), wk =   0.0234375
        k(   17) = (  -0.1875000   0.6875000  -0.0625000), wk =   0.0468750
        k(   18) = (   0.6875000  -0.1875000   0.8125000), wk =   0.0468750
        k(   19) = (   0.5625000  -0.0625000   0.6875000), wk =   0.0468750
        k(   20) = (   0.4375000   0.0625000   0.5625000), wk =   0.0468750
        k(   21) = (   0.3125000   0.1875000   0.4375000), wk =   0.0468750
        k(   22) = (  -0.0625000   0.8125000   0.0625000), wk =   0.0234375
        k(   23) = (   0.8125000  -0.0625000   0.9375000), wk =   0.0468750
        k(   24) = (   0.6875000   0.0625000   0.8125000), wk =   0.0468750
        k(   25) = (   0.5625000   0.1875000   0.6875000), wk =   0.0468750
        k(   26) = (   0.4375000   0.3125000   0.5625000), wk =   0.0468750
        k(   27) = (  -0.0625000  -0.9375000   0.0625000), wk =   0.0234375
        k(   28) = (  -0.1875000  -0.8125000  -0.0625000), wk =   0.0468750
        k(   29) = (  -0.3125000  -0.6875000  -0.1875000), wk =   0.0468750
        k(   30) = (  -0.0625000  -0.6875000   0.0625000), wk =   0.0234375
        k(   31) = (  -0.1875000  -0.5625000  -0.0625000), wk =   0.0468750
        k(   32) = (  -0.0625000  -0.4375000   0.0625000), wk =   0.0234375
        k(   33) = (  -0.1875000   0.1875000   0.1875000), wk =   0.0078125
        k(   34) = (  -0.3125000   0.3125000   0.0625000), wk =   0.0234375
        k(   35) = (  -0.4375000   0.4375000  -0.0625000), wk =   0.0234375
        k(   36) = (   0.4375000  -0.4375000   0.8125000), wk =   0.0234375
        k(   37) = (   0.3125000  -0.3125000   0.6875000), wk =   0.0234375
        k(   38) = (   0.1875000  -0.1875000   0.5625000), wk =   0.0234375
        k(   39) = (  -0.1875000   0.4375000   0.1875000), wk =   0.0234375
        k(   40) = (  -0.3125000   0.5625000   0.0625000), wk =   0.0468750
        k(   41) = (   0.5625000  -0.3125000   0.9375000), wk =   0.0468750
        k(   42) = (   0.4375000  -0.1875000   0.8125000), wk =   0.0468750
        k(   43) = (   0.3125000  -0.0625000   0.6875000), wk =   0.0468750
        k(   44) = (  -0.1875000   0.6875000   0.1875000), wk =   0.0234375
        k(   45) = (   0.6875000  -0.1875000   1.0625000), wk =   0.0468750
        k(   46) = (   0.5625000  -0.0625000   0.9375000), wk =   0.0468750
        k(   47) = (   0.4375000   0.0625000   0.8125000), wk =   0.0468750
        k(   48) = (  -0.1875000  -1.0625000   0.1875000), wk =   0.0234375
        k(   49) = (  -0.3125000  -0.9375000   0.0625000), wk =   0.0468750
        k(   50) = (  -0.1875000  -0.8125000   0.1875000), wk =   0.0234375
        k(   51) = (  -0.3125000   0.3125000   0.3125000), wk =   0.0078125
        k(   52) = (  -0.4375000   0.4375000   0.1875000), wk =   0.0234375
        k(   53) = (   0.4375000  -0.4375000   1.0625000), wk =   0.0234375
        k(   54) = (   0.3125000  -0.3125000   0.9375000), wk =   0.0234375
        k(   55) = (  -0.3125000   0.5625000   0.3125000), wk =   0.0234375
        k(   56) = (   0.5625000  -0.3125000   1.1875000), wk =   0.0468750
        k(   57) = (   0.4375000  -0.1875000   1.0625000), wk =   0.0468750
        k(   58) = (  -0.3125000  -1.1875000   0.3125000), wk =   0.0234375
        k(   59) = (  -0.4375000   0.4375000   0.4375000), wk =   0.0078125
        k(   60) = (   0.4375000  -0.4375000   1.3125000), wk =   0.0234375

     Dense  grid:     3143 G-vectors     FFT dimensions: (  24,  24,  24)

     Estimated max dynamical RAM per process >       3.96 MB

     Initial potential from superposition of free atoms

     starting charge       7.9990, renormalised to       8.0000
     Starting wfcs are    8 randomized atomic wfcs

     total cpu time spent up to now is        0.4 secs

     Self-consistent Calculation

     iteration #  1     ecut=    20.00 Ry     beta= 0.70
     Davidson diagonalization with overlap
     ethr =  1.00E-02,  avg # of iterations =  2.0

     Threshold (ethr) on eigenvalues was too large:
     Diagonalizing with lowered threshold

     Davidson diagonalization with overlap
     ethr =  6.92E-04,  avg # of iterations =  1.0

     total cpu time spent up to now is        0.8 secs

     total energy              =     -15.84407919 Ry
     estimated scf accuracy    <       0.06085102 Ry

     iteration #  2     ecut=    20.00 Ry     beta= 0.70
     Davidson diagonalization with overlap
     ethr =  7.61E-04,  avg # of iterations =  1.0

     total cpu time spent up to now is        1.0 secs

     total energy              =     -15.84722086 Ry
     estimated scf accuracy    <       0.00220178 Ry

     iteration #  3     ecut=    20.00 Ry     beta= 0.70
     Davidson diagonalization with overlap
     ethr =  2.75E-05,  avg # of iterations =  2.4

     total cpu time spent up to now is        1.2 secs

     total energy              =     -15.84769660 Ry
     estimated scf accuracy    <       0.00007261 Ry

     iteration #  4     ecut=    20.00 Ry     beta= 0.70
     Davidson diagonalization with overlap
     ethr =  9.08E-07,  avg # of iterations =  3.1

     total cpu time spent up to now is        1.5 secs

     total energy              =     -15.84772347 Ry
     estimated scf accuracy    <       0.00000186 Ry

     iteration #  5     ecut=    20.00 Ry     beta= 0.70
     Davidson diagonalization with overlap
     ethr =  2.32E-08,  avg # of iterations =  3.9

     total cpu time spent up to now is        1.8 secs

     total energy              =     -15.84772468 Ry
     estimated scf accuracy    <       0.00000011 Ry

     iteration #  6     ecut=    20.00 Ry     beta= 0.70
     Davidson diagonalization with overlap
     ethr =  1.42E-09,  avg # of iterations =  2.5

     total cpu time spent up to now is        2.0 secs

     End of self-consistent calculation

          k =-0.0625 0.0625 0.0625 (   405 PWs)   bands (ev):

    -5.7654   5.7151   6.1587   6.1587

          k =-0.1875 0.1875-0.0625 (   391 PWs)   bands (ev):

    -5.4892   4.2001   5.3199   6.0429

          k =-0.3125 0.3125-0.1875 (   396 PWs)   bands (ev):

    -4.8223   1.9205   4.8233   5.5661

          k =-0.4375 0.4375-0.3125 (   403 PWs)   bands (ev):

    -3.8832  -0.0279   4.6072   5.1455

          k = 0.4375-0.4375 0.5625 (   401 PWs)   bands (ev):

    -3.4056  -0.7633   4.6632   4.9182

          k = 0.3125-0.3125 0.4375 (   405 PWs)   bands (ev):

    -4.2071   0.5511   4.9356   4.9590

          k = 0.1875-0.1875 0.3125 (   390 PWs)   bands (ev):

    -5.0839   2.6698   5.2171   5.4370

          k = 0.0625-0.0625 0.1875 (   393 PWs)   bands (ev):

    -5.6263   4.9669   5.7134   5.8914

          k =-0.0625 0.3125 0.0625 (   394 PWs)   bands (ev):

    -5.3508   4.0821   5.1339   5.2376

          k =-0.1875 0.4375-0.0625 (   393 PWs)   bands (ev):

    -4.8106   2.5570   4.1308   4.9674

          k =-0.3125 0.5625-0.1875 (   400 PWs)   bands (ev):

    -3.9358   0.6318   3.6382   4.5344

          k = 0.5625-0.3125 0.6875 (   398 PWs)   bands (ev):

    -3.1312  -0.6356   3.3464   4.4352

          k = 0.4375-0.1875 0.5625 (   400 PWs)   bands (ev):

    -3.6174   0.0904   3.2613   4.7343

          k = 0.3125-0.0625 0.4375 (   399 PWs)   bands (ev):

    -4.5544   1.8853   3.5524   5.2648

          k = 0.1875 0.0625 0.3125 (   392 PWs)   bands (ev):

    -5.2164   3.3801   4.7214   5.6549

          k =-0.0625 0.5625 0.0625 (   405 PWs)   bands (ev):

    -4.3999   2.0791   3.9843   4.1117

          k =-0.1875 0.6875-0.0625 (   405 PWs)   bands (ev):

    -3.6246   0.8158   3.1603   3.7476

          k = 0.6875-0.1875 0.8125 (   404 PWs)   bands (ev):

    -2.6864  -0.4302   2.2846   3.7153

          k = 0.5625-0.0625 0.6875 (   397 PWs)   bands (ev):

    -2.7555  -0.3357   1.9102   4.0750

          k = 0.4375 0.0625 0.5625 (   404 PWs)   bands (ev):

    -3.6903   0.6265   2.5499   4.6865

          k = 0.3125 0.1875 0.4375 (   399 PWs)   bands (ev):

    -4.4360   1.2367   4.2666   5.1634

          k =-0.0625 0.8125 0.0625 (   407 PWs)   bands (ev):

    -2.9541  -0.0623   3.2666   3.4994

          k = 0.8125-0.0625 0.9375 (   407 PWs)   bands (ev):

    -2.0127  -1.0755   2.6740   3.2393

          k = 0.6875 0.0625 0.8125 (   401 PWs)   bands (ev):

    -2.0946  -0.9159   1.9022   3.5665

          k = 0.5625 0.1875 0.6875 (   403 PWs)   bands (ev):

    -2.8699  -0.5603   2.5194   4.1929

          k = 0.4375 0.3125 0.5625 (   398 PWs)   bands (ev):

    -3.5010  -0.4428   4.0969   4.8119

          k =-0.0625-0.9375 0.0625 (   400 PWs)   bands (ev):

    -2.0694  -1.0964   3.1240   3.3750

          k =-0.1875-0.8125-0.0625 (   407 PWs)   bands (ev):

    -2.8629  -0.1262   2.8407   3.4042

          k =-0.3125-0.6875-0.1875 (   402 PWs)   bands (ev):

    -3.3397   0.0894   2.9307   4.0281

          k =-0.0625-0.6875 0.0625 (   403 PWs)   bands (ev):

    -3.7347   1.0084   3.5534   3.7472

          k =-0.1875-0.5625-0.0625 (   402 PWs)   bands (ev):

    -4.2779   1.7110   3.6015   4.2827

          k =-0.0625-0.4375 0.0625 (   398 PWs)   bands (ev):

    -4.9408   3.1143   4.5563   4.5813

          k =-0.1875 0.1875 0.1875 (   387 PWs)   bands (ev):

    -5.3533   3.4521   5.7039   5.7039

          k =-0.3125 0.3125 0.0625 (   390 PWs)   bands (ev):

    -4.9494   2.6199   4.1265   5.7299

          k =-0.4375 0.4375-0.0625 (   402 PWs)   bands (ev):

    -4.1775   1.2322   3.0023   5.2039

          k = 0.4375-0.4375 0.8125 (   404 PWs)   bands (ev):

    -3.2409  -0.3251   2.8657   4.6508

          k = 0.3125-0.3125 0.6875 (   401 PWs)   bands (ev):

    -3.2251  -0.3532   3.1831   4.3186

          k = 0.1875-0.1875 0.5625 (   399 PWs)   bands (ev):

    -4.1613   1.2280   3.8140   4.2913

          k =-0.1875 0.4375 0.1875 (   396 PWs)   bands (ev):

    -4.6848   1.9301   4.6804   4.7241

          k =-0.3125 0.5625 0.0625 (   405 PWs)   bands (ev):

    -4.0383   1.1793   3.0608   4.5227

          k = 0.5625-0.3125 0.9375 (   403 PWs)   bands (ev):

    -3.1117   0.0623   2.2318   3.9223

          k = 0.4375-0.1875 0.8125 (   402 PWs)   bands (ev):

    -2.5977  -0.5844   2.2471   3.5922

          k = 0.3125-0.0625 0.6875 (   406 PWs)   bands (ev):

    -3.4116   0.4726   2.6779   3.7815

          k =-0.1875 0.6875 0.1875 (   402 PWs)   bands (ev):

    -3.5251   0.5199   3.0350   3.9488

          k = 0.6875-0.1875 1.0625 (   403 PWs)   bands (ev):

    -2.6931  -0.2713   2.4159   3.2169

          k = 0.5625-0.0625 0.9375 (   403 PWs)   bands (ev):

    -1.8498  -1.0393   2.0713   2.6860

          k = 0.4375 0.0625 0.8125 (   401 PWs)   bands (ev):

    -2.4737  -0.4895   2.0729   3.1863

          k =-0.1875-1.0625 0.1875 (   405 PWs)   bands (ev):

    -2.0249  -1.0286   2.1836   3.5942

          k =-0.3125-0.9375 0.0625 (   401 PWs)   bands (ev):

    -1.9219  -1.0503   2.2823   2.9192

          k =-0.1875-0.8125 0.1875 (   405 PWs)   bands (ev):

    -2.7949  -0.2404   2.4702   3.7135

          k =-0.3125 0.3125 0.3125 (   401 PWs)   bands (ev):

    -4.5721   1.1911   5.2788   5.2788

          k =-0.4375 0.4375 0.1875 (   400 PWs)   bands (ev):

    -4.0746   0.6111   3.7664   5.1902

          k = 0.4375-0.4375 1.0625 (   403 PWs)   bands (ev):

    -3.2527   0.1147   2.1494   4.5833

          k = 0.3125-0.3125 0.9375 (   400 PWs)   bands (ev):

    -2.3945  -0.6709   1.7818   4.0141

          k =-0.3125 0.5625 0.3125 (   401 PWs)   bands (ev):

    -3.7453   0.0304   4.1280   4.6008

          k = 0.5625-0.3125 1.1875 (   403 PWs)   bands (ev):

    -3.1010  -0.3105   2.7552   4.0957

          k = 0.4375-0.1875 1.0625 (   398 PWs)   bands (ev):

    -2.2538  -0.7261   1.8771   3.3464

          k =-0.3125-1.1875 0.3125 (   400 PWs)   bands (ev):

    -2.7251  -0.5858   2.3310   4.1178

          k =-0.4375 0.4375 0.4375 (   401 PWs)   bands (ev):

    -3.6375  -0.5164   5.0530   5.0530

          k = 0.4375-0.4375 1.3125 (   399 PWs)   bands (ev):

    -3.2692  -0.6905   3.7969   4.7717

     highest occupied level (ev):     6.1587

!    total energy              =     -15.84772470 Ry
     estimated scf accuracy    <          3.1E-10 Ry

     The total energy is the sum of the following terms:
     one-electron contribution =       4.79082144 Ry
     hartree contribution      =       1.07681005 Ry
     xc contribution           =      -4.81559761 Ry
     ewald contribution        =     -16.89975859 Ry

     convergence has been achieved in   6 iterations

     Writing all to output data dir ./tmp_e20/Si.save/

     init_run     :      0.43s CPU      0.43s WALL (       1 calls)
     electrons    :      1.54s CPU      1.57s WALL (       1 calls)

     Called by init_run:
     wfcinit      :      0.26s CPU      0.26s WALL (       1 calls)
     potinit      :      0.00s CPU      0.00s WALL (       1 calls)
     hinit0       :      0.17s CPU      0.17s WALL (       1 calls)

     Called by electrons:
     c_bands      :      1.33s CPU      1.36s WALL (       7 calls)
     sum_band     :      0.20s CPU      0.20s WALL (       7 calls)
     v_of_rho     :      0.01s CPU      0.01s WALL (       7 calls)
     mix_rho      :      0.00s CPU      0.00s WALL (       7 calls)

     Called by c_bands:
     init_us_2    :      0.05s CPU      0.05s WALL (     900 calls)
     init_us_2:cp :      0.05s CPU      0.05s WALL (     900 calls)
     cegterg      :      1.28s CPU      1.31s WALL (     420 calls)

     Called by *egterg:
     cdiaghg      :      0.04s CPU      0.04s WALL (    1318 calls)
     h_psi        :      1.33s CPU      1.36s WALL (    1438 calls)
     g_psi        :      0.01s CPU      0.01s WALL (     958 calls)

     Called by h_psi:
     h_psi:calbec :      0.04s CPU      0.04s WALL (    1438 calls)
     vloc_psi     :      1.24s CPU      1.27s WALL (    1438 calls)
     add_vuspsi   :      0.03s CPU      0.04s WALL (    1438 calls)

     General routines
     calbec       :      0.04s CPU      0.04s WALL (    1438 calls)
     fft          :      0.16s CPU      0.16s WALL (      21 calls)
     ffts         :      0.00s CPU      0.00s WALL (       7 calls)
     fftw         :      1.20s CPU      1.22s WALL (   11972 calls)

     Parallel routines

     PWSCF        :      1.98s CPU      2.03s WALL


   This run was terminated on:  21:58:24  25Mar2026            

=------------------------------------------------------------------------------=
   JOB DONE.
=------------------------------------------------------------------------------=
