
     Program PWSCF v.7.2 starts on 25Mar2026 at 21:58:40 

     This program is part of the open-source Quantum ESPRESSO suite
     for quantum simulation of materials; please cite
         "P. Giannozzi et al., J. Phys.:Condens. Matter 21 395502 (2009);
         "P. Giannozzi et al., J. Phys.:Condens. Matter 29 465901 (2017);
         "P. Giannozzi et al., J. Chem. Phys. 152 154105 (2020);
          URL http://www.quantum-espresso.org", 
     in publications or presentations arising from this work. More details at
     http://www.quantum-espresso.org/quote

     Parallel version (MPI), running on     1 processors

     MPI processes distributed on     1 nodes
     4506 MiB available memory on the printing compute node when the environment starts

     Reading input from scf_e060.in

     Current dimensions of program PWSCF are:
     Max number of different atomic species (ntypx) = 10
     Max number of k-points (npk) =  40000
     Max angular momentum in pseudopotentials (lmaxx) =  4

     Subspace diagonalization in iterative solution of the eigenvalue problem:
     a serial algorithm will be used


     G-vector sticks info
     --------------------
     sticks:   dense  smooth     PW     G-vecs:    dense   smooth      PW
     Sum         859     859    265                16625    16625    2891

     Using Slab Decomposition



     bravais-lattice index     =            2
     lattice parameter (alat)  =      10.2000  a.u.
     unit-cell volume          =     265.3020 (a.u.)^3
     number of atoms/cell      =            2
     number of atomic types    =            1
     number of electrons       =         8.00
     number of Kohn-Sham states=            4
     kinetic-energy cutoff     =      60.0000  Ry
     charge density cutoff     =     240.0000  Ry
     scf convergence threshold =      1.0E-08
     mixing beta               =       0.7000
     number of iterations used =            8  plain     mixing
     Exchange-correlation= SLA  PZ   NOGX NOGC
                           (   1   1   0   0   0   0   0)

     celldm(1)=  10.200000  celldm(2)=   0.000000  celldm(3)=   0.000000
     celldm(4)=   0.000000  celldm(5)=   0.000000  celldm(6)=   0.000000

     crystal axes: (cart. coord. in units of alat)
               a(1) = (  -0.500000   0.000000   0.500000 )  
               a(2) = (   0.000000   0.500000   0.500000 )  
               a(3) = (  -0.500000   0.500000   0.000000 )  

     reciprocal axes: (cart. coord. in units 2 pi/alat)
               b(1) = ( -1.000000 -1.000000  1.000000 )  
               b(2) = (  1.000000  1.000000  1.000000 )  
               b(3) = ( -1.000000  1.000000 -1.000000 )  


     PseudoPot. # 1 for Si read from file:
     ../../pseudo/Si.pz-vbc.UPF
     MD5 check sum: 9f25e6ff280f3123e9b3a84715b2e9c9
     Pseudo is Norm-conserving, Zval =  4.0
     Generated by new atomic code, or converted to UPF format
     Using radial grid of  431 points,  2 beta functions with: 
                l(1) =   0
                l(2) =   1

     atomic species   valence    mass     pseudopotential
        Si             4.00    28.08600     Si( 1.00)

     48 Sym. Ops., with inversion, found (24 have fractional translation)



   Cartesian axes

     site n.     atom                  positions (alat units)
         1           Si  tau(   1) = (   0.0000000   0.0000000   0.0000000  )
         2           Si  tau(   2) = (   0.2500000   0.2500000   0.2500000  )

     number of k points=    60
                       cart. coord. in units 2pi/alat
        k(    1) = (  -0.0625000   0.0625000   0.0625000), wk =   0.0078125
        k(    2) = (  -0.1875000   0.1875000  -0.0625000), wk =   0.0234375
        k(    3) = (  -0.3125000   0.3125000  -0.1875000), wk =   0.0234375
        k(    4) = (  -0.4375000   0.4375000  -0.3125000), wk =   0.0234375
        k(    5) = (   0.4375000  -0.4375000   0.5625000), wk =   0.0234375
        k(    6) = (   0.3125000  -0.3125000   0.4375000), wk =   0.0234375
        k(    7) = (   0.1875000  -0.1875000   0.3125000), wk =   0.0234375
        k(    8) = (   0.0625000  -0.0625000   0.1875000), wk =   0.0234375
        k(    9) = (  -0.0625000   0.3125000   0.0625000), wk =   0.0234375
        k(   10) = (  -0.1875000   0.4375000  -0.0625000), wk =   0.0468750
        k(   11) = (  -0.3125000   0.5625000  -0.1875000), wk =   0.0468750
        k(   12) = (   0.5625000  -0.3125000   0.6875000), wk =   0.0468750
        k(   13) = (   0.4375000  -0.1875000   0.5625000), wk =   0.0468750
        k(   14) = (   0.3125000  -0.0625000   0.4375000), wk =   0.0468750
        k(   15) = (   0.1875000   0.0625000   0.3125000), wk =   0.0468750
        k(   16) = (  -0.0625000   0.5625000   0.0625000), wk =   0.0234375
        k(   17) = (  -0.1875000   0.6875000  -0.0625000), wk =   0.0468750
        k(   18) = (   0.6875000  -0.1875000   0.8125000), wk =   0.0468750
        k(   19) = (   0.5625000  -0.0625000   0.6875000), wk =   0.0468750
        k(   20) = (   0.4375000   0.0625000   0.5625000), wk =   0.0468750
        k(   21) = (   0.3125000   0.1875000   0.4375000), wk =   0.0468750
        k(   22) = (  -0.0625000   0.8125000   0.0625000), wk =   0.0234375
        k(   23) = (   0.8125000  -0.0625000   0.9375000), wk =   0.0468750
        k(   24) = (   0.6875000   0.0625000   0.8125000), wk =   0.0468750
        k(   25) = (   0.5625000   0.1875000   0.6875000), wk =   0.0468750
        k(   26) = (   0.4375000   0.3125000   0.5625000), wk =   0.0468750
        k(   27) = (  -0.0625000  -0.9375000   0.0625000), wk =   0.0234375
        k(   28) = (  -0.1875000  -0.8125000  -0.0625000), wk =   0.0468750
        k(   29) = (  -0.3125000  -0.6875000  -0.1875000), wk =   0.0468750
        k(   30) = (  -0.0625000  -0.6875000   0.0625000), wk =   0.0234375
        k(   31) = (  -0.1875000  -0.5625000  -0.0625000), wk =   0.0468750
        k(   32) = (  -0.0625000  -0.4375000   0.0625000), wk =   0.0234375
        k(   33) = (  -0.1875000   0.1875000   0.1875000), wk =   0.0078125
        k(   34) = (  -0.3125000   0.3125000   0.0625000), wk =   0.0234375
        k(   35) = (  -0.4375000   0.4375000  -0.0625000), wk =   0.0234375
        k(   36) = (   0.4375000  -0.4375000   0.8125000), wk =   0.0234375
        k(   37) = (   0.3125000  -0.3125000   0.6875000), wk =   0.0234375
        k(   38) = (   0.1875000  -0.1875000   0.5625000), wk =   0.0234375
        k(   39) = (  -0.1875000   0.4375000   0.1875000), wk =   0.0234375
        k(   40) = (  -0.3125000   0.5625000   0.0625000), wk =   0.0468750
        k(   41) = (   0.5625000  -0.3125000   0.9375000), wk =   0.0468750
        k(   42) = (   0.4375000  -0.1875000   0.8125000), wk =   0.0468750
        k(   43) = (   0.3125000  -0.0625000   0.6875000), wk =   0.0468750
        k(   44) = (  -0.1875000   0.6875000   0.1875000), wk =   0.0234375
        k(   45) = (   0.6875000  -0.1875000   1.0625000), wk =   0.0468750
        k(   46) = (   0.5625000  -0.0625000   0.9375000), wk =   0.0468750
        k(   47) = (   0.4375000   0.0625000   0.8125000), wk =   0.0468750
        k(   48) = (  -0.1875000  -1.0625000   0.1875000), wk =   0.0234375
        k(   49) = (  -0.3125000  -0.9375000   0.0625000), wk =   0.0468750
        k(   50) = (  -0.1875000  -0.8125000   0.1875000), wk =   0.0234375
        k(   51) = (  -0.3125000   0.3125000   0.3125000), wk =   0.0078125
        k(   52) = (  -0.4375000   0.4375000   0.1875000), wk =   0.0234375
        k(   53) = (   0.4375000  -0.4375000   1.0625000), wk =   0.0234375
        k(   54) = (   0.3125000  -0.3125000   0.9375000), wk =   0.0234375
        k(   55) = (  -0.3125000   0.5625000   0.3125000), wk =   0.0234375
        k(   56) = (   0.5625000  -0.3125000   1.1875000), wk =   0.0468750
        k(   57) = (   0.4375000  -0.1875000   1.0625000), wk =   0.0468750
        k(   58) = (  -0.3125000  -1.1875000   0.3125000), wk =   0.0234375
        k(   59) = (  -0.4375000   0.4375000   0.4375000), wk =   0.0078125
        k(   60) = (   0.4375000  -0.4375000   1.3125000), wk =   0.0234375

     Dense  grid:    16625 G-vectors     FFT dimensions: (  36,  36,  36)

     Estimated max dynamical RAM per process >      18.74 MB

     Initial potential from superposition of free atoms

     starting charge       7.9990, renormalised to       8.0000
     Starting wfcs are    8 randomized atomic wfcs

     total cpu time spent up to now is        1.0 secs

     Self-consistent Calculation

     iteration #  1     ecut=    60.00 Ry     beta= 0.70
     Davidson diagonalization with overlap
     ethr =  1.00E-02,  avg # of iterations =  2.0

     Threshold (ethr) on eigenvalues was too large:
     Diagonalizing with lowered threshold

     Davidson diagonalization with overlap
     ethr =  6.93E-04,  avg # of iterations =  1.1

     total cpu time spent up to now is        2.6 secs

     total energy              =     -15.84983292 Ry
     estimated scf accuracy    <       0.06104189 Ry

     iteration #  2     ecut=    60.00 Ry     beta= 0.70
     Davidson diagonalization with overlap
     ethr =  7.63E-04,  avg # of iterations =  1.0

     total cpu time spent up to now is        3.2 secs

     total energy              =     -15.85309004 Ry
     estimated scf accuracy    <       0.00220819 Ry

     iteration #  3     ecut=    60.00 Ry     beta= 0.70
     Davidson diagonalization with overlap
     ethr =  2.76E-05,  avg # of iterations =  2.5

     total cpu time spent up to now is        4.1 secs

     total energy              =     -15.85360301 Ry
     estimated scf accuracy    <       0.00007514 Ry

     iteration #  4     ecut=    60.00 Ry     beta= 0.70
     Davidson diagonalization with overlap
     ethr =  9.39E-07,  avg # of iterations =  3.1

     total cpu time spent up to now is        5.0 secs

     total energy              =     -15.85363607 Ry
     estimated scf accuracy    <       0.00000273 Ry

     iteration #  5     ecut=    60.00 Ry     beta= 0.70
     Davidson diagonalization with overlap
     ethr =  3.41E-08,  avg # of iterations =  3.7

     total cpu time spent up to now is        6.0 secs

     total energy              =     -15.85363770 Ry
     estimated scf accuracy    <       0.00000008 Ry

     iteration #  6     ecut=    60.00 Ry     beta= 0.70
     Davidson diagonalization with overlap
     ethr =  9.58E-10,  avg # of iterations =  3.6

     total cpu time spent up to now is        7.1 secs

     End of self-consistent calculation

          k =-0.0625 0.0625 0.0625 (  2091 PWs)   bands (ev):

    -5.7711   5.6992   6.1421   6.1421

          k =-0.1875 0.1875-0.0625 (  2078 PWs)   bands (ev):

    -5.4956   4.1875   5.3065   6.0255

          k =-0.3125 0.3125-0.1875 (  2073 PWs)   bands (ev):

    -4.8287   1.9115   4.8128   5.5525

          k =-0.4375 0.4375-0.3125 (  2076 PWs)   bands (ev):

    -3.8896  -0.0334   4.5974   5.1351

          k = 0.4375-0.4375 0.5625 (  2080 PWs)   bands (ev):

    -3.4128  -0.7680   4.6531   4.9088

          k = 0.3125-0.3125 0.4375 (  2078 PWs)   bands (ev):

    -4.2131   0.5446   4.9259   4.9483

          k = 0.1875-0.1875 0.3125 (  2074 PWs)   bands (ev):

    -5.0906   2.6591   5.2053   5.4229

          k = 0.0625-0.0625 0.1875 (  2069 PWs)   bands (ev):

    -5.6327   4.9524   5.6989   5.8747

          k =-0.0625 0.3125 0.0625 (  2071 PWs)   bands (ev):

    -5.3570   4.0689   5.1227   5.2234

          k =-0.1875 0.4375-0.0625 (  2067 PWs)   bands (ev):

    -4.8171   2.5459   4.1210   4.9556

          k =-0.3125 0.5625-0.1875 (  2085 PWs)   bands (ev):

    -3.9422   0.6245   3.6295   4.5253

          k = 0.5625-0.3125 0.6875 (  2073 PWs)   bands (ev):

    -3.1384  -0.6412   3.3377   4.4269

          k = 0.4375-0.1875 0.5625 (  2078 PWs)   bands (ev):

    -3.6240   0.0839   3.2531   4.7247

          k = 0.3125-0.0625 0.4375 (  2074 PWs)   bands (ev):

    -4.5607   1.8763   3.5436   5.2531

          k = 0.1875 0.0625 0.3125 (  2074 PWs)   bands (ev):

    -5.2227   3.3684   4.7102   5.6401

          k =-0.0625 0.5625 0.0625 (  2069 PWs)   bands (ev):

    -4.4059   2.0684   3.9761   4.1038

          k =-0.1875 0.6875-0.0625 (  2084 PWs)   bands (ev):

    -3.6305   0.8068   3.1537   3.7406

          k = 0.6875-0.1875 0.8125 (  2088 PWs)   bands (ev):

    -2.6930  -0.4377   2.2790   3.7085

          k = 0.5625-0.0625 0.6875 (  2084 PWs)   bands (ev):

    -2.7627  -0.3433   1.9047   4.0673

          k = 0.4375 0.0625 0.5625 (  2085 PWs)   bands (ev):

    -3.6963   0.6192   2.5434   4.6771

          k = 0.3125 0.1875 0.4375 (  2078 PWs)   bands (ev):

    -4.4425   1.2287   4.2565   5.1522

          k =-0.0625 0.8125 0.0625 (  2085 PWs)   bands (ev):

    -2.9599  -0.0706   3.2608   3.4938

          k = 0.8125-0.0625 0.9375 (  2093 PWs)   bands (ev):

    -2.0190  -1.0832   2.6687   3.2336

          k = 0.6875 0.0625 0.8125 (  2098 PWs)   bands (ev):

    -2.1016  -0.9242   1.8974   3.5604

          k = 0.5625 0.1875 0.6875 (  2080 PWs)   bands (ev):

    -2.8766  -0.5667   2.5127   4.1852

          k = 0.4375 0.3125 0.5625 (  2081 PWs)   bands (ev):

    -3.5080  -0.4483   4.0870   4.8025

          k =-0.0625-0.9375 0.0625 (  2078 PWs)   bands (ev):

    -2.0762  -1.1044   3.1183   3.3692

          k =-0.1875-0.8125-0.0625 (  2083 PWs)   bands (ev):

    -2.8688  -0.1343   2.8349   3.3979

          k =-0.3125-0.6875-0.1875 (  2084 PWs)   bands (ev):

    -3.3462   0.0822   2.9234   4.0203

          k =-0.0625-0.6875 0.0625 (  2079 PWs)   bands (ev):

    -3.7407   0.9986   3.5465   3.7405

          k =-0.1875-0.5625-0.0625 (  2077 PWs)   bands (ev):

    -4.2838   1.7012   3.5935   4.2738

          k =-0.0625-0.4375 0.0625 (  2060 PWs)   bands (ev):

    -4.9467   3.1019   4.5458   4.5723

          k =-0.1875 0.1875 0.1875 (  2082 PWs)   bands (ev):

    -5.3600   3.4409   5.6889   5.6889

          k =-0.3125 0.3125 0.0625 (  2077 PWs)   bands (ev):

    -4.9559   2.6091   4.1164   5.7153

          k =-0.4375 0.4375-0.0625 (  2080 PWs)   bands (ev):

    -4.1834   1.2242   2.9948   5.1930

          k = 0.4375-0.4375 0.8125 (  2080 PWs)   bands (ev):

    -3.2472  -0.3311   2.8583   4.6420

          k = 0.3125-0.3125 0.6875 (  2078 PWs)   bands (ev):

    -3.2321  -0.3593   3.1749   4.3107

          k = 0.1875-0.1875 0.5625 (  2085 PWs)   bands (ev):

    -4.1677   1.2191   3.8048   4.2825

          k =-0.1875 0.4375 0.1875 (  2072 PWs)   bands (ev):

    -4.6910   1.9209   4.6683   4.7143

          k =-0.3125 0.5625 0.0625 (  2077 PWs)   bands (ev):

    -4.0440   1.1712   3.0536   4.5132

          k = 0.5625-0.3125 0.9375 (  2083 PWs)   bands (ev):

    -3.1179   0.0548   2.2259   3.9143

          k = 0.4375-0.1875 0.8125 (  2087 PWs)   bands (ev):

    -2.6043  -0.5917   2.2412   3.5848

          k = 0.3125-0.0625 0.6875 (  2084 PWs)   bands (ev):

    -3.4173   0.4646   2.6717   3.7742

          k =-0.1875 0.6875 0.1875 (  2080 PWs)   bands (ev):

    -3.5314   0.5117   3.0278   3.9416

          k = 0.6875-0.1875 1.0625 (  2091 PWs)   bands (ev):

    -2.6993  -0.2793   2.4103   3.2100

          k = 0.5625-0.0625 0.9375 (  2104 PWs)   bands (ev):

    -1.8567  -1.0472   2.0663   2.6800

          k = 0.4375 0.0625 0.8125 (  2088 PWs)   bands (ev):

    -2.4803  -0.4976   2.0677   3.1795

          k =-0.1875-1.0625 0.1875 (  2090 PWs)   bands (ev):

    -2.0319  -1.0363   2.1785   3.5888

          k =-0.3125-0.9375 0.0625 (  2099 PWs)   bands (ev):

    -1.9289  -1.0584   2.2768   2.9132

          k =-0.1875-0.8125 0.1875 (  2092 PWs)   bands (ev):

    -2.8012  -0.2483   2.4644   3.7076

          k =-0.3125 0.3125 0.3125 (  2081 PWs)   bands (ev):

    -4.5781   1.1839   5.2674   5.2674

          k =-0.4375 0.4375 0.1875 (  2076 PWs)   bands (ev):

    -4.0809   0.6042   3.7572   5.1793

          k = 0.4375-0.4375 1.0625 (  2077 PWs)   bands (ev):

    -3.2588   0.1075   2.1436   4.5748

          k = 0.3125-0.3125 0.9375 (  2095 PWs)   bands (ev):

    -2.4016  -0.6789   1.7768   4.0075

          k =-0.3125 0.5625 0.3125 (  2083 PWs)   bands (ev):

    -3.7521   0.0246   4.1181   4.5918

          k = 0.5625-0.3125 1.1875 (  2072 PWs)   bands (ev):

    -3.1073  -0.3171   2.7481   4.0875

          k = 0.4375-0.1875 1.0625 (  2098 PWs)   bands (ev):

    -2.2608  -0.7344   1.8721   3.3393

          k =-0.3125-1.1875 0.3125 (  2089 PWs)   bands (ev):

    -2.7321  -0.5926   2.3245   4.1108

          k =-0.4375 0.4375 0.4375 (  2066 PWs)   bands (ev):

    -3.6444  -0.5216   5.0432   5.0432

          k = 0.4375-0.4375 1.3125 (  2086 PWs)   bands (ev):

    -3.2765  -0.6956   3.7876   4.7627

     highest occupied level (ev):     6.1421

!    total energy              =     -15.85363775 Ry
     estimated scf accuracy    <          6.3E-09 Ry

     The total energy is the sum of the following terms:
     one-electron contribution =       4.78430747 Ry
     hartree contribution      =       1.07869002 Ry
     xc contribution           =      -4.81687666 Ry
     ewald contribution        =     -16.89975857 Ry

     convergence has been achieved in   6 iterations

     Writing all to output data dir ./tmp_e60/Si.save/

     init_run     :      0.98s CPU      1.00s WALL (       1 calls)
     electrons    :      5.93s CPU      6.06s WALL (       1 calls)

     Called by init_run:
     wfcinit      :      0.74s CPU      0.75s WALL (       1 calls)
     potinit      :      0.01s CPU      0.01s WALL (       1 calls)
     hinit0       :      0.22s CPU      0.22s WALL (       1 calls)

     Called by electrons:
     c_bands      :      5.12s CPU      5.25s WALL (       7 calls)
     sum_band     :      0.78s CPU      0.78s WALL (       7 calls)
     v_of_rho     :      0.02s CPU      0.02s WALL (       7 calls)
     mix_rho      :      0.01s CPU      0.01s WALL (       7 calls)

     Called by c_bands:
     init_us_2    :      0.23s CPU      0.24s WALL (     900 calls)
     init_us_2:cp :      0.23s CPU      0.23s WALL (     900 calls)
     cegterg      :      4.93s CPU      5.05s WALL (     420 calls)

     Called by *egterg:
     cdiaghg      :      0.06s CPU      0.06s WALL (    1377 calls)
     h_psi        :      4.82s CPU      4.93s WALL (    1497 calls)
     g_psi        :      0.04s CPU      0.04s WALL (    1017 calls)

     Called by h_psi:
     h_psi:calbec :      0.21s CPU      0.21s WALL (    1497 calls)
     vloc_psi     :      4.39s CPU      4.49s WALL (    1497 calls)
     add_vuspsi   :      0.18s CPU      0.18s WALL (    1497 calls)

     General routines
     calbec       :      0.20s CPU      0.21s WALL (    1497 calls)
     fft          :      0.21s CPU      0.21s WALL (      21 calls)
     ffts         :      0.00s CPU      0.00s WALL (       7 calls)
     fftw         :      4.09s CPU      4.18s WALL (   12486 calls)

     Parallel routines

     PWSCF        :      6.93s CPU      7.11s WALL


   This run was terminated on:  21:58:47  25Mar2026            

=------------------------------------------------------------------------------=
   JOB DONE.
=------------------------------------------------------------------------------=
