
     Program PWSCF v.7.2 starts on 25Mar2026 at 21:59: 3 

     This program is part of the open-source Quantum ESPRESSO suite
     for quantum simulation of materials; please cite
         "P. Giannozzi et al., J. Phys.:Condens. Matter 21 395502 (2009);
         "P. Giannozzi et al., J. Phys.:Condens. Matter 29 465901 (2017);
         "P. Giannozzi et al., J. Chem. Phys. 152 154105 (2020);
          URL http://www.quantum-espresso.org", 
     in publications or presentations arising from this work. More details at
     http://www.quantum-espresso.org/quote

     Parallel version (MPI), running on     1 processors

     MPI processes distributed on     1 nodes
     4586 MiB available memory on the printing compute node when the environment starts

     Reading input from scf_e100.in

     Current dimensions of program PWSCF are:
     Max number of different atomic species (ntypx) = 10
     Max number of k-points (npk) =  40000
     Max angular momentum in pseudopotentials (lmaxx) =  4

     Subspace diagonalization in iterative solution of the eigenvalue problem:
     a serial algorithm will be used


     G-vector sticks info
     --------------------
     sticks:   dense  smooth     PW     G-vecs:    dense   smooth      PW
     Sum        1417    1417    433                35749    35749    5817

     Using Slab Decomposition



     bravais-lattice index     =            2
     lattice parameter (alat)  =      10.2000  a.u.
     unit-cell volume          =     265.3020 (a.u.)^3
     number of atoms/cell      =            2
     number of atomic types    =            1
     number of electrons       =         8.00
     number of Kohn-Sham states=            4
     kinetic-energy cutoff     =     100.0000  Ry
     charge density cutoff     =     400.0000  Ry
     scf convergence threshold =      1.0E-08
     mixing beta               =       0.7000
     number of iterations used =            8  plain     mixing
     Exchange-correlation= SLA  PZ   NOGX NOGC
                           (   1   1   0   0   0   0   0)

     celldm(1)=  10.200000  celldm(2)=   0.000000  celldm(3)=   0.000000
     celldm(4)=   0.000000  celldm(5)=   0.000000  celldm(6)=   0.000000

     crystal axes: (cart. coord. in units of alat)
               a(1) = (  -0.500000   0.000000   0.500000 )  
               a(2) = (   0.000000   0.500000   0.500000 )  
               a(3) = (  -0.500000   0.500000   0.000000 )  

     reciprocal axes: (cart. coord. in units 2 pi/alat)
               b(1) = ( -1.000000 -1.000000  1.000000 )  
               b(2) = (  1.000000  1.000000  1.000000 )  
               b(3) = ( -1.000000  1.000000 -1.000000 )  


     PseudoPot. # 1 for Si read from file:
     ../../pseudo/Si.pz-vbc.UPF
     MD5 check sum: 9f25e6ff280f3123e9b3a84715b2e9c9
     Pseudo is Norm-conserving, Zval =  4.0
     Generated by new atomic code, or converted to UPF format
     Using radial grid of  431 points,  2 beta functions with: 
                l(1) =   0
                l(2) =   1

     atomic species   valence    mass     pseudopotential
        Si             4.00    28.08600     Si( 1.00)

     48 Sym. Ops., with inversion, found (24 have fractional translation)



   Cartesian axes

     site n.     atom                  positions (alat units)
         1           Si  tau(   1) = (   0.0000000   0.0000000   0.0000000  )
         2           Si  tau(   2) = (   0.2500000   0.2500000   0.2500000  )

     number of k points=    60
                       cart. coord. in units 2pi/alat
        k(    1) = (  -0.0625000   0.0625000   0.0625000), wk =   0.0078125
        k(    2) = (  -0.1875000   0.1875000  -0.0625000), wk =   0.0234375
        k(    3) = (  -0.3125000   0.3125000  -0.1875000), wk =   0.0234375
        k(    4) = (  -0.4375000   0.4375000  -0.3125000), wk =   0.0234375
        k(    5) = (   0.4375000  -0.4375000   0.5625000), wk =   0.0234375
        k(    6) = (   0.3125000  -0.3125000   0.4375000), wk =   0.0234375
        k(    7) = (   0.1875000  -0.1875000   0.3125000), wk =   0.0234375
        k(    8) = (   0.0625000  -0.0625000   0.1875000), wk =   0.0234375
        k(    9) = (  -0.0625000   0.3125000   0.0625000), wk =   0.0234375
        k(   10) = (  -0.1875000   0.4375000  -0.0625000), wk =   0.0468750
        k(   11) = (  -0.3125000   0.5625000  -0.1875000), wk =   0.0468750
        k(   12) = (   0.5625000  -0.3125000   0.6875000), wk =   0.0468750
        k(   13) = (   0.4375000  -0.1875000   0.5625000), wk =   0.0468750
        k(   14) = (   0.3125000  -0.0625000   0.4375000), wk =   0.0468750
        k(   15) = (   0.1875000   0.0625000   0.3125000), wk =   0.0468750
        k(   16) = (  -0.0625000   0.5625000   0.0625000), wk =   0.0234375
        k(   17) = (  -0.1875000   0.6875000  -0.0625000), wk =   0.0468750
        k(   18) = (   0.6875000  -0.1875000   0.8125000), wk =   0.0468750
        k(   19) = (   0.5625000  -0.0625000   0.6875000), wk =   0.0468750
        k(   20) = (   0.4375000   0.0625000   0.5625000), wk =   0.0468750
        k(   21) = (   0.3125000   0.1875000   0.4375000), wk =   0.0468750
        k(   22) = (  -0.0625000   0.8125000   0.0625000), wk =   0.0234375
        k(   23) = (   0.8125000  -0.0625000   0.9375000), wk =   0.0468750
        k(   24) = (   0.6875000   0.0625000   0.8125000), wk =   0.0468750
        k(   25) = (   0.5625000   0.1875000   0.6875000), wk =   0.0468750
        k(   26) = (   0.4375000   0.3125000   0.5625000), wk =   0.0468750
        k(   27) = (  -0.0625000  -0.9375000   0.0625000), wk =   0.0234375
        k(   28) = (  -0.1875000  -0.8125000  -0.0625000), wk =   0.0468750
        k(   29) = (  -0.3125000  -0.6875000  -0.1875000), wk =   0.0468750
        k(   30) = (  -0.0625000  -0.6875000   0.0625000), wk =   0.0234375
        k(   31) = (  -0.1875000  -0.5625000  -0.0625000), wk =   0.0468750
        k(   32) = (  -0.0625000  -0.4375000   0.0625000), wk =   0.0234375
        k(   33) = (  -0.1875000   0.1875000   0.1875000), wk =   0.0078125
        k(   34) = (  -0.3125000   0.3125000   0.0625000), wk =   0.0234375
        k(   35) = (  -0.4375000   0.4375000  -0.0625000), wk =   0.0234375
        k(   36) = (   0.4375000  -0.4375000   0.8125000), wk =   0.0234375
        k(   37) = (   0.3125000  -0.3125000   0.6875000), wk =   0.0234375
        k(   38) = (   0.1875000  -0.1875000   0.5625000), wk =   0.0234375
        k(   39) = (  -0.1875000   0.4375000   0.1875000), wk =   0.0234375
        k(   40) = (  -0.3125000   0.5625000   0.0625000), wk =   0.0468750
        k(   41) = (   0.5625000  -0.3125000   0.9375000), wk =   0.0468750
        k(   42) = (   0.4375000  -0.1875000   0.8125000), wk =   0.0468750
        k(   43) = (   0.3125000  -0.0625000   0.6875000), wk =   0.0468750
        k(   44) = (  -0.1875000   0.6875000   0.1875000), wk =   0.0234375
        k(   45) = (   0.6875000  -0.1875000   1.0625000), wk =   0.0468750
        k(   46) = (   0.5625000  -0.0625000   0.9375000), wk =   0.0468750
        k(   47) = (   0.4375000   0.0625000   0.8125000), wk =   0.0468750
        k(   48) = (  -0.1875000  -1.0625000   0.1875000), wk =   0.0234375
        k(   49) = (  -0.3125000  -0.9375000   0.0625000), wk =   0.0468750
        k(   50) = (  -0.1875000  -0.8125000   0.1875000), wk =   0.0234375
        k(   51) = (  -0.3125000   0.3125000   0.3125000), wk =   0.0078125
        k(   52) = (  -0.4375000   0.4375000   0.1875000), wk =   0.0234375
        k(   53) = (   0.4375000  -0.4375000   1.0625000), wk =   0.0234375
        k(   54) = (   0.3125000  -0.3125000   0.9375000), wk =   0.0234375
        k(   55) = (  -0.3125000   0.5625000   0.3125000), wk =   0.0234375
        k(   56) = (   0.5625000  -0.3125000   1.1875000), wk =   0.0468750
        k(   57) = (   0.4375000  -0.1875000   1.0625000), wk =   0.0468750
        k(   58) = (  -0.3125000  -1.1875000   0.3125000), wk =   0.0234375
        k(   59) = (  -0.4375000   0.4375000   0.4375000), wk =   0.0078125
        k(   60) = (   0.4375000  -0.4375000   1.3125000), wk =   0.0234375

     Dense  grid:    35749 G-vectors     FFT dimensions: (  48,  48,  48)

     Estimated max dynamical RAM per process >      40.92 MB

     Initial potential from superposition of free atoms

     starting charge       7.9990, renormalised to       8.0000
     Starting wfcs are    8 randomized atomic wfcs

     total cpu time spent up to now is        2.0 secs

     Self-consistent Calculation

     iteration #  1     ecut=   100.00 Ry     beta= 0.70
     Davidson diagonalization with overlap
     ethr =  1.00E-02,  avg # of iterations =  2.0

     Threshold (ethr) on eigenvalues was too large:
     Diagonalizing with lowered threshold

     Davidson diagonalization with overlap
     ethr =  6.93E-04,  avg # of iterations =  1.2

     total cpu time spent up to now is        5.9 secs

     total energy              =     -15.84987598 Ry
     estimated scf accuracy    <       0.06087136 Ry

     iteration #  2     ecut=   100.00 Ry     beta= 0.70
     Davidson diagonalization with overlap
     ethr =  7.61E-04,  avg # of iterations =  1.0

     total cpu time spent up to now is        7.5 secs

     total energy              =     -15.85309120 Ry
     estimated scf accuracy    <       0.00222554 Ry

     iteration #  3     ecut=   100.00 Ry     beta= 0.70
     Davidson diagonalization with overlap
     ethr =  2.78E-05,  avg # of iterations =  2.5

     total cpu time spent up to now is        9.5 secs

     total energy              =     -15.85360964 Ry
     estimated scf accuracy    <       0.00007533 Ry

     iteration #  4     ecut=   100.00 Ry     beta= 0.70
     Davidson diagonalization with overlap
     ethr =  9.42E-07,  avg # of iterations =  3.1

     total cpu time spent up to now is       12.0 secs

     total energy              =     -15.85364384 Ry
     estimated scf accuracy    <       0.00000277 Ry

     iteration #  5     ecut=   100.00 Ry     beta= 0.70
     Davidson diagonalization with overlap
     ethr =  3.46E-08,  avg # of iterations =  3.6

     total cpu time spent up to now is       14.6 secs

     total energy              =     -15.85364544 Ry
     estimated scf accuracy    <       0.00000007 Ry

     iteration #  6     ecut=   100.00 Ry     beta= 0.70
     Davidson diagonalization with overlap
     ethr =  9.35E-10,  avg # of iterations =  3.7

     total cpu time spent up to now is       17.3 secs

     End of self-consistent calculation

          k =-0.0625 0.0625 0.0625 (  4525 PWs)   bands (ev):

    -5.7711   5.6992   6.1421   6.1421

          k =-0.1875 0.1875-0.0625 (  4483 PWs)   bands (ev):

    -5.4956   4.1875   5.3065   6.0255

          k =-0.3125 0.3125-0.1875 (  4496 PWs)   bands (ev):

    -4.8287   1.9115   4.8128   5.5525

          k =-0.4375 0.4375-0.3125 (  4481 PWs)   bands (ev):

    -3.8896  -0.0334   4.5974   5.1351

          k = 0.4375-0.4375 0.5625 (  4469 PWs)   bands (ev):

    -3.4128  -0.7680   4.6531   4.9089

          k = 0.3125-0.3125 0.4375 (  4492 PWs)   bands (ev):

    -4.2132   0.5446   4.9259   4.9484

          k = 0.1875-0.1875 0.3125 (  4486 PWs)   bands (ev):

    -5.0906   2.6591   5.2053   5.4229

          k = 0.0625-0.0625 0.1875 (  4499 PWs)   bands (ev):

    -5.6327   4.9524   5.6989   5.8747

          k =-0.0625 0.3125 0.0625 (  4498 PWs)   bands (ev):

    -5.3570   4.0688   5.1228   5.2234

          k =-0.1875 0.4375-0.0625 (  4501 PWs)   bands (ev):

    -4.8171   2.5459   4.1210   4.9556

          k =-0.3125 0.5625-0.1875 (  4491 PWs)   bands (ev):

    -3.9422   0.6245   3.6295   4.5253

          k = 0.5625-0.3125 0.6875 (  4473 PWs)   bands (ev):

    -3.1384  -0.6412   3.3377   4.4269

          k = 0.4375-0.1875 0.5625 (  4478 PWs)   bands (ev):

    -3.6240   0.0839   3.2531   4.7247

          k = 0.3125-0.0625 0.4375 (  4482 PWs)   bands (ev):

    -4.5607   1.8763   3.5436   5.2531

          k = 0.1875 0.0625 0.3125 (  4491 PWs)   bands (ev):

    -5.2227   3.3684   4.7102   5.6401

          k =-0.0625 0.5625 0.0625 (  4499 PWs)   bands (ev):

    -4.4059   2.0684   3.9761   4.1038

          k =-0.1875 0.6875-0.0625 (  4485 PWs)   bands (ev):

    -3.6305   0.8068   3.1537   3.7406

          k = 0.6875-0.1875 0.8125 (  4467 PWs)   bands (ev):

    -2.6930  -0.4377   2.2790   3.7085

          k = 0.5625-0.0625 0.6875 (  4477 PWs)   bands (ev):

    -2.7627  -0.3433   1.9048   4.0673

          k = 0.4375 0.0625 0.5625 (  4482 PWs)   bands (ev):

    -3.6963   0.6192   2.5435   4.6771

          k = 0.3125 0.1875 0.4375 (  4491 PWs)   bands (ev):

    -4.4425   1.2287   4.2565   5.1522

          k =-0.0625 0.8125 0.0625 (  4475 PWs)   bands (ev):

    -2.9599  -0.0706   3.2608   3.4938

          k = 0.8125-0.0625 0.9375 (  4465 PWs)   bands (ev):

    -2.0190  -1.0832   2.6687   3.2336

          k = 0.6875 0.0625 0.8125 (  4467 PWs)   bands (ev):

    -2.1016  -0.9242   1.8974   3.5604

          k = 0.5625 0.1875 0.6875 (  4465 PWs)   bands (ev):

    -2.8766  -0.5667   2.5127   4.1852

          k = 0.4375 0.3125 0.5625 (  4477 PWs)   bands (ev):

    -3.5081  -0.4484   4.0870   4.8025

          k =-0.0625-0.9375 0.0625 (  4463 PWs)   bands (ev):

    -2.0762  -1.1044   3.1183   3.3692

          k =-0.1875-0.8125-0.0625 (  4474 PWs)   bands (ev):

    -2.8688  -0.1343   2.8349   3.3980

          k =-0.3125-0.6875-0.1875 (  4479 PWs)   bands (ev):

    -3.3462   0.0822   2.9234   4.0203

          k =-0.0625-0.6875 0.0625 (  4485 PWs)   bands (ev):

    -3.7407   0.9986   3.5465   3.7405

          k =-0.1875-0.5625-0.0625 (  4495 PWs)   bands (ev):

    -4.2838   1.7012   3.5935   4.2738

          k =-0.0625-0.4375 0.0625 (  4508 PWs)   bands (ev):

    -4.9467   3.1019   4.5458   4.5723

          k =-0.1875 0.1875 0.1875 (  4492 PWs)   bands (ev):

    -5.3600   3.4409   5.6889   5.6889

          k =-0.3125 0.3125 0.0625 (  4489 PWs)   bands (ev):

    -4.9559   2.6091   4.1164   5.7153

          k =-0.4375 0.4375-0.0625 (  4487 PWs)   bands (ev):

    -4.1835   1.2242   2.9948   5.1930

          k = 0.4375-0.4375 0.8125 (  4477 PWs)   bands (ev):

    -3.2472  -0.3311   2.8583   4.6420

          k = 0.3125-0.3125 0.6875 (  4472 PWs)   bands (ev):

    -3.2321  -0.3593   3.1749   4.3107

          k = 0.1875-0.1875 0.5625 (  4496 PWs)   bands (ev):

    -4.1677   1.2191   3.8048   4.2825

          k =-0.1875 0.4375 0.1875 (  4493 PWs)   bands (ev):

    -4.6910   1.9209   4.6683   4.7144

          k =-0.3125 0.5625 0.0625 (  4486 PWs)   bands (ev):

    -4.0440   1.1712   3.0536   4.5132

          k = 0.5625-0.3125 0.9375 (  4478 PWs)   bands (ev):

    -3.1179   0.0548   2.2259   3.9144

          k = 0.4375-0.1875 0.8125 (  4469 PWs)   bands (ev):

    -2.6043  -0.5917   2.2412   3.5848

          k = 0.3125-0.0625 0.6875 (  4477 PWs)   bands (ev):

    -3.4174   0.4646   2.6717   3.7742

          k =-0.1875 0.6875 0.1875 (  4482 PWs)   bands (ev):

    -3.5314   0.5117   3.0278   3.9416

          k = 0.6875-0.1875 1.0625 (  4483 PWs)   bands (ev):

    -2.6993  -0.2793   2.4103   3.2100

          k = 0.5625-0.0625 0.9375 (  4464 PWs)   bands (ev):

    -1.8567  -1.0472   2.0663   2.6800

          k = 0.4375 0.0625 0.8125 (  4475 PWs)   bands (ev):

    -2.4803  -0.4977   2.0677   3.1795

          k =-0.1875-1.0625 0.1875 (  4462 PWs)   bands (ev):

    -2.0319  -1.0363   2.1785   3.5888

          k =-0.3125-0.9375 0.0625 (  4474 PWs)   bands (ev):

    -1.9289  -1.0584   2.2768   2.9132

          k =-0.1875-0.8125 0.1875 (  4476 PWs)   bands (ev):

    -2.8012  -0.2483   2.4644   3.7076

          k =-0.3125 0.3125 0.3125 (  4483 PWs)   bands (ev):

    -4.5781   1.1839   5.2674   5.2674

          k =-0.4375 0.4375 0.1875 (  4488 PWs)   bands (ev):

    -4.0809   0.6042   3.7572   5.1793

          k = 0.4375-0.4375 1.0625 (  4471 PWs)   bands (ev):

    -3.2588   0.1075   2.1436   4.5748

          k = 0.3125-0.3125 0.9375 (  4469 PWs)   bands (ev):

    -2.4016  -0.6789   1.7768   4.0075

          k =-0.3125 0.5625 0.3125 (  4482 PWs)   bands (ev):

    -3.7521   0.0246   4.1181   4.5918

          k = 0.5625-0.3125 1.1875 (  4471 PWs)   bands (ev):

    -3.1073  -0.3171   2.7481   4.0875

          k = 0.4375-0.1875 1.0625 (  4468 PWs)   bands (ev):

    -2.2608  -0.7344   1.8721   3.3393

          k =-0.3125-1.1875 0.3125 (  4466 PWs)   bands (ev):

    -2.7321  -0.5926   2.3245   4.1108

          k =-0.4375 0.4375 0.4375 (  4485 PWs)   bands (ev):

    -3.6444  -0.5216   5.0432   5.0432

          k = 0.4375-0.4375 1.3125 (  4480 PWs)   bands (ev):

    -3.2765  -0.6956   3.7876   4.7627

     highest occupied level (ev):     6.1421

!    total energy              =     -15.85364550 Ry
     estimated scf accuracy    <          5.9E-09 Ry

     The total energy is the sum of the following terms:
     one-electron contribution =       4.78429646 Ry
     hartree contribution      =       1.07869097 Ry
     xc contribution           =      -4.81687436 Ry
     ewald contribution        =     -16.89975857 Ry

     convergence has been achieved in   6 iterations

     Writing all to output data dir ./tmp_e100/Si.save/

     init_run     :      1.91s CPU      1.96s WALL (       1 calls)
     electrons    :     15.27s CPU     15.36s WALL (       1 calls)

     Called by init_run:
     wfcinit      :      1.55s CPU      1.60s WALL (       1 calls)
     potinit      :      0.01s CPU      0.01s WALL (       1 calls)
     hinit0       :      0.29s CPU      0.30s WALL (       1 calls)

     Called by electrons:
     c_bands      :     13.12s CPU     13.19s WALL (       7 calls)
     sum_band     :      2.08s CPU      2.09s WALL (       7 calls)
     v_of_rho     :      0.05s CPU      0.05s WALL (       7 calls)
     mix_rho      :      0.03s CPU      0.03s WALL (       7 calls)

     Called by c_bands:
     init_us_2    :      0.48s CPU      0.48s WALL (     900 calls)
     init_us_2:cp :      0.48s CPU      0.48s WALL (     900 calls)
     cegterg      :     12.75s CPU     12.81s WALL (     420 calls)

     Called by *egterg:
     cdiaghg      :      0.07s CPU      0.07s WALL (    1386 calls)
     h_psi        :     12.57s CPU     12.67s WALL (    1506 calls)
     g_psi        :      0.08s CPU      0.08s WALL (    1026 calls)

     Called by h_psi:
     h_psi:calbec :      0.45s CPU      0.46s WALL (    1506 calls)
     vloc_psi     :     11.67s CPU     11.77s WALL (    1506 calls)
     add_vuspsi   :      0.37s CPU      0.38s WALL (    1506 calls)

     General routines
     calbec       :      0.45s CPU      0.45s WALL (    1506 calls)
     fft          :      0.30s CPU      0.30s WALL (      21 calls)
     ffts         :      0.01s CPU      0.01s WALL (       7 calls)
     fftw         :     10.92s CPU     11.01s WALL (   12524 calls)

     Parallel routines

     PWSCF        :     17.22s CPU     17.39s WALL


   This run was terminated on:  21:59:21  25Mar2026            

=------------------------------------------------------------------------------=
   JOB DONE.
=------------------------------------------------------------------------------=
