 CRYSTAL
 PRIMVEC
   -2.831098078    0.000000000    2.831098078
    0.000000000    2.831098078    2.831098078
   -2.831098078    2.831098078    0.000000000
 PRIMCOORD
           2           1
Ge        0.000000000    0.000000000    0.000000000
Ge        1.415549039    1.415549039    1.415549039
BEGIN_BLOCK_DATAGRID_3D
3D_PWSCF
BEGIN_DATAGRID_3D_UNKNOWN
          41          41          41
  0.000000  0.000000  0.000000
   -2.831098    0.000000    2.831098
    0.000000    2.831098    2.831098
   -2.831098    2.831098    0.000000
  0.994835E-10  0.130826E-06  0.251523E-03  0.162960E-01  0.184365E+00  0.555030E+00
  0.783885E+00  0.867806E+00  0.896485E+00  0.904581E+00  0.901992E+00  0.890710E+00
  0.871845E+00  0.847178E+00  0.817138E+00  0.781454E+00  0.743123E+00  0.707659E+00
  0.678452E+00  0.657793E+00  0.650001E+00  0.657793E+00  0.678452E+00  0.707659E+00
  0.743123E+00  0.781454E+00  0.817138E+00  0.847178E+00  0.871845E+00  0.890710E+00
  0.901992E+00  0.904581E+00  0.896485E+00  0.867806E+00  0.783885E+00  0.555030E+00
  0.184365E+00  0.162960E-01  0.251523E-03  0.130826E-06  0.994835E-10  0.130826E-06
  0.331649E-04  0.320998E-02  0.628891E-01  0.340468E+00  0.662403E+00  0.813633E+00
  0.868573E+00  0.887013E+00  0.889466E+00  0.881083E+00  0.862883E+00  0.836424E+00
  0.803188E+00  0.763046E+00  0.717638E+00  0.673034E+00  0.634974E+00  0.605827E+00
  0.588943E+00  0.588943E+00  0.605827E+00  0.634974E+00  0.673034E+00  0.717638E+00
  0.763046E+00  0.803188E+00  0.836424E+00  0.862883E+00  0.881083E+00  0.889466E+00
  0.887013E+00  0.868573E+00  0.813633E+00  0.662403E+00  0.340468E+00  0.628891E-01
  0.320998E-02  0.331649E-04  0.130826E-06  0.130826E-06  0.251523E-03  0.320998E-02
  0.383526E-01  0.224906E+00  0.545248E+00  0.750279E+00  0.834759E+00  0.865726E+00
  0.873920E+00  0.868861E+00  0.852350E+00  0.825316E+00  0.789479E+00  0.745330E+00
  0.693413E+00  0.639113E+00  0.590561E+00  0.551933E+00  0.525357E+00  0.515483E+00
  0.525357E+00  0.551933E+00  0.590561E+00  0.639113E+00  0.693413E+00  0.745330E+00
  0.789479E+00  0.825316E+00  0.852350E+00  0.868861E+00  0.873920E+00  0.865726E+00
  0.834759E+00  0.750279E+00  0.545248E+00  0.224906E+00  0.383526E-01  0.320998E-02
  0.251523E-03  0.786745E-04  0.251523E-03  0.162960E-01  0.628891E-01  0.224906E+00
  0.497572E+00  0.705363E+00  0.805035E+00  0.845242E+00  0.858014E+00  0.855510E+00
  0.840541E+00  0.813565E+00  0.775934E+00  0.728674E+00  0.671757E+00  0.608913E+00
  0.549350E+00  0.500266E+00  0.463843E+00  0.443280E+00  0.443280E+00  0.463843E+00
  0.500266E+00  0.549350E+00  0.608913E+00  0.671757E+00  0.728674E+00  0.775934E+00
  0.813565E+00  0.840541E+00  0.855510E+00  0.858014E+00  0.845242E+00  0.805035E+00
  0.705363E+00  0.497572E+00  0.224906E+00  0.628891E-01  0.162960E-01  0.694926E-02
  0.694926E-02  0.162960E-01  0.184365E+00  0.340468E+00  0.545248E+00  0.705363E+00
  0.792954E+00  0.832366E+00  0.845901E+00  0.843999E+00  0.829402E+00  0.802094E+00
  0.762783E+00  0.712770E+00  0.652157E+00  0.583011E+00  0.513817E+00  0.454340E+00
  0.408431E+00  0.377787E+00  0.366662E+00  0.377787E+00  0.408431E+00  0.454340E+00
  0.513817E+00  0.583011E+00  0.652157E+00  0.712770E+00  0.762783E+00  0.802094E+00
  0.829402E+00  0.843999E+00  0.845901E+00  0.832366E+00  0.792954E+00  0.705363E+00
  0.545248E+00  0.340468E+00  0.184365E+00  0.111349E+00  0.924047E-01  0.111349E+00
  0.184365E+00  0.555030E+00  0.662403E+00  0.750279E+00  0.805035E+00  0.832366E+00
  0.841364E+00  0.837372E+00  0.821545E+00  0.793042E+00  0.751702E+00  0.698642E+00
  0.634458E+00  0.560514E+00  0.483816E+00  0.415170E+00  0.360708E+00  0.321634E+00
  0.300356E+00  0.300356E+00  0.321634E+00  0.360708E+00  0.415170E+00  0.483816E+00
  0.560514E+00  0.634458E+00  0.698642E+00  0.751702E+00  0.793042E+00  0.821545E+00
  0.837372E+00  0.841364E+00  0.832366E+00  0.805035E+00  0.750279E+00  0.662403E+00
  0.555030E+00  0.463322E+00  0.414598E+00  0.414598E+00  0.463322E+00  0.555030E+00
  0.783885E+00  0.813633E+00  0.834759E+00  0.845242E+00  0.845901E+00  0.837372E+00
  0.818748E+00  0.788194E+00  0.744625E+00  0.688468E+00  0.620460E+00  0.542026E+00
  0.459218E+00  0.382801E+00  0.320781E+00  0.274993E+00  0.245980E+00  0.235866E+00
  0.245980E+00  0.274993E+00  0.320781E+00  0.382801E+00  0.459218E+00  0.542026E+00
  0.620460E+00  0.688468E+00  0.744625E+00  0.788194E+00  0.818748E+00  0.837372E+00
  0.845901E+00  0.845242E+00  0.834759E+00  0.813633E+00  0.783885E+00  0.752692E+00
  0.729812E+00  0.721640E+00  0.729812E+00  0.752692E+00  0.783885E+00  0.867806E+00
  0.868573E+00  0.865726E+00  0.858014E+00  0.843999E+00  0.821545E+00  0.788194E+00
  0.742273E+00  0.683457E+00  0.612065E+00  0.529505E+00  0.441462E+00  0.358416E+00
  0.289519E+00  0.237906E+00  0.203313E+00  0.185748E+00  0.185748E+00  0.203313E+00
  0.237906E+00  0.289519E+00  0.358416E+00  0.441462E+00  0.529505E+00  0.612065E+00
  0.683457E+00  0.742273E+00  0.788194E+00  0.821545E+00  0.843999E+00  0.858014E+00
  0.865726E+00  0.868573E+00  0.867806E+00  0.865110E+00  0.862387E+00  0.860868E+00
  0.860868E+00  0.862387E+00  0.865110E+00  0.867806E+00  0.896485E+00  0.887013E+00
  0.873920E+00  0.855510E+00  0.829402E+00  0.793042E+00  0.744625E+00  0.683457E+00
  0.609407E+00  0.523636E+00  0.431556E+00  0.343291E+00  0.268374E+00  0.211179E+00
  0.171875E+00  0.149139E+00  0.141725E+00  0.149139E+00  0.171875E+00  0.211179E+00
  0.268374E+00  0.343291E+00  0.431556E+00  0.523636E+00  0.609407E+00  0.683457E+00
  0.744625E+00  0.793042E+00  0.829402E+00  0.855510E+00  0.873920E+00  0.887013E+00
  0.896485E+00  0.903361E+00  0.908190E+00  0.911146E+00  0.912156E+00  0.911146E+00
  0.908190E+00  0.903361E+00  0.896485E+00  0.904581E+00  0.889466E+00  0.868861E+00
  0.840541E+00  0.802094E+00  0.751702E+00  0.688468E+00  0.612065E+00  0.523636E+00
  0.428559E+00  0.336644E+00  0.257171E+00  0.194964E+00  0.151066E+00  0.124122E+00
  0.111615E+00  0.111615E+00  0.124122E+00  0.151066E+00  0.194964E+00  0.257171E+00
  0.336644E+00  0.428559E+00  0.523636E+00  0.612065E+00  0.688468E+00  0.751702E+00
  0.802094E+00  0.840541E+00  0.868861E+00  0.889466E+00  0.904581E+00  0.915757E+00
  0.923845E+00  0.929192E+00  0.931873E+00  0.931873E+00  0.929192E+00  0.923845E+00
  0.915757E+00  0.904581E+00  0.901992E+00  0.881083E+00  0.852350E+00  0.813565E+00
  0.762783E+00  0.698642E+00  0.620460E+00  0.529505E+00  0.431556E+00  0.336644E+00
  0.253862E+00  0.187755E+00  0.139645E+00  0.108730E+00  0.922641E-01  0.872067E-01
  0.922641E-01  0.108730E+00  0.139645E+00  0.187755E+00  0.253862E+00  0.336644E+00
  0.431556E+00  0.529505E+00  0.620460E+00  0.698642E+00  0.762783E+00  0.813565E+00
  0.852350E+00  0.881083E+00  0.901992E+00  0.917075E+00  0.927781E+00  0.934999E+00
  0.939195E+00  0.940576E+00  0.939195E+00  0.934999E+00  0.927781E+00  0.917075E+00
  0.901992E+00  0.890710E+00  0.862883E+00  0.825316E+00  0.775934E+00  0.712770E+00
  0.634458E+00  0.542026E+00  0.441462E+00  0.343291E+00  0.257171E+00  0.187755E+00
  0.136077E+00  0.101444E+00  0.813843E-01  0.725201E-01  0.725201E-01  0.813843E-01
  0.101444E+00  0.136077E+00  0.187755E+00  0.257171E+00  0.343291E+00  0.441462E+00
  0.542026E+00  0.634458E+00  0.712770E+00  0.775934E+00  0.825316E+00  0.862883E+00
  0.890710E+00  0.910820E+00  0.924990E+00  0.934591E+00  0.940551E+00  0.943411E+00
  0.943411E+00  0.940551E+00  0.934591E+00  0.924990E+00  0.910820E+00  0.890710E+00
  0.871845E+00  0.836424E+00  0.789479E+00  0.728674E+00  0.652157E+00  0.560514E+00
  0.459218E+00  0.358416E+00  0.268374E+00  0.194964E+00  0.139645E+00  0.101444E+00
  0.778605E-01  0.655740E-01  0.618261E-01  0.655740E-01  0.778605E-01  0.101444E+00
  0.139645E+00  0.194964E+00  0.268374E+00  0.358416E+00  0.459218E+00  0.560514E+00
  0.652157E+00  0.728674E+00  0.789479E+00  0.836424E+00  0.871845E+00  0.897899E+00
  0.916503E+00  0.929303E+00  0.937586E+00  0.942229E+00  0.943725E+00  0.942229E+00
  0.937586E+00  0.929303E+00  0.916503E+00  0.897899E+00  0.871845E+00  0.847178E+00
  0.803188E+00  0.745330E+00  0.671757E+00  0.583011E+00  0.483816E+00  0.382801E+00
  0.289519E+00  0.211179E+00  0.151066E+00  0.108730E+00  0.813843E-01  0.655740E-01
  0.584434E-01  0.584434E-01  0.655740E-01  0.813843E-01  0.108730E+00  0.151066E+00
  0.211179E+00  0.289519E+00  0.382801E+00  0.483816E+00  0.583011E+00  0.671757E+00
  0.745330E+00  0.803188E+00  0.847178E+00  0.879791E+00  0.903363E+00  0.919885E+00
  0.930951E+00  0.937725E+00  0.940938E+00  0.940938E+00  0.937725E+00  0.930951E+00
  0.919885E+00  0.903363E+00  0.879791E+00  0.847178E+00  0.817138E+00  0.763046E+00
  0.693413E+00  0.608913E+00  0.513817E+00  0.415170E+00  0.320781E+00  0.237906E+00
  0.171875E+00  0.124122E+00  0.922641E-01  0.725201E-01  0.618261E-01  0.584434E-01
  0.618261E-01  0.725201E-01  0.922641E-01  0.124122E+00  0.171875E+00  0.237906E+00
  0.320781E+00  0.415170E+00  0.513817E+00  0.608913E+00  0.693413E+00  0.763046E+00
  0.817138E+00  0.857485E+00  0.886743E+00  0.907443E+00  0.921634E+00  0.930811E+00
  0.935958E+00  0.937617E+00  0.935958E+00  0.930811E+00  0.921634E+00  0.907443E+00
  0.886743E+00  0.857485E+00  0.817138E+00  0.781454E+00  0.717638E+00  0.639113E+00
  0.549350E+00  0.454340E+00  0.360708E+00  0.274993E+00  0.203313E+00  0.149139E+00
  0.111615E+00  0.872067E-01  0.725201E-01  0.655740E-01  0.655740E-01  0.725201E-01
  0.872067E-01  0.111615E+00  0.149139E+00  0.203313E+00  0.274993E+00  0.360708E+00
  0.454340E+00  0.549350E+00  0.639113E+00  0.717638E+00  0.781454E+00  0.830375E+00
  0.866391E+00  0.892167E+00  0.910135E+00  0.922167E+00  0.929550E+00  0.933061E+00
  0.933061E+00  0.929550E+00  0.922167E+00  0.910135E+00  0.892167E+00  0.866391E+00
  0.830375E+00  0.781454E+00  0.743123E+00  0.673034E+00  0.590561E+00  0.500266E+00
  0.408431E+00  0.321634E+00  0.245980E+00  0.185748E+00  0.141725E+00  0.111615E+00
  0.922641E-01  0.813843E-01  0.778605E-01  0.813843E-01  0.922641E-01  0.111615E+00
  0.141725E+00  0.185748E+00  0.245980E+00  0.321634E+00  0.408431E+00  0.500266E+00
  0.590561E+00  0.673034E+00  0.743123E+00  0.799126E+00  0.841850E+00  0.873354E+00
  0.895915E+00  0.911506E+00  0.921634E+00  0.927322E+00  0.929155E+00  0.927322E+00
  0.921634E+00  0.911506E+00  0.895915E+00  0.873354E+00  0.841850E+00  0.799126E+00
  0.743123E+00  0.707659E+00  0.634974E+00  0.551933E+00  0.463843E+00  0.377787E+00
  0.300356E+00  0.235866E+00  0.185748E+00  0.149139E+00  0.124122E+00  0.108730E+00
  0.101444E+00  0.101444E+00  0.108730E+00  0.124122E+00  0.149139E+00  0.185748E+00
  0.235866E+00  0.300356E+00  0.377787E+00  0.463843E+00  0.551933E+00  0.634974E+00
  0.707659E+00  0.767678E+00  0.815211E+00  0.851685E+00  0.878847E+00  0.898358E+00
  0.911660E+00  0.919885E+00  0.923804E+00  0.923804E+00  0.919885E+00  0.911660E+00
  0.898358E+00  0.878847E+00  0.851685E+00  0.815211E+00  0.767678E+00  0.707659E+00
  0.678452E+00  0.605827E+00  0.525357E+00  0.443280E+00  0.366662E+00  0.300356E+00
  0.245980E+00  0.203313E+00  0.171875E+00  0.151066E+00  0.139645E+00  0.136077E+00
  0.139645E+00  0.151066E+00  0.171875E+00  0.203313E+00  0.245980E+00  0.300356E+00
  0.366662E+00  0.443280E+00  0.525357E+00  0.605827E+00  0.678452E+00  0.740010E+00
  0.790112E+00  0.829785E+00  0.860388E+00  0.883233E+00  0.899533E+00  0.910350E+00
  0.916503E+00  0.918498E+00  0.916503E+00  0.910350E+00  0.899533E+00  0.883233E+00
  0.860388E+00  0.829785E+00  0.790112E+00  0.740010E+00  0.678452E+00  0.657793E+00
  0.588943E+00  0.515483E+00  0.443280E+00  0.377787E+00  0.321634E+00  0.274993E+00
  0.237906E+00  0.211179E+00  0.194964E+00  0.187755E+00  0.187755E+00  0.194964E+00
  0.211179E+00  0.237906E+00  0.274993E+00  0.321634E+00  0.377787E+00  0.443280E+00
  0.515483E+00  0.588943E+00  0.657793E+00  0.718204E+00  0.768851E+00  0.809983E+00
  0.842470E+00  0.867364E+00  0.885756E+00  0.898654E+00  0.906842E+00  0.910820E+00
  0.910820E+00  0.906842E+00  0.898654E+00  0.885756E+00  0.867364E+00  0.842470E+00
  0.809983E+00  0.768851E+00  0.718204E+00  0.657793E+00  0.650001E+00  0.588943E+00
  0.525357E+00  0.463843E+00  0.408431E+00  0.360708E+00  0.320781E+00  0.289519E+00
  0.268374E+00  0.257171E+00  0.253862E+00  0.257171E+00  0.268374E+00  0.289519E+00
  0.320781E+00  0.360708E+00  0.408431E+00  0.463843E+00  0.525357E+00  0.588943E+00
  0.650001E+00  0.705360E+00  0.753494E+00  0.793862E+00  0.826500E+00  0.851943E+00
  0.871116E+00  0.885046E+00  0.894561E+00  0.900145E+00  0.901992E+00  0.900145E+00
  0.894561E+00  0.885046E+00  0.871116E+00  0.851943E+00  0.826500E+00  0.793862E+00
  0.753494E+00  0.705360E+00  0.650001E+00  0.657793E+00  0.605827E+00  0.551933E+00
  0.500266E+00  0.454340E+00  0.415170E+00  0.382801E+00  0.358416E+00  0.343291E+00
  0.336644E+00  0.336644E+00  0.343291E+00  0.358416E+00  0.382801E+00  0.415170E+00
  0.454340E+00  0.500266E+00  0.551933E+00  0.605827E+00  0.657793E+00  0.705360E+00
  0.747656E+00  0.784218E+00  0.814591E+00  0.838692E+00  0.857044E+00  0.870561E+00
  0.880140E+00  0.886366E+00  0.889466E+00  0.889466E+00  0.886366E+00  0.880140E+00
  0.870561E+00  0.857044E+00  0.838692E+00  0.814591E+00  0.784218E+00  0.747656E+00
  0.705360E+00  0.657793E+00  0.678452E+00  0.634974E+00  0.590561E+00  0.549350E+00
  0.513817E+00  0.483816E+00  0.459218E+00  0.441462E+00  0.431556E+00  0.428559E+00
  0.431556E+00  0.441462E+00  0.459218E+00  0.483816E+00  0.513817E+00  0.549350E+00
  0.590561E+00  0.634974E+00  0.678452E+00  0.718204E+00  0.753494E+00  0.784218E+00
  0.810027E+00  0.830641E+00  0.846287E+00  0.857663E+00  0.865620E+00  0.870887E+00
  0.873920E+00  0.874916E+00  0.873920E+00  0.870887E+00  0.865620E+00  0.857663E+00
  0.846287E+00  0.830641E+00  0.810027E+00  0.784218E+00  0.753494E+00  0.718204E+00
  0.678452E+00  0.707659E+00  0.673034E+00  0.639113E+00  0.608913E+00  0.583011E+00
  0.560514E+00  0.542026E+00  0.529505E+00  0.523636E+00  0.523636E+00  0.529505E+00
  0.542026E+00  0.560514E+00  0.583011E+00  0.608913E+00  0.639113E+00  0.673034E+00
  0.707659E+00  0.740010E+00  0.768851E+00  0.793862E+00  0.814591E+00  0.830641E+00
  0.842175E+00  0.849857E+00  0.854517E+00  0.856974E+00  0.858014E+00  0.858323E+00
  0.858323E+00  0.858014E+00  0.856974E+00  0.854517E+00  0.849857E+00  0.842175E+00
  0.830641E+00  0.814591E+00  0.793862E+00  0.768851E+00  0.740010E+00  0.707659E+00
  0.743123E+00  0.717638E+00  0.693413E+00  0.671757E+00  0.652157E+00  0.634458E+00
  0.620460E+00  0.612065E+00  0.609407E+00  0.612065E+00  0.620460E+00  0.634458E+00
  0.652157E+00  0.671757E+00  0.693413E+00  0.717638E+00  0.743123E+00  0.767678E+00
  0.790112E+00  0.809983E+00  0.826500E+00  0.838692E+00  0.846287E+00  0.849857E+00
  0.850325E+00  0.848647E+00  0.845901E+00  0.843404E+00  0.842395E+00  0.843404E+00
  0.845901E+00  0.848647E+00  0.850325E+00  0.849857E+00  0.846287E+00  0.838692E+00
  0.826500E+00  0.809983E+00  0.790112E+00  0.767678E+00  0.743123E+00  0.781454E+00
  0.763046E+00  0.745330E+00  0.728674E+00  0.712770E+00  0.698642E+00  0.688468E+00
  0.683457E+00  0.683457E+00  0.688468E+00  0.698642E+00  0.712770E+00  0.728674E+00
  0.745330E+00  0.763046E+00  0.781454E+00  0.799126E+00  0.815211E+00  0.829785E+00
  0.842470E+00  0.851943E+00  0.857044E+00  0.857663E+00  0.854517E+00  0.848647E+00
  0.841364E+00  0.834502E+00  0.830264E+00  0.830264E+00  0.834502E+00  0.841364E+00
  0.848647E+00  0.854517E+00  0.857663E+00  0.857044E+00  0.851943E+00  0.842470E+00
  0.829785E+00  0.815211E+00  0.799126E+00  0.781454E+00  0.817138E+00  0.803188E+00
  0.789479E+00  0.775934E+00  0.762783E+00  0.751702E+00  0.744625E+00  0.742273E+00
  0.744625E+00  0.751702E+00  0.762783E+00  0.775934E+00  0.789479E+00  0.803188E+00
  0.817138E+00  0.830375E+00  0.841850E+00  0.851685E+00  0.860388E+00  0.867364E+00
  0.871116E+00  0.870561E+00  0.865620E+00  0.856974E+00  0.845901E+00  0.834502E+00
  0.825711E+00  0.822375E+00  0.825711E+00  0.834502E+00  0.845901E+00  0.856974E+00
  0.865620E+00  0.870561E+00  0.871116E+00  0.867364E+00  0.860388E+00  0.851685E+00
  0.841850E+00  0.830375E+00  0.817138E+00  0.847178E+00  0.836424E+00  0.825316E+00
  0.813565E+00  0.802094E+00  0.793042E+00  0.788194E+00  0.788194E+00  0.793042E+00
  0.802094E+00  0.813565E+00  0.825316E+00  0.836424E+00  0.847178E+00  0.857485E+00
  0.866391E+00  0.873354E+00  0.878847E+00  0.883233E+00  0.885756E+00  0.885046E+00
  0.880140E+00  0.870887E+00  0.858014E+00  0.843404E+00  0.830264E+00  0.822375E+00
  0.822375E+00  0.830264E+00  0.843404E+00  0.858014E+00  0.870887E+00  0.880140E+00
  0.885046E+00  0.885756E+00  0.883233E+00  0.878847E+00  0.873354E+00  0.866391E+00
  0.857485E+00  0.847178E+00  0.871845E+00  0.862883E+00  0.852350E+00  0.840541E+00
  0.829402E+00  0.821545E+00  0.818748E+00  0.821545E+00  0.829402E+00  0.840541E+00
  0.852350E+00  0.862883E+00  0.871845E+00  0.879791E+00  0.886743E+00  0.892167E+00
  0.895915E+00  0.898358E+00  0.899533E+00  0.898654E+00  0.894561E+00  0.886366E+00
  0.873920E+00  0.858323E+00  0.842395E+00  0.830264E+00  0.825711E+00  0.830264E+00
  0.842395E+00  0.858323E+00  0.873920E+00  0.886366E+00  0.894561E+00  0.898654E+00
  0.899533E+00  0.898358E+00  0.895915E+00  0.892167E+00  0.886743E+00  0.879791E+00
  0.871845E+00  0.890710E+00  0.881083E+00  0.868861E+00  0.855510E+00  0.843999E+00
  0.837372E+00  0.837372E+00  0.843999E+00  0.855510E+00  0.868861E+00  0.881083E+00
  0.890710E+00  0.897899E+00  0.903363E+00  0.907443E+00  0.910135E+00  0.911506E+00
  0.911660E+00  0.910350E+00  0.906842E+00  0.900145E+00  0.889466E+00  0.874916E+00
  0.858323E+00  0.843404E+00  0.834502E+00  0.834502E+00  0.843404E+00  0.858323E+00
  0.874916E+00  0.889466E+00  0.900145E+00  0.906842E+00  0.910350E+00  0.911660E+00
  0.911506E+00  0.910135E+00  0.907443E+00  0.903363E+00  0.897899E+00  0.890710E+00
  0.901992E+00  0.889466E+00  0.873920E+00  0.858014E+00  0.845901E+00  0.841364E+00
  0.845901E+00  0.858014E+00  0.873920E+00  0.889466E+00  0.901992E+00  0.910820E+00
  0.916503E+00  0.919885E+00  0.921634E+00  0.922167E+00  0.921634E+00  0.919885E+00
  0.916503E+00  0.910820E+00  0.901992E+00  0.889466E+00  0.873920E+00  0.858014E+00
  0.845901E+00  0.841364E+00  0.845901E+00  0.858014E+00  0.873920E+00  0.889466E+00
  0.901992E+00  0.910820E+00  0.916503E+00  0.919885E+00  0.921634E+00  0.922167E+00
  0.921634E+00  0.919885E+00  0.916503E+00  0.910820E+00  0.901992E+00  0.904581E+00
  0.887013E+00  0.865726E+00  0.845242E+00  0.832366E+00  0.832366E+00  0.845242E+00
  0.865726E+00  0.887013E+00  0.904581E+00  0.917075E+00  0.924990E+00  0.929303E+00
  0.930951E+00  0.930811E+00  0.929550E+00  0.927322E+00  0.923804E+00  0.918498E+00
  0.910820E+00  0.900145E+00  0.886366E+00  0.870887E+00  0.856974E+00  0.848647E+00
  0.848647E+00  0.856974E+00  0.870887E+00  0.886366E+00  0.900145E+00  0.910820E+00
  0.918498E+00  0.923804E+00  0.927322E+00  0.929550E+00  0.930811E+00  0.930951E+00
  0.929303E+00  0.924990E+00  0.917075E+00  0.904581E+00  0.896485E+00  0.868573E+00
  0.834759E+00  0.805035E+00  0.792954E+00  0.805035E+00  0.834759E+00  0.868573E+00
  0.896485E+00  0.915757E+00  0.927781E+00  0.934591E+00  0.937586E+00  0.937725E+00
  0.935958E+00  0.933061E+00  0.929155E+00  0.923804E+00  0.916503E+00  0.906842E+00
  0.894561E+00  0.880140E+00  0.865620E+00  0.854517E+00  0.850325E+00  0.854517E+00
  0.865620E+00  0.880140E+00  0.894561E+00  0.906842E+00  0.916503E+00  0.923804E+00
  0.929155E+00  0.933061E+00  0.935958E+00  0.937725E+00  0.937586E+00  0.934591E+00
  0.927781E+00  0.915757E+00  0.896485E+00  0.867806E+00  0.813633E+00  0.750279E+00
  0.705363E+00  0.705363E+00  0.750279E+00  0.813633E+00  0.867806E+00  0.903361E+00
  0.923845E+00  0.934999E+00  0.940551E+00  0.942229E+00  0.940938E+00  0.937617E+00
  0.933061E+00  0.927322E+00  0.919885E+00  0.910350E+00  0.898654E+00  0.885046E+00
  0.870561E+00  0.857663E+00  0.849857E+00  0.849857E+00  0.857663E+00  0.870561E+00
  0.885046E+00  0.898654E+00  0.910350E+00  0.919885E+00  0.927322E+00  0.933061E+00
  0.937617E+00  0.940938E+00  0.942229E+00  0.940551E+00  0.934999E+00  0.923845E+00
  0.903361E+00  0.867806E+00  0.783885E+00  0.662403E+00  0.545248E+00  0.497572E+00
  0.545248E+00  0.662403E+00  0.783885E+00  0.865110E+00  0.908190E+00  0.929192E+00
  0.939195E+00  0.943411E+00  0.943725E+00  0.940938E+00  0.935958E+00  0.929550E+00
  0.921634E+00  0.911660E+00  0.899533E+00  0.885756E+00  0.871116E+00  0.857044E+00
  0.846287E+00  0.842175E+00  0.846287E+00  0.857044E+00  0.871116E+00  0.885756E+00
  0.899533E+00  0.911660E+00  0.921634E+00  0.929550E+00  0.935958E+00  0.940938E+00
  0.943725E+00  0.943411E+00  0.939195E+00  0.929192E+00  0.908190E+00  0.865110E+00
  0.783885E+00  0.555030E+00  0.340468E+00  0.224906E+00  0.224906E+00  0.340468E+00
  0.555030E+00  0.752692E+00  0.862387E+00  0.911146E+00  0.931873E+00  0.940576E+00
  0.943411E+00  0.942229E+00  0.937725E+00  0.930811E+00  0.922167E+00  0.911506E+00
  0.898358E+00  0.883233E+00  0.867364E+00  0.851943E+00  0.838692E+00  0.830641E+00
  0.830641E+00  0.838692E+00  0.851943E+00  0.867364E+00  0.883233E+00  0.898358E+00
  0.911506E+00  0.922167E+00  0.930811E+00  0.937725E+00  0.942229E+00  0.943411E+00
  0.940576E+00  0.931873E+00  0.911146E+00  0.862387E+00  0.752692E+00  0.555030E+00
  0.184365E+00  0.628891E-01  0.383526E-01  0.628891E-01  0.184365E+00  0.463322E+00
  0.729812E+00  0.860868E+00  0.912156E+00  0.931873E+00  0.939195E+00  0.940551E+00
  0.937586E+00  0.930951E+00  0.921634E+00  0.910135E+00  0.895915E+00  0.878847E+00
  0.860388E+00  0.842470E+00  0.826500E+00  0.814591E+00  0.810027E+00  0.814591E+00
  0.826500E+00  0.842470E+00  0.860388E+00  0.878847E+00  0.895915E+00  0.910135E+00
  0.921634E+00  0.930951E+00  0.937586E+00  0.940551E+00  0.939195E+00  0.931873E+00
  0.912156E+00  0.860868E+00  0.729812E+00  0.463322E+00  0.184365E+00  0.162960E-01
  0.320998E-02  0.320998E-02  0.162960E-01  0.111349E+00  0.414598E+00  0.721640E+00
  0.860868E+00  0.911146E+00  0.929192E+00  0.934999E+00  0.934591E+00  0.929303E+00
  0.919885E+00  0.907443E+00  0.892167E+00  0.873354E+00  0.851685E+00  0.829785E+00
  0.809983E+00  0.793862E+00  0.784218E+00  0.784218E+00  0.793862E+00  0.809983E+00
  0.829785E+00  0.851685E+00  0.873354E+00  0.892167E+00  0.907443E+00  0.919885E+00
  0.929303E+00  0.934591E+00  0.934999E+00  0.929192E+00  0.911146E+00  0.860868E+00
  0.721640E+00  0.414598E+00  0.111349E+00  0.162960E-01  0.251523E-03  0.331649E-04
  0.251523E-03  0.694926E-02  0.924047E-01  0.414598E+00  0.729812E+00  0.862387E+00
  0.908190E+00  0.923845E+00  0.927781E+00  0.924990E+00  0.916503E+00  0.903363E+00
  0.886743E+00  0.866391E+00  0.841850E+00  0.815211E+00  0.790112E+00  0.768851E+00
  0.753494E+00  0.747656E+00  0.753494E+00  0.768851E+00  0.790112E+00  0.815211E+00
  0.841850E+00  0.866391E+00  0.886743E+00  0.903363E+00  0.916503E+00  0.924990E+00
  0.927781E+00  0.923845E+00  0.908190E+00  0.862387E+00  0.729812E+00  0.414598E+00
  0.924047E-01  0.694926E-02  0.251523E-03  0.130826E-06  0.130826E-06  0.786745E-04
  0.694926E-02  0.111349E+00  0.463322E+00  0.752692E+00  0.865110E+00  0.903361E+00
  0.915757E+00  0.917075E+00  0.910820E+00  0.897899E+00  0.879791E+00  0.857485E+00
  0.830375E+00  0.799126E+00  0.767678E+00  0.740010E+00  0.718204E+00  0.705360E+00
  0.705360E+00  0.718204E+00  0.740010E+00  0.767678E+00  0.799126E+00  0.830375E+00
  0.857485E+00  0.879791E+00  0.897899E+00  0.910820E+00  0.917075E+00  0.915757E+00
  0.903361E+00  0.865110E+00  0.752692E+00  0.463322E+00  0.111349E+00  0.694926E-02
  0.786745E-04  0.130826E-06  0.994835E-10  0.130826E-06  0.251523E-03  0.162960E-01
  0.184365E+00  0.555030E+00  0.783885E+00  0.867806E+00  0.896485E+00  0.904581E+00
  0.901992E+00  0.890710E+00  0.871845E+00  0.847178E+00  0.817138E+00  0.781454E+00
  0.743123E+00  0.707659E+00  0.678452E+00  0.657793E+00  0.650001E+00  0.657793E+00
  0.678452E+00  0.707659E+00  0.743123E+00  0.781454E+00  0.817138E+00  0.847178E+00
  0.871845E+00  0.890710E+00  0.901992E+00  0.904581E+00  0.896485E+00  0.867806E+00
  0.783885E+00  0.555030E+00  0.184365E+00  0.162960E-01  0.251523E-03  0.130826E-06
  0.994835E-10  0.130826E-06  0.331649E-04  0.320998E-02  0.628891E-01  0.340468E+00
  0.662403E+00  0.813633E+00  0.868573E+00  0.887013E+00  0.889466E+00  0.881083E+00
  0.862883E+00  0.836424E+00  0.803188E+00  0.763046E+00  0.717638E+00  0.673034E+00
  0.634974E+00  0.605827E+00  0.588943E+00  0.588943E+00  0.605827E+00  0.634974E+00
  0.673034E+00  0.717638E+00  0.763046E+00  0.803188E+00  0.836424E+00  0.862883E+00
  0.881083E+00  0.889466E+00  0.887013E+00  0.868573E+00  0.813633E+00  0.662403E+00
  0.340468E+00  0.628891E-01  0.320998E-02  0.331649E-04  0.130826E-06  0.130826E-06
  0.331649E-04  0.117003E-02  0.238653E-01  0.184562E+00  0.513969E+00  0.739332E+00
  0.831954E+00  0.865612E+00  0.874916E+00  0.870592E+00  0.854731E+00  0.828254E+00
  0.792887E+00  0.749190E+00  0.697670E+00  0.643594E+00  0.595102E+00  0.556482E+00
  0.529902E+00  0.520024E+00  0.529902E+00  0.556482E+00  0.595102E+00  0.643594E+00
  0.697670E+00  0.749190E+00  0.792887E+00  0.828254E+00  0.854731E+00  0.870592E+00
  0.874916E+00  0.865612E+00  0.831954E+00  0.739332E+00  0.513969E+00  0.184562E+00
  0.238653E-01  0.117003E-02  0.331649E-04  0.494254E-05  0.331649E-04  0.320998E-02
  0.238653E-01  0.139598E+00  0.417858E+00  0.669685E+00  0.793028E+00  0.842014E+00
  0.858323E+00  0.857832E+00  0.844500E+00  0.818968E+00  0.782550E+00  0.736349E+00
  0.680319E+00  0.617943E+00  0.558414E+00  0.509237E+00  0.472759E+00  0.452164E+00
  0.452164E+00  0.472759E+00  0.509237E+00  0.558414E+00  0.617943E+00  0.680319E+00
  0.736349E+00  0.782550E+00  0.818968E+00  0.844500E+00  0.857832E+00  0.858323E+00
  0.842014E+00  0.793028E+00  0.669685E+00  0.417858E+00  0.139598E+00  0.238653E-01
  0.320998E-02  0.763328E-03  0.763328E-03  0.320998E-02  0.628891E-01  0.184562E+00
  0.417858E+00  0.640803E+00  0.766890E+00  0.822790E+00  0.843404E+00  0.845328E+00
  0.833611E+00  0.808848E+00  0.771764E+00  0.723719E+00  0.664777E+00  0.596559E+00
  0.527332E+00  0.467400E+00  0.421131E+00  0.390259E+00  0.379039E+00  0.390259E+00
  0.421131E+00  0.467400E+00  0.527332E+00  0.596559E+00  0.664777E+00  0.723719E+00
  0.771764E+00  0.808848E+00  0.833611E+00  0.845328E+00  0.843404E+00  0.822790E+00
  0.766890E+00  0.640803E+00  0.417858E+00  0.184562E+00  0.628891E-01  0.251451E-01
  0.176054E-01  0.251451E-01  0.628891E-01  0.340468E+00  0.513969E+00  0.669685E+00
  0.766890E+00  0.815292E+00  0.834502E+00  0.836261E+00  0.824632E+00  0.799767E+00
  0.761664E+00  0.711558E+00  0.650093E+00  0.577993E+00  0.501562E+00  0.432080E+00
  0.376666E+00  0.336835E+00  0.315061E+00  0.315061E+00  0.336835E+00  0.376666E+00
  0.432080E+00  0.501562E+00  0.577993E+00  0.650093E+00  0.711558E+00  0.761664E+00
  0.799767E+00  0.824632E+00  0.836261E+00  0.834502E+00  0.815292E+00  0.766890E+00
  0.669685E+00  0.513969E+00  0.340468E+00  0.217618E+00  0.163247E+00  0.163247E+00
  0.217618E+00  0.340468E+00  0.662403E+00  0.739332E+00  0.793028E+00  0.822790E+00
  0.834502E+00  0.832973E+00  0.819690E+00  0.793768E+00  0.754289E+00  0.701843E+00
  0.637412E+00  0.561858E+00  0.480079E+00  0.402850E+00  0.339367E+00  0.292140E+00
  0.261909E+00  0.251278E+00  0.261909E+00  0.292140E+00  0.339367E+00  0.402850E+00
  0.480079E+00  0.561858E+00  0.637412E+00  0.701843E+00  0.754289E+00  0.793768E+00
  0.819690E+00  0.832973E+00  0.834502E+00  0.822790E+00  0.793028E+00  0.739332E+00
  0.662403E+00  0.578953E+00  0.516324E+00  0.493675E+00  0.516324E+00  0.578953E+00
  0.662403E+00  0.813633E+00  0.831954E+00  0.842014E+00  0.843404E+00  0.836261E+00
  0.819690E+00  0.791738E+00  0.750675E+00  0.696193E+00  0.628900E+00  0.549852E+00
  0.463503E+00  0.379937E+00  0.309412E+00  0.255937E+00  0.219479E+00  0.200622E+00
  0.200622E+00  0.219479E+00  0.255937E+00  0.309412E+00  0.379937E+00  0.463503E+00
  0.549852E+00  0.628900E+00  0.696193E+00  0.750675E+00  0.791738E+00  0.819690E+00
  0.836261E+00  0.843404E+00  0.842014E+00  0.831954E+00  0.813633E+00  0.790219E+00
  0.768275E+00  0.755109E+00  0.755109E+00  0.768275E+00  0.790219E+00  0.813633E+00
  0.868573E+00  0.865612E+00  0.858323E+00  0.845328E+00  0.824632E+00  0.793768E+00
  0.750675E+00  0.694472E+00  0.625093E+00  0.543259E+00  0.453165E+00  0.364464E+00
  0.287831E+00  0.228664E+00  0.187277E+00  0.162718E+00  0.154555E+00  0.162718E+00
  0.187277E+00  0.228664E+00  0.287831E+00  0.364464E+00  0.453165E+00  0.543259E+00
  0.625093E+00  0.694472E+00  0.750675E+00  0.793768E+00  0.824632E+00  0.845328E+00
  0.858323E+00  0.865612E+00  0.868573E+00  0.868461E+00  0.866788E+00  0.865091E+00
  0.864412E+00  0.865091E+00  0.866788E+00  0.868461E+00  0.868573E+00  0.887013E+00
  0.874916E+00  0.857832E+00  0.833611E+00  0.799767E+00  0.754289E+00  0.696193E+00
  0.625093E+00  0.541336E+00  0.448723E+00  0.356431E+00  0.275028E+00  0.210714E+00
  0.164771E+00  0.135927E+00  0.122207E+00  0.122207E+00  0.135927E+00  0.164771E+00
  0.210714E+00  0.275028E+00  0.356431E+00  0.448723E+00  0.541336E+00  0.625093E+00
  0.696193E+00  0.754289E+00  0.799767E+00  0.833611E+00  0.857832E+00  0.874916E+00
  0.887013E+00  0.895593E+00  0.901539E+00  0.905338E+00  0.907208E+00  0.907208E+00
  0.905338E+00  0.901539E+00  0.895593E+00  0.887013E+00  0.889466E+00  0.870592E+00
  0.844500E+00  0.808848E+00  0.761664E+00  0.701843E+00  0.628900E+00  0.543259E+00
  0.448723E+00  0.354127E+00  0.269569E+00  0.201218E+00  0.151029E+00  0.118317E+00
  0.100578E+00  0.950581E-01  0.100578E+00  0.118317E+00  0.151029E+00  0.201218E+00
  0.269569E+00  0.354127E+00  0.448723E+00  0.543259E+00  0.628900E+00  0.701843E+00
  0.761664E+00  0.808848E+00  0.844500E+00  0.870592E+00  0.889466E+00  0.903133E+00
  0.912953E+00  0.919677E+00  0.923640E+00  0.924954E+00  0.923640E+00  0.919677E+00
  0.912953E+00  0.903133E+00  0.889466E+00  0.881083E+00  0.854731E+00  0.818968E+00
  0.771764E+00  0.711558E+00  0.637412E+00  0.549852E+00  0.453165E+00  0.356431E+00
  0.269569E+00  0.198370E+00  0.144694E+00  0.108348E+00  0.871398E-01  0.777345E-01
  0.777345E-01  0.871398E-01  0.108348E+00  0.144694E+00  0.198370E+00  0.269569E+00
  0.356431E+00  0.453165E+00  0.549852E+00  0.637412E+00  0.711558E+00  0.771764E+00
  0.818968E+00  0.854731E+00  0.881083E+00  0.900145E+00  0.913714E+00  0.923065E+00
  0.928973E+00  0.931846E+00  0.931846E+00  0.928973E+00  0.923065E+00  0.913714E+00
  0.900145E+00  0.881083E+00  0.862883E+00  0.828254E+00  0.782550E+00  0.723719E+00
  0.650093E+00  0.561858E+00  0.463503E+00  0.364464E+00  0.275028E+00  0.201218E+00
  0.144694E+00  0.105121E+00  0.806154E-01  0.679457E-01  0.641174E-01  0.679457E-01
  0.806154E-01  0.105121E+00  0.144694E+00  0.201218E+00  0.275028E+00  0.364464E+00
  0.463503E+00  0.561858E+00  0.650093E+00  0.723719E+00  0.782550E+00  0.828254E+00
  0.862883E+00  0.888457E+00  0.906842E+00  0.919620E+00  0.927986E+00  0.932723E+00
  0.934258E+00  0.932723E+00  0.927986E+00  0.919620E+00  0.906842E+00  0.888457E+00
  0.862883E+00  0.836424E+00  0.792887E+00  0.736349E+00  0.664777E+00  0.577993E+00
  0.480079E+00  0.379937E+00  0.287831E+00  0.210714E+00  0.151029E+00  0.108348E+00
  0.806154E-01  0.647546E-01  0.577323E-01  0.577323E-01  0.647546E-01  0.806154E-01
  0.108348E+00  0.151029E+00  0.210714E+00  0.287831E+00  0.379937E+00  0.480079E+00
  0.577993E+00  0.664777E+00  0.736349E+00  0.792887E+00  0.836424E+00  0.869220E+00
  0.893280E+00  0.910350E+00  0.921888E+00  0.928995E+00  0.932379E+00  0.932379E+00
  0.928995E+00  0.921888E+00  0.910350E+00  0.893280E+00  0.869220E+00  0.836424E+00
  0.803188E+00  0.749190E+00  0.680319E+00  0.596559E+00  0.501562E+00  0.402850E+00
  0.309412E+00  0.228664E+00  0.164771E+00  0.118317E+00  0.871398E-01  0.679457E-01
  0.577323E-01  0.545480E-01  0.577323E-01  0.679457E-01  0.871398E-01  0.118317E+00
  0.164771E+00  0.228664E+00  0.309412E+00  0.402850E+00  0.501562E+00  0.596559E+00
  0.680319E+00  0.749190E+00  0.803188E+00  0.844211E+00  0.874590E+00  0.896472E+00
  0.911660E+00  0.921554E+00  0.927124E+00  0.928921E+00  0.927124E+00  0.921554E+00
  0.911660E+00  0.896472E+00  0.874590E+00  0.844211E+00  0.803188E+00  0.763046E+00
  0.697670E+00  0.617943E+00  0.527332E+00  0.432080E+00  0.339367E+00  0.255937E+00
  0.187277E+00  0.135927E+00  0.100578E+00  0.777345E-01  0.641174E-01  0.577323E-01
  0.577323E-01  0.641174E-01  0.777345E-01  0.100578E+00  0.135927E+00  0.187277E+00
  0.255937E+00  0.339367E+00  0.432080E+00  0.527332E+00  0.617943E+00  0.697670E+00
  0.763046E+00  0.813794E+00  0.851675E+00  0.879131E+00  0.898465E+00  0.911506E+00
  0.919548E+00  0.923383E+00  0.923383E+00  0.919548E+00  0.911506E+00  0.898465E+00
  0.879131E+00  0.851675E+00  0.813794E+00  0.763046E+00  0.717638E+00  0.643594E+00
  0.558414E+00  0.467400E+00  0.376666E+00  0.292140E+00  0.219479E+00  0.162718E+00
  0.122207E+00  0.950581E-01  0.777345E-01  0.679457E-01  0.647546E-01  0.679457E-01
  0.777345E-01  0.950581E-01  0.122207E+00  0.162718E+00  0.219479E+00  0.292140E+00
  0.376666E+00  0.467400E+00  0.558414E+00  0.643594E+00  0.717638E+00  0.777724E+00
  0.823882E+00  0.857951E+00  0.882324E+00  0.899170E+00  0.910135E+00  0.916312E+00
  0.918307E+00  0.916312E+00  0.910135E+00  0.899170E+00  0.882324E+00  0.857951E+00
  0.823882E+00  0.777724E+00  0.717638E+00  0.673034E+00  0.595102E+00  0.509237E+00
  0.421131E+00  0.336835E+00  0.261909E+00  0.200622E+00  0.154555E+00  0.122207E+00
  0.100578E+00  0.871398E-01  0.806154E-01  0.806154E-01  0.871398E-01  0.100578E+00
  0.122207E+00  0.154555E+00  0.200622E+00  0.261909E+00  0.336835E+00  0.421131E+00
  0.509237E+00  0.595102E+00  0.673034E+00  0.739124E+00  0.792055E+00  0.832599E+00
  0.862563E+00  0.883940E+00  0.898465E+00  0.907443E+00  0.911726E+00  0.911726E+00
  0.907443E+00  0.898465E+00  0.883940E+00  0.862563E+00  0.832599E+00  0.792055E+00
  0.739124E+00  0.673034E+00  0.634974E+00  0.556482E+00  0.472759E+00  0.390259E+00
  0.315061E+00  0.251278E+00  0.200622E+00  0.162718E+00  0.135927E+00  0.118317E+00
  0.108348E+00  0.105121E+00  0.108348E+00  0.118317E+00  0.135927E+00  0.162718E+00
  0.200622E+00  0.251278E+00  0.315061E+00  0.390259E+00  0.472759E+00  0.556482E+00
  0.634974E+00  0.703554E+00  0.760302E+00  0.805428E+00  0.840153E+00  0.865971E+00
  0.884327E+00  0.896472E+00  0.903363E+00  0.905593E+00  0.903363E+00  0.896472E+00
  0.884327E+00  0.865971E+00  0.840153E+00  0.805428E+00  0.760302E+00  0.703554E+00
  0.634974E+00  0.605827E+00  0.529902E+00  0.452164E+00  0.379039E+00  0.315061E+00
  0.261909E+00  0.219479E+00  0.187277E+00  0.164771E+00  0.151029E+00  0.144694E+00
  0.144694E+00  0.151029E+00  0.164771E+00  0.187277E+00  0.219479E+00  0.261909E+00
  0.315061E+00  0.379039E+00  0.452164E+00  0.529902E+00  0.605827E+00  0.674329E+00
  0.732543E+00  0.780106E+00  0.817871E+00  0.846985E+00  0.868584E+00  0.883720E+00
  0.893280E+00  0.897899E+00  0.897899E+00  0.893280E+00  0.883720E+00  0.868584E+00
  0.846985E+00  0.817871E+00  0.780106E+00  0.732543E+00  0.674329E+00  0.605827E+00
  0.588943E+00  0.520024E+00  0.452164E+00  0.390259E+00  0.336835E+00  0.292140E+00
  0.255937E+00  0.228664E+00  0.210714E+00  0.201218E+00  0.198370E+00  0.201218E+00
  0.210714E+00  0.228664E+00  0.255937E+00  0.292140E+00  0.336835E+00  0.390259E+00
  0.452164E+00  0.520024E+00  0.588943E+00  0.653677E+00  0.710722E+00  0.758769E+00
  0.797923E+00  0.828875E+00  0.852525E+00  0.869821E+00  0.881601E+00  0.888457E+00
  0.890710E+00  0.888457E+00  0.881601E+00  0.869821E+00  0.852525E+00  0.828875E+00
  0.797923E+00  0.758769E+00  0.710722E+00  0.653677E+00  0.588943E+00  0.588943E+00
  0.529902E+00  0.472759E+00  0.421131E+00  0.376666E+00  0.339367E+00  0.309412E+00
  0.287831E+00  0.275028E+00  0.269569E+00  0.269569E+00  0.275028E+00  0.287831E+00
  0.309412E+00  0.339367E+00  0.376666E+00  0.421131E+00  0.472759E+00  0.529902E+00
  0.588943E+00  0.645890E+00  0.697879E+00  0.743384E+00  0.781758E+00  0.812902E+00
  0.837206E+00  0.855442E+00  0.868463E+00  0.876906E+00  0.881083E+00  0.881083E+00
  0.876906E+00  0.868463E+00  0.855442E+00  0.837206E+00  0.812902E+00  0.781758E+00
  0.743384E+00  0.697879E+00  0.645890E+00  0.588943E+00  0.605827E+00  0.556482E+00
  0.509237E+00  0.467400E+00  0.432080E+00  0.402850E+00  0.379937E+00  0.364464E+00
  0.356431E+00  0.354127E+00  0.356431E+00  0.364464E+00  0.379937E+00  0.402850E+00
  0.432080E+00  0.467400E+00  0.509237E+00  0.556482E+00  0.605827E+00  0.653677E+00
  0.697879E+00  0.737540E+00  0.772116E+00  0.801086E+00  0.824240E+00  0.841911E+00
  0.854811E+00  0.863649E+00  0.868861E+00  0.870592E+00  0.868861E+00  0.863649E+00
  0.854811E+00  0.841911E+00  0.824240E+00  0.801086E+00  0.772116E+00  0.737540E+00
  0.697879E+00  0.653677E+00  0.605827E+00  0.634974E+00  0.595102E+00  0.558414E+00
  0.527332E+00  0.501562E+00  0.480079E+00  0.463503E+00  0.453165E+00  0.448723E+00
  0.448723E+00  0.453165E+00  0.463503E+00  0.480079E+00  0.501562E+00  0.527332E+00
  0.558414E+00  0.595102E+00  0.634974E+00  0.674329E+00  0.710722E+00  0.743384E+00
  0.772116E+00  0.796581E+00  0.816460E+00  0.831783E+00  0.842981E+00  0.850692E+00
  0.855510E+00  0.857832E+00  0.857832E+00  0.855510E+00  0.850692E+00  0.842981E+00
  0.831783E+00  0.816460E+00  0.796581E+00  0.772116E+00  0.743384E+00  0.710722E+00
  0.674329E+00  0.634974E+00  0.673034E+00  0.643594E+00  0.617943E+00  0.596559E+00
  0.577993E+00  0.561858E+00  0.549852E+00  0.543259E+00  0.541336E+00  0.543259E+00
  0.549852E+00  0.561858E+00  0.577993E+00  0.596559E+00  0.617943E+00  0.643594E+00
  0.673034E+00  0.703554E+00  0.732543E+00  0.758769E+00  0.781758E+00  0.801086E+00
  0.816460E+00  0.827966E+00  0.836001E+00  0.841125E+00  0.843999E+00  0.845328E+00
  0.845694E+00  0.845328E+00  0.843999E+00  0.841125E+00  0.836001E+00  0.827966E+00
  0.816460E+00  0.801086E+00  0.781758E+00  0.758769E+00  0.732543E+00  0.703554E+00
  0.673034E+00  0.717638E+00  0.697670E+00  0.680319E+00  0.664777E+00  0.650093E+00
  0.637412E+00  0.628900E+00  0.625093E+00  0.625093E+00  0.628900E+00  0.637412E+00
  0.650093E+00  0.664777E+00  0.680319E+00  0.697670E+00  0.717638E+00  0.739124E+00
  0.760302E+00  0.780106E+00  0.797923E+00  0.812902E+00  0.824240E+00  0.831783E+00
  0.836001E+00  0.837603E+00  0.837372E+00  0.836261E+00  0.835329E+00  0.835329E+00
  0.836261E+00  0.837372E+00  0.837603E+00  0.836001E+00  0.831783E+00  0.824240E+00
  0.812902E+00  0.797923E+00  0.780106E+00  0.760302E+00  0.739124E+00  0.717638E+00
  0.763046E+00  0.749190E+00  0.736349E+00  0.723719E+00  0.711558E+00  0.701843E+00
  0.696193E+00  0.694472E+00  0.696193E+00  0.701843E+00  0.711558E+00  0.723719E+00
  0.736349E+00  0.749190E+00  0.763046E+00  0.777724E+00  0.792055E+00  0.805428E+00
  0.817871E+00  0.828875E+00  0.837206E+00  0.841911E+00  0.842981E+00  0.841125E+00
  0.837372E+00  0.832973E+00  0.829410E+00  0.828034E+00  0.829410E+00  0.832973E+00
  0.837372E+00  0.841125E+00  0.842981E+00  0.841911E+00  0.837206E+00  0.828875E+00
  0.817871E+00  0.805428E+00  0.792055E+00  0.777724E+00  0.763046E+00  0.803188E+00
  0.792887E+00  0.782550E+00  0.771764E+00  0.761664E+00  0.754289E+00  0.750675E+00
  0.750675E+00  0.754289E+00  0.761664E+00  0.771764E+00  0.782550E+00  0.792887E+00
  0.803188E+00  0.813794E+00  0.823882E+00  0.832599E+00  0.840153E+00  0.846985E+00
  0.852525E+00  0.855442E+00  0.854811E+00  0.850692E+00  0.843999E+00  0.836261E+00
  0.829410E+00  0.825368E+00  0.825368E+00  0.829410E+00  0.836261E+00  0.843999E+00
  0.850692E+00  0.854811E+00  0.855442E+00  0.852525E+00  0.846985E+00  0.840153E+00
  0.832599E+00  0.823882E+00  0.813794E+00  0.803188E+00  0.836424E+00  0.828254E+00
  0.818968E+00  0.808848E+00  0.799767E+00  0.793768E+00  0.791738E+00  0.793768E+00
  0.799767E+00  0.808848E+00  0.818968E+00  0.828254E+00  0.836424E+00  0.844211E+00
  0.851675E+00  0.857951E+00  0.862563E+00  0.865971E+00  0.868584E+00  0.869821E+00
  0.868463E+00  0.863649E+00  0.855510E+00  0.845328E+00  0.835329E+00  0.828034E+00
  0.825368E+00  0.828034E+00  0.835329E+00  0.845328E+00  0.855510E+00  0.863649E+00
  0.868463E+00  0.869821E+00  0.868584E+00  0.865971E+00  0.862563E+00  0.857951E+00
  0.851675E+00  0.844211E+00  0.836424E+00  0.862883E+00  0.854731E+00  0.844500E+00
  0.833611E+00  0.824632E+00  0.819690E+00  0.819690E+00  0.824632E+00  0.833611E+00
  0.844500E+00  0.854731E+00  0.862883E+00  0.869220E+00  0.874590E+00  0.879131E+00
  0.882324E+00  0.883940E+00  0.884327E+00  0.883720E+00  0.881601E+00  0.876906E+00
  0.868861E+00  0.857832E+00  0.845694E+00  0.835329E+00  0.829410E+00  0.829410E+00
  0.835329E+00  0.845694E+00  0.857832E+00  0.868861E+00  0.876906E+00  0.881601E+00
  0.883720E+00  0.884327E+00  0.883940E+00  0.882324E+00  0.879131E+00  0.874590E+00
  0.869220E+00  0.862883E+00  0.881083E+00  0.870592E+00  0.857832E+00  0.845328E+00
  0.836261E+00  0.832973E+00  0.836261E+00  0.845328E+00  0.857832E+00  0.870592E+00
  0.881083E+00  0.888457E+00  0.893280E+00  0.896472E+00  0.898465E+00  0.899170E+00
  0.898465E+00  0.896472E+00  0.893280E+00  0.888457E+00  0.881083E+00  0.870592E+00
  0.857832E+00  0.845328E+00  0.836261E+00  0.832973E+00  0.836261E+00  0.845328E+00
  0.857832E+00  0.870592E+00  0.881083E+00  0.888457E+00  0.893280E+00  0.896472E+00
  0.898465E+00  0.899170E+00  0.898465E+00  0.896472E+00  0.893280E+00  0.888457E+00
  0.881083E+00  0.889466E+00  0.874916E+00  0.858323E+00  0.843404E+00  0.834502E+00
  0.834502E+00  0.843404E+00  0.858323E+00  0.874916E+00  0.889466E+00  0.900145E+00
  0.906842E+00  0.910350E+00  0.911660E+00  0.911506E+00  0.910135E+00  0.907443E+00
  0.903363E+00  0.897899E+00  0.890710E+00  0.881083E+00  0.868861E+00  0.855510E+00
  0.843999E+00  0.837372E+00  0.837372E+00  0.843999E+00  0.855510E+00  0.868861E+00
  0.881083E+00  0.890710E+00  0.897899E+00  0.903363E+00  0.907443E+00  0.910135E+00
  0.911506E+00  0.911660E+00  0.910350E+00  0.906842E+00  0.900145E+00  0.889466E+00
  0.887013E+00  0.865612E+00  0.842014E+00  0.822790E+00  0.815292E+00  0.822790E+00
  0.842014E+00  0.865612E+00  0.887013E+00  0.903133E+00  0.913714E+00  0.919620E+00
  0.921888E+00  0.921554E+00  0.919548E+00  0.916312E+00  0.911726E+00  0.905593E+00
  0.897899E+00  0.888457E+00  0.876906E+00  0.863649E+00  0.850692E+00  0.841125E+00
  0.837603E+00  0.841125E+00  0.850692E+00  0.863649E+00  0.876906E+00  0.888457E+00
  0.897899E+00  0.905593E+00  0.911726E+00  0.916312E+00  0.919548E+00  0.921554E+00
  0.921888E+00  0.919620E+00  0.913714E+00  0.903133E+00  0.887013E+00  0.868573E+00
  0.831954E+00  0.793028E+00  0.766890E+00  0.766890E+00  0.793028E+00  0.831954E+00
  0.868573E+00  0.895593E+00  0.912953E+00  0.923065E+00  0.927986E+00  0.928995E+00
  0.927124E+00  0.923383E+00  0.918307E+00  0.911726E+00  0.903363E+00  0.893280E+00
  0.881601E+00  0.868463E+00  0.854811E+00  0.842981E+00  0.836001E+00  0.836001E+00
  0.842981E+00  0.854811E+00  0.868463E+00  0.881601E+00  0.893280E+00  0.903363E+00
  0.911726E+00  0.918307E+00  0.923383E+00  0.927124E+00  0.928995E+00  0.927986E+00
  0.923065E+00  0.912953E+00  0.895593E+00  0.868573E+00  0.813633E+00  0.739332E+00
  0.669685E+00  0.640803E+00  0.669685E+00  0.739332E+00  0.813633E+00  0.868461E+00
  0.901539E+00  0.919677E+00  0.928973E+00  0.932723E+00  0.932379E+00  0.928921E+00
  0.923383E+00  0.916312E+00  0.907443E+00  0.896472E+00  0.883720E+00  0.869821E+00
  0.855442E+00  0.841911E+00  0.831783E+00  0.827966E+00  0.831783E+00  0.841911E+00
  0.855442E+00  0.869821E+00  0.883720E+00  0.896472E+00  0.907443E+00  0.916312E+00
  0.923383E+00  0.928921E+00  0.932379E+00  0.932723E+00  0.928973E+00  0.919677E+00
  0.901539E+00  0.868461E+00  0.813633E+00  0.662403E+00  0.513969E+00  0.417858E+00
  0.417858E+00  0.513969E+00  0.662403E+00  0.790219E+00  0.866788E+00  0.905338E+00
  0.923640E+00  0.931846E+00  0.934258E+00  0.932379E+00  0.927124E+00  0.919548E+00
  0.910135E+00  0.898465E+00  0.884327E+00  0.868584E+00  0.852525E+00  0.837206E+00
  0.824240E+00  0.816460E+00  0.816460E+00  0.824240E+00  0.837206E+00  0.852525E+00
  0.868584E+00  0.884327E+00  0.898465E+00  0.910135E+00  0.919548E+00  0.927124E+00
  0.932379E+00  0.934258E+00  0.931846E+00  0.923640E+00  0.905338E+00  0.866788E+00
  0.790219E+00  0.662403E+00  0.340468E+00  0.184562E+00  0.139598E+00  0.184562E+00
  0.340468E+00  0.578953E+00  0.768275E+00  0.865091E+00  0.907208E+00  0.924954E+00
  0.931846E+00  0.932723E+00  0.928995E+00  0.921554E+00  0.911506E+00  0.899170E+00
  0.883940E+00  0.865971E+00  0.846985E+00  0.828875E+00  0.812902E+00  0.801086E+00
  0.796581E+00  0.801086E+00  0.812902E+00  0.828875E+00  0.846985E+00  0.865971E+00
  0.883940E+00  0.899170E+00  0.911506E+00  0.921554E+00  0.928995E+00  0.932723E+00
  0.931846E+00  0.924954E+00  0.907208E+00  0.865091E+00  0.768275E+00  0.578953E+00
  0.340468E+00  0.628891E-01  0.238653E-01  0.238653E-01  0.628891E-01  0.217618E+00
  0.516324E+00  0.755109E+00  0.864412E+00  0.907208E+00  0.923640E+00  0.928973E+00
  0.927986E+00  0.921888E+00  0.911660E+00  0.898465E+00  0.882324E+00  0.862563E+00
  0.840153E+00  0.817871E+00  0.797923E+00  0.781758E+00  0.772116E+00  0.772116E+00
  0.781758E+00  0.797923E+00  0.817871E+00  0.840153E+00  0.862563E+00  0.882324E+00
  0.898465E+00  0.911660E+00  0.921888E+00  0.927986E+00  0.928973E+00  0.923640E+00
  0.907208E+00  0.864412E+00  0.755109E+00  0.516324E+00  0.217618E+00  0.628891E-01
  0.320998E-02  0.117003E-02  0.320998E-02  0.251451E-01  0.163247E+00  0.493675E+00
  0.755109E+00  0.865091E+00  0.905338E+00  0.919677E+00  0.923065E+00  0.919620E+00
  0.910350E+00  0.896472E+00  0.879131E+00  0.857951E+00  0.832599E+00  0.805428E+00
  0.780106E+00  0.758769E+00  0.743384E+00  0.737540E+00  0.743384E+00  0.758769E+00
  0.780106E+00  0.805428E+00  0.832599E+00  0.857951E+00  0.879131E+00  0.896472E+00
  0.910350E+00  0.919620E+00  0.923065E+00  0.919677E+00  0.905338E+00  0.865091E+00
  0.755109E+00  0.493675E+00  0.163247E+00  0.251451E-01  0.320998E-02  0.331649E-04
  0.331649E-04  0.763328E-03  0.176054E-01  0.163247E+00  0.516324E+00  0.768275E+00
  0.866788E+00  0.901539E+00  0.912953E+00  0.913714E+00  0.906842E+00  0.893280E+00
  0.874590E+00  0.851675E+00  0.823882E+00  0.792055E+00  0.760302E+00  0.732543E+00
  0.710722E+00  0.697879E+00  0.697879E+00  0.710722E+00  0.732543E+00  0.760302E+00
  0.792055E+00  0.823882E+00  0.851675E+00  0.874590E+00  0.893280E+00  0.906842E+00
  0.913714E+00  0.912953E+00  0.901539E+00  0.866788E+00  0.768275E+00  0.516324E+00
  0.163247E+00  0.176054E-01  0.763328E-03  0.331649E-04  0.130826E-06  0.494254E-05
  0.763328E-03  0.251451E-01  0.217618E+00  0.578953E+00  0.790219E+00  0.868461E+00
  0.895593E+00  0.903133E+00  0.900145E+00  0.888457E+00  0.869220E+00  0.844211E+00
  0.813794E+00  0.777724E+00  0.739124E+00  0.703554E+00  0.674329E+00  0.653677E+00
  0.645890E+00  0.653677E+00  0.674329E+00  0.703554E+00  0.739124E+00  0.777724E+00
  0.813794E+00  0.844211E+00  0.869220E+00  0.888457E+00  0.900145E+00  0.903133E+00
  0.895593E+00  0.868461E+00  0.790219E+00  0.578953E+00  0.217618E+00  0.251451E-01
  0.763328E-03  0.494254E-05  0.130826E-06  0.130826E-06  0.331649E-04  0.320998E-02
  0.628891E-01  0.340468E+00  0.662403E+00  0.813633E+00  0.868573E+00  0.887013E+00
  0.889466E+00  0.881083E+00  0.862883E+00  0.836424E+00  0.803188E+00  0.763046E+00
  0.717638E+00  0.673034E+00  0.634974E+00  0.605827E+00  0.588943E+00  0.588943E+00
  0.605827E+00  0.634974E+00  0.673034E+00  0.717638E+00  0.763046E+00  0.803188E+00
  0.836424E+00  0.862883E+00  0.881083E+00  0.889466E+00  0.887013E+00  0.868573E+00
  0.813633E+00  0.662403E+00  0.340468E+00  0.628891E-01  0.320998E-02  0.331649E-04
  0.130826E-06  0.130826E-06  0.251523E-03  0.320998E-02  0.383526E-01  0.224906E+00
  0.545248E+00  0.750279E+00  0.834759E+00  0.865726E+00  0.873920E+00  0.868861E+00
  0.852350E+00  0.825316E+00  0.789479E+00  0.745330E+00  0.693413E+00  0.639113E+00
  0.590561E+00  0.551933E+00  0.525357E+00  0.515483E+00  0.525357E+00  0.551933E+00
  0.590561E+00  0.639113E+00  0.693413E+00  0.745330E+00  0.789479E+00  0.825316E+00
  0.852350E+00  0.868861E+00  0.873920E+00  0.865726E+00  0.834759E+00  0.750279E+00
  0.545248E+00  0.224906E+00  0.383526E-01  0.320998E-02  0.251523E-03  0.786745E-04
  0.251523E-03  0.320998E-02  0.238653E-01  0.139598E+00  0.417858E+00  0.669685E+00
  0.793028E+00  0.842014E+00  0.858323E+00  0.857832E+00  0.844500E+00  0.818968E+00
  0.782550E+00  0.736349E+00  0.680319E+00  0.617943E+00  0.558414E+00  0.509237E+00
  0.472759E+00  0.452164E+00  0.452164E+00  0.472759E+00  0.509237E+00  0.558414E+00
  0.617943E+00  0.680319E+00  0.736349E+00  0.782550E+00  0.818968E+00  0.844500E+00
  0.857832E+00  0.858323E+00  0.842014E+00  0.793028E+00  0.669685E+00  0.417858E+00
  0.139598E+00  0.238653E-01  0.320998E-02  0.763328E-03  0.763328E-03  0.320998E-02
  0.383526E-01  0.139598E+00  0.370392E+00  0.614737E+00  0.756525E+00  0.819076E+00
  0.842395E+00  0.845694E+00  0.834977E+00  0.811098E+00  0.774789E+00  0.727405E+00
  0.668999E+00  0.601064E+00  0.531810E+00  0.471731E+00  0.425375E+00  0.394471E+00
  0.383239E+00  0.394471E+00  0.425375E+00  0.471731E+00  0.531810E+00  0.601064E+00
  0.668999E+00  0.727405E+00  0.774789E+00  0.811098E+00  0.834977E+00  0.845694E+00
  0.842395E+00  0.819076E+00  0.756525E+00  0.614737E+00  0.370392E+00  0.139598E+00
  0.383526E-01  0.123860E-01  0.786688E-02  0.123860E-01  0.383526E-01  0.224906E+00
  0.417858E+00  0.614737E+00  0.741749E+00  0.804584E+00  0.830264E+00  0.835329E+00
  0.825947E+00  0.803006E+00  0.766647E+00  0.718127E+00  0.658070E+00  0.586874E+00
  0.510505E+00  0.440537E+00  0.384671E+00  0.344582E+00  0.322672E+00  0.322672E+00
  0.344582E+00  0.384671E+00  0.440537E+00  0.510505E+00  0.586874E+00  0.658070E+00
  0.718127E+00  0.766647E+00  0.803006E+00  0.825947E+00  0.835329E+00  0.830264E+00
  0.804584E+00  0.741749E+00  0.614737E+00  0.417858E+00  0.224906E+00  0.113677E+00
  0.728189E-01  0.728189E-01  0.113677E+00  0.224906E+00  0.545248E+00  0.669685E+00
  0.756525E+00  0.804584E+00  0.825711E+00  0.829410E+00  0.819684E+00  0.796707E+00
  0.759861E+00  0.709869E+00  0.647830E+00  0.574204E+00  0.493075E+00  0.415208E+00
  0.350727E+00  0.302721E+00  0.271949E+00  0.261101E+00  0.271949E+00  0.302721E+00
  0.350727E+00  0.415208E+00  0.493075E+00  0.574204E+00  0.647830E+00  0.709869E+00
  0.759861E+00  0.796707E+00  0.819684E+00  0.829410E+00  0.825711E+00  0.804584E+00
  0.756525E+00  0.669685E+00  0.545248E+00  0.416158E+00  0.326854E+00  0.296564E+00
  0.326854E+00  0.416158E+00  0.545248E+00  0.750279E+00  0.793028E+00  0.819076E+00
  0.830264E+00  0.829410E+00  0.817484E+00  0.793441E+00  0.755803E+00  0.704408E+00
  0.640172E+00  0.563964E+00  0.479172E+00  0.395294E+00  0.323448E+00  0.268613E+00
  0.230999E+00  0.211393E+00  0.211393E+00  0.230999E+00  0.268613E+00  0.323448E+00
  0.395294E+00  0.479172E+00  0.563964E+00  0.640172E+00  0.704408E+00  0.755803E+00
  0.793441E+00  0.817484E+00  0.829410E+00  0.830264E+00  0.819076E+00  0.793028E+00
  0.750279E+00  0.695318E+00  0.642407E+00  0.609979E+00  0.609979E+00  0.642407E+00
  0.695318E+00  0.750279E+00  0.834759E+00  0.842014E+00  0.842395E+00  0.835329E+00
  0.819684E+00  0.793441E+00  0.754539E+00  0.702050E+00  0.636177E+00  0.557648E+00
  0.469715E+00  0.381155E+00  0.303224E+00  0.242401E+00  0.199384E+00  0.173474E+00
  0.164763E+00  0.173474E+00  0.199384E+00  0.242401E+00  0.303224E+00  0.381155E+00
  0.469715E+00  0.557648E+00  0.636177E+00  0.702050E+00  0.754539E+00  0.793441E+00
  0.819684E+00  0.835329E+00  0.842395E+00  0.842014E+00  0.834759E+00  0.821954E+00
  0.806911E+00  0.794686E+00  0.789978E+00  0.794686E+00  0.806911E+00  0.821954E+00
  0.834759E+00  0.865726E+00  0.858323E+00  0.845694E+00  0.825947E+00  0.796707E+00
  0.755803E+00  0.702050E+00  0.635089E+00  0.555094E+00  0.464936E+00  0.372954E+00
  0.290282E+00  0.224264E+00  0.176571E+00  0.146065E+00  0.131269E+00  0.131269E+00
  0.146065E+00  0.176571E+00  0.224264E+00  0.290282E+00  0.372954E+00  0.464936E+00
  0.555094E+00  0.635089E+00  0.702050E+00  0.755803E+00  0.796707E+00  0.825947E+00
  0.845694E+00  0.858323E+00  0.865726E+00  0.869270E+00  0.870177E+00  0.869747E+00
  0.869175E+00  0.869175E+00  0.869747E+00  0.870177E+00  0.869270E+00  0.865726E+00
  0.873920E+00  0.857832E+00  0.834977E+00  0.803006E+00  0.759861E+00  0.704408E+00
  0.636177E+00  0.555094E+00  0.463627E+00  0.369580E+00  0.283712E+00  0.213582E+00
  0.161678E+00  0.127329E+00  0.108313E+00  0.102303E+00  0.108313E+00  0.127329E+00
  0.161678E+00  0.213582E+00  0.283712E+00  0.369580E+00  0.463627E+00  0.555094E+00
  0.636177E+00  0.704408E+00  0.759861E+00  0.803006E+00  0.834977E+00  0.857832E+00
  0.873920E+00  0.885191E+00  0.892974E+00  0.898084E+00  0.900993E+00  0.901939E+00
  0.900993E+00  0.898084E+00  0.892974E+00  0.885191E+00  0.873920E+00  0.868861E+00
  0.844500E+00  0.811098E+00  0.766647E+00  0.709869E+00  0.640172E+00  0.557648E+00
  0.464936E+00  0.369580E+00  0.281813E+00  0.208888E+00  0.153497E+00  0.115623E+00
  0.932255E-01  0.831669E-01  0.831669E-01  0.932255E-01  0.115623E+00  0.153497E+00
  0.208888E+00  0.281813E+00  0.369580E+00  0.464936E+00  0.557648E+00  0.640172E+00
  0.709869E+00  0.766647E+00  0.811098E+00  0.844500E+00  0.868861E+00  0.886366E+00
  0.898819E+00  0.907438E+00  0.912918E+00  0.915596E+00  0.915596E+00  0.912918E+00
  0.907438E+00  0.898819E+00  0.886366E+00  0.868861E+00  0.852350E+00  0.818968E+00
  0.774789E+00  0.718127E+00  0.647830E+00  0.563964E+00  0.469715E+00  0.372954E+00
  0.283712E+00  0.208888E+00  0.150922E+00  0.109963E+00  0.844566E-01  0.712556E-01
  0.672720E-01  0.712556E-01  0.844566E-01  0.109963E+00  0.150922E+00  0.208888E+00
  0.283712E+00  0.372954E+00  0.469715E+00  0.563964E+00  0.647830E+00  0.718127E+00
  0.774789E+00  0.818968E+00  0.852350E+00  0.876906E+00  0.894561E+00  0.906902E+00
  0.915058E+00  0.919719E+00  0.921238E+00  0.919719E+00  0.915058E+00  0.906902E+00
  0.894561E+00  0.876906E+00  0.852350E+00  0.825316E+00  0.782550E+00  0.727405E+00
  0.658070E+00  0.574204E+00  0.479172E+00  0.381155E+00  0.290282E+00  0.213582E+00
  0.153497E+00  0.109963E+00  0.815465E-01  0.654275E-01  0.583947E-01  0.583947E-01
  0.654275E-01  0.815465E-01  0.109963E+00  0.153497E+00  0.213582E+00  0.290282E+00
  0.381155E+00  0.479172E+00  0.574204E+00  0.658070E+00  0.727405E+00  0.782550E+00
  0.825316E+00  0.857711E+00  0.881601E+00  0.898654E+00  0.910262E+00  0.917460E+00
  0.920905E+00  0.920905E+00  0.917460E+00  0.910262E+00  0.898654E+00  0.881601E+00
  0.857711E+00  0.825316E+00  0.789479E+00  0.736349E+00  0.668999E+00  0.586874E+00
  0.493075E+00  0.395294E+00  0.303224E+00  0.224264E+00  0.161678E+00  0.115623E+00
  0.844566E-01  0.654275E-01  0.555232E-01  0.524936E-01  0.555232E-01  0.654275E-01
  0.844566E-01  0.115623E+00  0.161678E+00  0.224264E+00  0.303224E+00  0.395294E+00
  0.493075E+00  0.586874E+00  0.668999E+00  0.736349E+00  0.789479E+00  0.830395E+00
  0.861197E+00  0.883720E+00  0.899533E+00  0.909914E+00  0.915783E+00  0.917681E+00
  0.915783E+00  0.909914E+00  0.899533E+00  0.883720E+00  0.861197E+00  0.830395E+00
  0.789479E+00  0.745330E+00  0.680319E+00  0.601064E+00  0.510505E+00  0.415208E+00
  0.323448E+00  0.242401E+00  0.176571E+00  0.127329E+00  0.932255E-01  0.712556E-01
  0.583947E-01  0.524936E-01  0.524936E-01  0.583947E-01  0.712556E-01  0.932255E-01
  0.127329E+00  0.176571E+00  0.242401E+00  0.323448E+00  0.415208E+00  0.510505E+00
  0.601064E+00  0.680319E+00  0.745330E+00  0.796329E+00  0.835101E+00  0.863779E+00
  0.884327E+00  0.898358E+00  0.907074E+00  0.911247E+00  0.911247E+00  0.907074E+00
  0.898358E+00  0.884327E+00  0.863779E+00  0.835101E+00  0.796329E+00  0.745330E+00
  0.693413E+00  0.617943E+00  0.531810E+00  0.440537E+00  0.350727E+00  0.268613E+00
  0.199384E+00  0.146065E+00  0.108313E+00  0.831669E-01  0.672720E-01  0.583947E-01
  0.555232E-01  0.583947E-01  0.672720E-01  0.831669E-01  0.108313E+00  0.146065E+00
  0.199384E+00  0.268613E+00  0.350727E+00  0.440537E+00  0.531810E+00  0.617943E+00
  0.693413E+00  0.755313E+00  0.803499E+00  0.839561E+00  0.865690E+00  0.883940E+00
  0.895915E+00  0.902697E+00  0.904893E+00  0.902697E+00  0.895915E+00  0.883940E+00
  0.865690E+00  0.839561E+00  0.803499E+00  0.755313E+00  0.693413E+00  0.639113E+00
  0.558414E+00  0.471731E+00  0.384671E+00  0.302721E+00  0.230999E+00  0.173474E+00
  0.131269E+00  0.102303E+00  0.831669E-01  0.712556E-01  0.654275E-01  0.654275E-01
  0.712556E-01  0.831669E-01  0.102303E+00  0.131269E+00  0.173474E+00  0.230999E+00
  0.302721E+00  0.384671E+00  0.471731E+00  0.558414E+00  0.639113E+00  0.709199E+00
  0.766286E+00  0.810395E+00  0.843091E+00  0.866439E+00  0.882324E+00  0.892167E+00
  0.896872E+00  0.896872E+00  0.892167E+00  0.882324E+00  0.866439E+00  0.843091E+00
  0.810395E+00  0.766286E+00  0.709199E+00  0.639113E+00  0.590561E+00  0.509237E+00
  0.425375E+00  0.344582E+00  0.271949E+00  0.211393E+00  0.164763E+00  0.131269E+00
  0.108313E+00  0.932255E-01  0.844566E-01  0.815465E-01  0.844566E-01  0.932255E-01
  0.108313E+00  0.131269E+00  0.164763E+00  0.211393E+00  0.271949E+00  0.344582E+00
  0.425375E+00  0.509237E+00  0.590561E+00  0.664254E+00  0.726956E+00  0.777506E+00
  0.816466E+00  0.845300E+00  0.865690E+00  0.879131E+00  0.886743E+00  0.889205E+00
  0.886743E+00  0.879131E+00  0.865690E+00  0.845300E+00  0.816466E+00  0.777506E+00
  0.726956E+00  0.664254E+00  0.590561E+00  0.551933E+00  0.472759E+00  0.394471E+00
  0.322672E+00  0.261101E+00  0.211393E+00  0.173474E+00  0.146065E+00  0.127329E+00
  0.115623E+00  0.109963E+00  0.109963E+00  0.115623E+00  0.127329E+00  0.146065E+00
  0.173474E+00  0.211393E+00  0.261101E+00  0.322672E+00  0.394471E+00  0.472759E+00
  0.551933E+00  0.626109E+00  0.691126E+00  0.745250E+00  0.788535E+00  0.821904E+00
  0.846574E+00  0.863779E+00  0.874590E+00  0.879791E+00  0.879791E+00  0.874590E+00
  0.863779E+00  0.846574E+00  0.821904E+00  0.788535E+00  0.745250E+00  0.691126E+00
  0.626109E+00  0.551933E+00  0.525357E+00  0.452164E+00  0.383239E+00  0.322672E+00
  0.271949E+00  0.230999E+00  0.199384E+00  0.176571E+00  0.161678E+00  0.153497E+00
  0.150922E+00  0.153497E+00  0.161678E+00  0.176571E+00  0.199384E+00  0.230999E+00
  0.271949E+00  0.322672E+00  0.383239E+00  0.452164E+00  0.525357E+00  0.596964E+00
  0.661859E+00  0.717344E+00  0.762906E+00  0.799131E+00  0.826949E+00  0.847340E+00
  0.861197E+00  0.869220E+00  0.871845E+00  0.869220E+00  0.861197E+00  0.847340E+00
  0.826949E+00  0.799131E+00  0.762906E+00  0.717344E+00  0.661859E+00  0.596964E+00
  0.525357E+00  0.515483E+00  0.452164E+00  0.394471E+00  0.344582E+00  0.302721E+00
  0.268613E+00  0.242401E+00  0.224264E+00  0.213582E+00  0.208888E+00  0.208888E+00
  0.213582E+00  0.224264E+00  0.242401E+00  0.268613E+00  0.302721E+00  0.344582E+00
  0.394471E+00  0.452164E+00  0.515483E+00  0.580098E+00  0.641220E+00  0.695483E+00
  0.741444E+00  0.778972E+00  0.808579E+00  0.831057E+00  0.847223E+00  0.857711E+00
  0.862883E+00  0.862883E+00  0.857711E+00  0.847223E+00  0.831057E+00  0.808579E+00
  0.778972E+00  0.741444E+00  0.695483E+00  0.641220E+00  0.580098E+00  0.515483E+00
  0.525357E+00  0.472759E+00  0.425375E+00  0.384671E+00  0.350727E+00  0.323448E+00
  0.303224E+00  0.290282E+00  0.283712E+00  0.281813E+00  0.283712E+00  0.290282E+00
  0.303224E+00  0.323448E+00  0.350727E+00  0.384671E+00  0.425375E+00  0.472759E+00
  0.525357E+00  0.580098E+00  0.633445E+00  0.682634E+00  0.726014E+00  0.762750E+00
  0.792597E+00  0.815850E+00  0.833164E+00  0.845200E+00  0.852350E+00  0.854731E+00
  0.852350E+00  0.845200E+00  0.833164E+00  0.815850E+00  0.792597E+00  0.762750E+00
  0.726014E+00  0.682634E+00  0.633445E+00  0.580098E+00  0.525357E+00  0.551933E+00
  0.509237E+00  0.471731E+00  0.440537E+00  0.415208E+00  0.395294E+00  0.381155E+00
  0.372954E+00  0.369580E+00  0.369580E+00  0.372954E+00  0.381155E+00  0.395294E+00
  0.415208E+00  0.440537E+00  0.471731E+00  0.509237E+00  0.551933E+00  0.596964E+00
  0.641220E+00  0.682634E+00  0.720167E+00  0.753143E+00  0.780953E+00  0.803281E+00
  0.820310E+00  0.832564E+00  0.840541E+00  0.844500E+00  0.844500E+00  0.840541E+00
  0.832564E+00  0.820310E+00  0.803281E+00  0.780953E+00  0.753143E+00  0.720167E+00
  0.682634E+00  0.641220E+00  0.596964E+00  0.551933E+00  0.590561E+00  0.558414E+00
  0.531810E+00  0.510505E+00  0.493075E+00  0.479172E+00  0.469715E+00  0.464936E+00
  0.463627E+00  0.464936E+00  0.469715E+00  0.479172E+00  0.493075E+00  0.510505E+00
  0.531810E+00  0.558414E+00  0.590561E+00  0.626109E+00  0.661859E+00  0.695483E+00
  0.726014E+00  0.753143E+00  0.776565E+00  0.795912E+00  0.811007E+00  0.822024E+00
  0.829402E+00  0.833611E+00  0.834977E+00  0.833611E+00  0.829402E+00  0.822024E+00
  0.811007E+00  0.795912E+00  0.776565E+00  0.753143E+00  0.726014E+00  0.695483E+00
  0.661859E+00  0.626109E+00  0.590561E+00  0.639113E+00  0.617943E+00  0.601064E+00
  0.586874E+00  0.574204E+00  0.563964E+00  0.557648E+00  0.555094E+00  0.555094E+00
  0.557648E+00  0.563964E+00  0.574204E+00  0.586874E+00  0.601064E+00  0.617943E+00
  0.639113E+00  0.664254E+00  0.691126E+00  0.717344E+00  0.741444E+00  0.762750E+00
  0.780953E+00  0.795912E+00  0.807585E+00  0.816039E+00  0.821545E+00  0.824632E+00
  0.825947E+00  0.825947E+00  0.824632E+00  0.821545E+00  0.816039E+00  0.807585E+00
  0.795912E+00  0.780953E+00  0.762750E+00  0.741444E+00  0.717344E+00  0.691126E+00
  0.664254E+00  0.639113E+00  0.693413E+00  0.680319E+00  0.668999E+00  0.658070E+00
  0.647830E+00  0.640172E+00  0.636177E+00  0.635089E+00  0.636177E+00  0.640172E+00
  0.647830E+00  0.658070E+00  0.668999E+00  0.680319E+00  0.693413E+00  0.709199E+00
  0.726956E+00  0.745250E+00  0.762906E+00  0.778972E+00  0.792597E+00  0.803281E+00
  0.811007E+00  0.816039E+00  0.818748E+00  0.819690E+00  0.819684E+00  0.819562E+00
  0.819684E+00  0.819690E+00  0.818748E+00  0.816039E+00  0.811007E+00  0.803281E+00
  0.792597E+00  0.778972E+00  0.762906E+00  0.745250E+00  0.726956E+00  0.709199E+00
  0.693413E+00  0.745330E+00  0.736349E+00  0.727405E+00  0.718127E+00  0.709869E+00
  0.704408E+00  0.702050E+00  0.702050E+00  0.704408E+00  0.709869E+00  0.718127E+00
  0.727405E+00  0.736349E+00  0.745330E+00  0.755313E+00  0.766286E+00  0.777506E+00
  0.788535E+00  0.799131E+00  0.808579E+00  0.815850E+00  0.820310E+00  0.822024E+00
  0.821545E+00  0.819690E+00  0.817484E+00  0.816013E+00  0.816013E+00  0.817484E+00
  0.819690E+00  0.821545E+00  0.822024E+00  0.820310E+00  0.815850E+00  0.808579E+00
  0.799131E+00  0.788535E+00  0.777506E+00  0.766286E+00  0.755313E+00  0.745330E+00
  0.789479E+00  0.782550E+00  0.774789E+00  0.766647E+00  0.759861E+00  0.755803E+00
  0.754539E+00  0.755803E+00  0.759861E+00  0.766647E+00  0.774789E+00  0.782550E+00
  0.789479E+00  0.796329E+00  0.803499E+00  0.810395E+00  0.816466E+00  0.821904E+00
  0.826949E+00  0.831057E+00  0.833164E+00  0.832564E+00  0.829402E+00  0.824632E+00
  0.819684E+00  0.816013E+00  0.814666E+00  0.816013E+00  0.819684E+00  0.824632E+00
  0.829402E+00  0.832564E+00  0.833164E+00  0.831057E+00  0.826949E+00  0.821904E+00
  0.816466E+00  0.810395E+00  0.803499E+00  0.796329E+00  0.789479E+00  0.825316E+00
  0.818968E+00  0.811098E+00  0.803006E+00  0.796707E+00  0.793441E+00  0.793441E+00
  0.796707E+00  0.803006E+00  0.811098E+00  0.818968E+00  0.825316E+00  0.830395E+00
  0.835101E+00  0.839561E+00  0.843091E+00  0.845300E+00  0.846574E+00  0.847340E+00
  0.847223E+00  0.845200E+00  0.840541E+00  0.833611E+00  0.825947E+00  0.819562E+00
  0.816013E+00  0.816013E+00  0.819562E+00  0.825947E+00  0.833611E+00  0.840541E+00
  0.845200E+00  0.847223E+00  0.847340E+00  0.846574E+00  0.845300E+00  0.843091E+00
  0.839561E+00  0.835101E+00  0.830395E+00  0.825316E+00  0.852350E+00  0.844500E+00
  0.834977E+00  0.825947E+00  0.819684E+00  0.817484E+00  0.819684E+00  0.825947E+00
  0.834977E+00  0.844500E+00  0.852350E+00  0.857711E+00  0.861197E+00  0.863779E+00
  0.865690E+00  0.866439E+00  0.865690E+00  0.863779E+00  0.861197E+00  0.857711E+00
  0.852350E+00  0.844500E+00  0.834977E+00  0.825947E+00  0.819684E+00  0.817484E+00
  0.819684E+00  0.825947E+00  0.834977E+00  0.844500E+00  0.852350E+00  0.857711E+00
  0.861197E+00  0.863779E+00  0.865690E+00  0.866439E+00  0.865690E+00  0.863779E+00
  0.861197E+00  0.857711E+00  0.852350E+00  0.868861E+00  0.857832E+00  0.845694E+00
  0.835329E+00  0.829410E+00  0.829410E+00  0.835329E+00  0.845694E+00  0.857832E+00
  0.868861E+00  0.876906E+00  0.881601E+00  0.883720E+00  0.884327E+00  0.883940E+00
  0.882324E+00  0.879131E+00  0.874590E+00  0.869220E+00  0.862883E+00  0.854731E+00
  0.844500E+00  0.833611E+00  0.824632E+00  0.819690E+00  0.819690E+00  0.824632E+00
  0.833611E+00  0.844500E+00  0.854731E+00  0.862883E+00  0.869220E+00  0.874590E+00
  0.879131E+00  0.882324E+00  0.883940E+00  0.884327E+00  0.883720E+00  0.881601E+00
  0.876906E+00  0.868861E+00  0.873920E+00  0.858323E+00  0.842395E+00  0.830264E+00
  0.825711E+00  0.830264E+00  0.842395E+00  0.858323E+00  0.873920E+00  0.886366E+00
  0.894561E+00  0.898654E+00  0.899533E+00  0.898358E+00  0.895915E+00  0.892167E+00
  0.886743E+00  0.879791E+00  0.871845E+00  0.862883E+00  0.852350E+00  0.840541E+00
  0.829402E+00  0.821545E+00  0.818748E+00  0.821545E+00  0.829402E+00  0.840541E+00
  0.852350E+00  0.862883E+00  0.871845E+00  0.879791E+00  0.886743E+00  0.892167E+00
  0.895915E+00  0.898358E+00  0.899533E+00  0.898654E+00  0.894561E+00  0.886366E+00
  0.873920E+00  0.865726E+00  0.842014E+00  0.819076E+00  0.804584E+00  0.804584E+00
  0.819076E+00  0.842014E+00  0.865726E+00  0.885191E+00  0.898819E+00  0.906902E+00
  0.910262E+00  0.909914E+00  0.907074E+00  0.902697E+00  0.896872E+00  0.889205E+00
  0.879791E+00  0.869220E+00  0.857711E+00  0.845200E+00  0.832564E+00  0.822024E+00
  0.816039E+00  0.816039E+00  0.822024E+00  0.832564E+00  0.845200E+00  0.857711E+00
  0.869220E+00  0.879791E+00  0.889205E+00  0.896872E+00  0.902697E+00  0.907074E+00
  0.909914E+00  0.910262E+00  0.906902E+00  0.898819E+00  0.885191E+00  0.865726E+00
  0.834759E+00  0.793028E+00  0.756525E+00  0.741749E+00  0.756525E+00  0.793028E+00
  0.834759E+00  0.869270E+00  0.892974E+00  0.907438E+00  0.915058E+00  0.917460E+00
  0.915783E+00  0.911247E+00  0.904893E+00  0.896872E+00  0.886743E+00  0.874590E+00
  0.861197E+00  0.847223E+00  0.833164E+00  0.820310E+00  0.811007E+00  0.807585E+00
  0.811007E+00  0.820310E+00  0.833164E+00  0.847223E+00  0.861197E+00  0.874590E+00
  0.886743E+00  0.896872E+00  0.904893E+00  0.911247E+00  0.915783E+00  0.917460E+00
  0.915058E+00  0.907438E+00  0.892974E+00  0.869270E+00  0.834759E+00  0.750279E+00
  0.669685E+00  0.614737E+00  0.614737E+00  0.669685E+00  0.750279E+00  0.821954E+00
  0.870177E+00  0.898084E+00  0.912918E+00  0.919719E+00  0.920905E+00  0.917681E+00
  0.911247E+00  0.902697E+00  0.892167E+00  0.879131E+00  0.863779E+00  0.847340E+00
  0.831057E+00  0.815850E+00  0.803281E+00  0.795912E+00  0.795912E+00  0.803281E+00
  0.815850E+00  0.831057E+00  0.847340E+00  0.863779E+00  0.879131E+00  0.892167E+00
  0.902697E+00  0.911247E+00  0.917681E+00  0.920905E+00  0.919719E+00  0.912918E+00
  0.898084E+00  0.870177E+00  0.821954E+00  0.750279E+00  0.545248E+00  0.417858E+00
  0.370392E+00  0.417858E+00  0.545248E+00  0.695318E+00  0.806911E+00  0.869747E+00
  0.900993E+00  0.915596E+00  0.921238E+00  0.920905E+00  0.915783E+00  0.907074E+00
  0.895915E+00  0.882324E+00  0.865690E+00  0.846574E+00  0.826949E+00  0.808579E+00
  0.792597E+00  0.780953E+00  0.776565E+00  0.780953E+00  0.792597E+00  0.808579E+00
  0.826949E+00  0.846574E+00  0.865690E+00  0.882324E+00  0.895915E+00  0.907074E+00
  0.915783E+00  0.920905E+00  0.921238E+00  0.915596E+00  0.900993E+00  0.869747E+00
  0.806911E+00  0.695318E+00  0.545248E+00  0.224906E+00  0.139598E+00  0.139598E+00
  0.224906E+00  0.416158E+00  0.642407E+00  0.794686E+00  0.869175E+00  0.901939E+00
  0.915596E+00  0.919719E+00  0.917460E+00  0.909914E+00  0.898358E+00  0.883940E+00
  0.866439E+00  0.845300E+00  0.821904E+00  0.799131E+00  0.778972E+00  0.762750E+00
  0.753143E+00  0.753143E+00  0.762750E+00  0.778972E+00  0.799131E+00  0.821904E+00
  0.845300E+00  0.866439E+00  0.883940E+00  0.898358E+00  0.909914E+00  0.917460E+00
  0.919719E+00  0.915596E+00  0.901939E+00  0.869175E+00  0.794686E+00  0.642407E+00
  0.416158E+00  0.224906E+00  0.383526E-01  0.238653E-01  0.383526E-01  0.113677E+00
  0.326854E+00  0.609979E+00  0.789978E+00  0.869175E+00  0.900993E+00  0.912918E+00
  0.915058E+00  0.910262E+00  0.899533E+00  0.884327E+00  0.865690E+00  0.843091E+00
  0.816466E+00  0.788535E+00  0.762906E+00  0.741444E+00  0.726014E+00  0.720167E+00
  0.726014E+00  0.741444E+00  0.762906E+00  0.788535E+00  0.816466E+00  0.843091E+00
  0.865690E+00  0.884327E+00  0.899533E+00  0.910262E+00  0.915058E+00  0.912918E+00
  0.900993E+00  0.869175E+00  0.789978E+00  0.609979E+00  0.326854E+00  0.113677E+00
  0.383526E-01  0.320998E-02  0.320998E-02  0.123860E-01  0.728189E-01  0.296564E+00
  0.609979E+00  0.794686E+00  0.869747E+00  0.898084E+00  0.907438E+00  0.906902E+00
  0.898654E+00  0.883720E+00  0.863779E+00  0.839561E+00  0.810395E+00  0.777506E+00
  0.745250E+00  0.717344E+00  0.695483E+00  0.682634E+00  0.682634E+00  0.695483E+00
  0.717344E+00  0.745250E+00  0.777506E+00  0.810395E+00  0.839561E+00  0.863779E+00
  0.883720E+00  0.898654E+00  0.906902E+00  0.907438E+00  0.898084E+00  0.869747E+00
  0.794686E+00  0.609979E+00  0.296564E+00  0.728189E-01  0.123860E-01  0.320998E-02
  0.251523E-03  0.763328E-03  0.786688E-02  0.728189E-01  0.326854E+00  0.642407E+00
  0.806911E+00  0.870177E+00  0.892974E+00  0.898819E+00  0.894561E+00  0.881601E+00
  0.861197E+00  0.835101E+00  0.803499E+00  0.766286E+00  0.726956E+00  0.691126E+00
  0.661859E+00  0.641220E+00  0.633445E+00  0.641220E+00  0.661859E+00  0.691126E+00
  0.726956E+00  0.766286E+00  0.803499E+00  0.835101E+00  0.861197E+00  0.881601E+00
  0.894561E+00  0.898819E+00  0.892974E+00  0.870177E+00  0.806911E+00  0.642407E+00
  0.326854E+00  0.728189E-01  0.786688E-02  0.763328E-03  0.251523E-03  0.786745E-04
  0.763328E-03  0.123860E-01  0.113677E+00  0.416158E+00  0.695318E+00  0.821954E+00
  0.869270E+00  0.885191E+00  0.886366E+00  0.876906E+00  0.857711E+00  0.830395E+00
  0.796329E+00  0.755313E+00  0.709199E+00  0.664254E+00  0.626109E+00  0.596964E+00
  0.580098E+00  0.580098E+00  0.596964E+00  0.626109E+00  0.664254E+00  0.709199E+00
  0.755313E+00  0.796329E+00  0.830395E+00  0.857711E+00  0.876906E+00  0.886366E+00
  0.885191E+00  0.869270E+00  0.821954E+00  0.695318E+00  0.416158E+00  0.113677E+00
  0.123860E-01  0.763328E-03  0.786745E-04  0.786745E-04  0.251523E-03  0.320998E-02
  0.383526E-01  0.224906E+00  0.545248E+00  0.750279E+00  0.834759E+00  0.865726E+00
  0.873920E+00  0.868861E+00  0.852350E+00  0.825316E+00  0.789479E+00  0.745330E+00
  0.693413E+00  0.639113E+00  0.590561E+00  0.551933E+00  0.525357E+00  0.515483E+00
  0.525357E+00  0.551933E+00  0.590561E+00  0.639113E+00  0.693413E+00  0.745330E+00
  0.789479E+00  0.825316E+00  0.852350E+00  0.868861E+00  0.873920E+00  0.865726E+00
  0.834759E+00  0.750279E+00  0.545248E+00  0.224906E+00  0.383526E-01  0.320998E-02
  0.251523E-03  0.786745E-04  0.251523E-03  0.162960E-01  0.628891E-01  0.224906E+00
  0.497572E+00  0.705363E+00  0.805035E+00  0.845242E+00  0.858014E+00  0.855510E+00
  0.840541E+00  0.813565E+00  0.775934E+00  0.728674E+00  0.671757E+00  0.608913E+00
  0.549350E+00  0.500266E+00  0.463843E+00  0.443280E+00  0.443280E+00  0.463843E+00
  0.500266E+00  0.549350E+00  0.608913E+00  0.671757E+00  0.728674E+00  0.775934E+00
  0.813565E+00  0.840541E+00  0.855510E+00  0.858014E+00  0.845242E+00  0.805035E+00
  0.705363E+00  0.497572E+00  0.224906E+00  0.628891E-01  0.162960E-01  0.694926E-02
  0.694926E-02  0.162960E-01  0.628891E-01  0.184562E+00  0.417858E+00  0.640803E+00
  0.766890E+00  0.822790E+00  0.843404E+00  0.845328E+00  0.833611E+00  0.808848E+00
  0.771764E+00  0.723719E+00  0.664777E+00  0.596559E+00  0.527332E+00  0.467400E+00
  0.421131E+00  0.390259E+00  0.379039E+00  0.390259E+00  0.421131E+00  0.467400E+00
  0.527332E+00  0.596559E+00  0.664777E+00  0.723719E+00  0.771764E+00  0.808848E+00
  0.833611E+00  0.845328E+00  0.843404E+00  0.822790E+00  0.766890E+00  0.640803E+00
  0.417858E+00  0.184562E+00  0.628891E-01  0.251451E-01  0.176054E-01  0.251451E-01
  0.628891E-01  0.224906E+00  0.417858E+00  0.614737E+00  0.741749E+00  0.804584E+00
  0.830264E+00  0.835329E+00  0.825947E+00  0.803006E+00  0.766647E+00  0.718127E+00
  0.658070E+00  0.586874E+00  0.510505E+00  0.440537E+00  0.384671E+00  0.344582E+00
  0.322672E+00  0.322672E+00  0.344582E+00  0.384671E+00  0.440537E+00  0.510505E+00
  0.586874E+00  0.658070E+00  0.718127E+00  0.766647E+00  0.803006E+00  0.825947E+00
  0.835329E+00  0.830264E+00  0.804584E+00  0.741749E+00  0.614737E+00  0.417858E+00
  0.224906E+00  0.113677E+00  0.728189E-01  0.728189E-01  0.113677E+00  0.224906E+00
  0.497572E+00  0.640803E+00  0.741749E+00  0.797485E+00  0.822375E+00  0.828034E+00
  0.819562E+00  0.797597E+00  0.761669E+00  0.712551E+00  0.651364E+00  0.578414E+00
  0.497490E+00  0.419363E+00  0.354522E+00  0.306280E+00  0.275379E+00  0.264484E+00
  0.275379E+00  0.306280E+00  0.354522E+00  0.419363E+00  0.497490E+00  0.578414E+00
  0.651364E+00  0.712551E+00  0.761669E+00  0.797597E+00  0.819562E+00  0.828034E+00
  0.822375E+00  0.797485E+00  0.741749E+00  0.640803E+00  0.497572E+00  0.354535E+00
  0.261004E+00  0.230579E+00  0.261004E+00  0.354535E+00  0.497572E+00  0.705363E+00
  0.766890E+00  0.804584E+00  0.822375E+00  0.825368E+00  0.816013E+00  0.794000E+00
  0.758124E+00  0.708367E+00  0.645828E+00  0.571254E+00  0.487377E+00  0.403295E+00
  0.330651E+00  0.275088E+00  0.236971E+00  0.217075E+00  0.217075E+00  0.236971E+00
  0.275088E+00  0.330651E+00  0.403295E+00  0.487377E+00  0.571254E+00  0.645828E+00
  0.708367E+00  0.758124E+00  0.794000E+00  0.816013E+00  0.825368E+00  0.822375E+00
  0.804584E+00  0.766890E+00  0.705363E+00  0.625811E+00  0.549610E+00  0.503559E+00
  0.503559E+00  0.549610E+00  0.625811E+00  0.705363E+00  0.805035E+00  0.822790E+00
  0.830264E+00  0.828034E+00  0.816013E+00  0.792777E+00  0.756457E+00  0.706227E+00
  0.642597E+00  0.566423E+00  0.480256E+00  0.391990E+00  0.313132E+00  0.251103E+00
  0.207057E+00  0.180393E+00  0.171389E+00  0.180393E+00  0.207057E+00  0.251103E+00
  0.313132E+00  0.391990E+00  0.480256E+00  0.566423E+00  0.642597E+00  0.706227E+00
  0.756457E+00  0.792777E+00  0.816013E+00  0.828034E+00  0.830264E+00  0.822790E+00
  0.805035E+00  0.777995E+00  0.746892E+00  0.721424E+00  0.711533E+00  0.721424E+00
  0.746892E+00  0.777995E+00  0.805035E+00  0.845242E+00  0.843404E+00  0.835329E+00
  0.819562E+00  0.794000E+00  0.756457E+00  0.705657E+00  0.641433E+00  0.564183E+00
  0.476271E+00  0.385068E+00  0.301652E+00  0.234262E+00  0.185174E+00  0.153454E+00
  0.137906E+00  0.137906E+00  0.153454E+00  0.185174E+00  0.234262E+00  0.301652E+00
  0.385068E+00  0.476271E+00  0.564183E+00  0.641433E+00  0.705657E+00  0.756457E+00
  0.794000E+00  0.819562E+00  0.835329E+00  0.843404E+00  0.845242E+00  0.841991E+00
  0.835344E+00  0.828034E+00  0.823267E+00  0.823267E+00  0.828034E+00  0.835344E+00
  0.841991E+00  0.845242E+00  0.858014E+00  0.845328E+00  0.825947E+00  0.797597E+00
  0.758124E+00  0.706227E+00  0.641433E+00  0.563643E+00  0.474742E+00  0.381671E+00
  0.295194E+00  0.223749E+00  0.170405E+00  0.134650E+00  0.114535E+00  0.108104E+00
  0.114535E+00  0.134650E+00  0.170405E+00  0.223749E+00  0.295194E+00  0.381671E+00
  0.474742E+00  0.563643E+00  0.641433E+00  0.706227E+00  0.758124E+00  0.797597E+00
  0.825947E+00  0.845328E+00  0.858014E+00  0.865837E+00  0.870166E+00  0.872146E+00
  0.872810E+00  0.872933E+00  0.872810E+00  0.872146E+00  0.870166E+00  0.865837E+00
  0.858014E+00  0.855510E+00  0.833611E+00  0.803006E+00  0.761669E+00  0.708367E+00
  0.642597E+00  0.564183E+00  0.474742E+00  0.380709E+00  0.292422E+00  0.218222E+00
  0.161478E+00  0.122273E+00  0.987199E-01  0.879811E-01  0.879811E-01  0.987199E-01
  0.122273E+00  0.161478E+00  0.218222E+00  0.292422E+00  0.380709E+00  0.474742E+00
  0.564183E+00  0.642597E+00  0.708367E+00  0.761669E+00  0.803006E+00  0.833611E+00
  0.855510E+00  0.870887E+00  0.881525E+00  0.888661E+00  0.893062E+00  0.895165E+00
  0.895165E+00  0.893062E+00  0.888661E+00  0.881525E+00  0.870887E+00  0.855510E+00
  0.840541E+00  0.808848E+00  0.766647E+00  0.712551E+00  0.645828E+00  0.566423E+00
  0.476271E+00  0.381671E+00  0.292422E+00  0.216525E+00  0.157302E+00  0.115149E+00
  0.886433E-01  0.747895E-01  0.705824E-01  0.747895E-01  0.886433E-01  0.115149E+00
  0.157302E+00  0.216525E+00  0.292422E+00  0.381671E+00  0.476271E+00  0.566423E+00
  0.645828E+00  0.712551E+00  0.766647E+00  0.808848E+00  0.840541E+00  0.863649E+00
  0.880140E+00  0.891621E+00  0.899201E+00  0.903537E+00  0.904952E+00  0.903537E+00
  0.899201E+00  0.891621E+00  0.880140E+00  0.863649E+00  0.840541E+00  0.813565E+00
  0.771764E+00  0.718127E+00  0.651364E+00  0.571254E+00  0.480256E+00  0.385068E+00
  0.295194E+00  0.218222E+00  0.157302E+00  0.112804E+00  0.836237E-01  0.670839E-01
  0.598989E-01  0.598989E-01  0.670839E-01  0.836237E-01  0.112804E+00  0.157302E+00
  0.218222E+00  0.295194E+00  0.385068E+00  0.480256E+00  0.571254E+00  0.651364E+00
  0.718127E+00  0.771764E+00  0.813565E+00  0.845200E+00  0.868463E+00  0.885046E+00
  0.896349E+00  0.903380E+00  0.906756E+00  0.906756E+00  0.903380E+00  0.896349E+00
  0.885046E+00  0.868463E+00  0.845200E+00  0.813565E+00  0.775934E+00  0.723719E+00
  0.658070E+00  0.578414E+00  0.487377E+00  0.391990E+00  0.301652E+00  0.223749E+00
  0.161478E+00  0.115149E+00  0.836237E-01  0.645142E-01  0.547408E-01  0.517974E-01
  0.547408E-01  0.645142E-01  0.836237E-01  0.115149E+00  0.161478E+00  0.223749E+00
  0.301652E+00  0.391990E+00  0.487377E+00  0.578414E+00  0.658070E+00  0.723719E+00
  0.775934E+00  0.816484E+00  0.847223E+00  0.869821E+00  0.885756E+00  0.896254E+00
  0.902206E+00  0.904133E+00  0.902206E+00  0.896254E+00  0.885756E+00  0.869821E+00
  0.847223E+00  0.816484E+00  0.775934E+00  0.728674E+00  0.664777E+00  0.586874E+00
  0.497490E+00  0.403295E+00  0.313132E+00  0.234262E+00  0.170405E+00  0.122273E+00
  0.886433E-01  0.670839E-01  0.547408E-01  0.492274E-01  0.492274E-01  0.547408E-01
  0.670839E-01  0.886433E-01  0.122273E+00  0.170405E+00  0.234262E+00  0.313132E+00
  0.403295E+00  0.497490E+00  0.586874E+00  0.664777E+00  0.728674E+00  0.779172E+00
  0.818094E+00  0.847340E+00  0.868584E+00  0.883233E+00  0.892386E+00  0.896781E+00
  0.896781E+00  0.892386E+00  0.883233E+00  0.868584E+00  0.847340E+00  0.818094E+00
  0.779172E+00  0.728674E+00  0.671757E+00  0.596559E+00  0.510505E+00  0.419363E+00
  0.330651E+00  0.251103E+00  0.185174E+00  0.134650E+00  0.987199E-01  0.747895E-01
  0.598989E-01  0.517974E-01  0.492274E-01  0.517974E-01  0.598989E-01  0.747895E-01
  0.987199E-01  0.134650E+00  0.185174E+00  0.251103E+00  0.330651E+00  0.419363E+00
  0.510505E+00  0.596559E+00  0.671757E+00  0.733578E+00  0.782219E+00  0.819245E+00
  0.846574E+00  0.865971E+00  0.878847E+00  0.886192E+00  0.888578E+00  0.886192E+00
  0.878847E+00  0.865971E+00  0.846574E+00  0.819245E+00  0.782219E+00  0.733578E+00
  0.671757E+00  0.608913E+00  0.527332E+00  0.440537E+00  0.354522E+00  0.275088E+00
  0.207057E+00  0.153454E+00  0.114535E+00  0.879811E-01  0.705824E-01  0.598989E-01
  0.547408E-01  0.547408E-01  0.598989E-01  0.705824E-01  0.879811E-01  0.114535E+00
  0.153454E+00  0.207057E+00  0.275088E+00  0.354522E+00  0.440537E+00  0.527332E+00
  0.608913E+00  0.680442E+00  0.739381E+00  0.785531E+00  0.820212E+00  0.845300E+00
  0.862563E+00  0.873354E+00  0.878541E+00  0.878541E+00  0.873354E+00  0.862563E+00
  0.845300E+00  0.820212E+00  0.785531E+00  0.739381E+00  0.680442E+00  0.608913E+00
  0.549350E+00  0.467400E+00  0.384671E+00  0.306280E+00  0.236971E+00  0.180393E+00
  0.137906E+00  0.108104E+00  0.879811E-01  0.747895E-01  0.670839E-01  0.645142E-01
  0.670839E-01  0.747895E-01  0.879811E-01  0.108104E+00  0.137906E+00  0.180393E+00
  0.236971E+00  0.306280E+00  0.384671E+00  0.467400E+00  0.549350E+00  0.625527E+00
  0.691944E+00  0.746479E+00  0.788979E+00  0.820625E+00  0.843091E+00  0.857951E+00
  0.866391E+00  0.869125E+00  0.866391E+00  0.857951E+00  0.843091E+00  0.820625E+00
  0.788979E+00  0.746479E+00  0.691944E+00  0.625527E+00  0.549350E+00  0.500266E+00
  0.421131E+00  0.344582E+00  0.275379E+00  0.217075E+00  0.171389E+00  0.137906E+00
  0.114535E+00  0.987199E-01  0.886433E-01  0.836237E-01  0.836237E-01  0.886433E-01
  0.987199E-01  0.114535E+00  0.137906E+00  0.171389E+00  0.217075E+00  0.275379E+00
  0.344582E+00  0.421131E+00  0.500266E+00  0.576863E+00  0.646469E+00  0.706145E+00
  0.754705E+00  0.792375E+00  0.820212E+00  0.839561E+00  0.851675E+00  0.857485E+00
  0.857485E+00  0.851675E+00  0.839561E+00  0.820212E+00  0.792375E+00  0.754705E+00
  0.706145E+00  0.646469E+00  0.576863E+00  0.500266E+00  0.463843E+00  0.390259E+00
  0.322672E+00  0.264484E+00  0.217075E+00  0.180393E+00  0.153454E+00  0.134650E+00
  0.122273E+00  0.115149E+00  0.112804E+00  0.115149E+00  0.122273E+00  0.134650E+00
  0.153454E+00  0.180393E+00  0.217075E+00  0.264484E+00  0.322672E+00  0.390259E+00
  0.463843E+00  0.538271E+00  0.608249E+00  0.670036E+00  0.721908E+00  0.763623E+00
  0.795758E+00  0.819245E+00  0.835101E+00  0.844211E+00  0.847178E+00  0.844211E+00
  0.835101E+00  0.819245E+00  0.795758E+00  0.763623E+00  0.721908E+00  0.670036E+00
  0.608249E+00  0.538271E+00  0.463843E+00  0.443280E+00  0.379039E+00  0.322672E+00
  0.275379E+00  0.236971E+00  0.207057E+00  0.185174E+00  0.170405E+00  0.161478E+00
  0.157302E+00  0.157302E+00  0.161478E+00  0.170405E+00  0.185174E+00  0.207057E+00
  0.236971E+00  0.275379E+00  0.322672E+00  0.379039E+00  0.443280E+00  0.511744E+00
  0.579136E+00  0.640735E+00  0.693853E+00  0.737684E+00  0.772502E+00  0.799032E+00
  0.818094E+00  0.830395E+00  0.836424E+00  0.836424E+00  0.830395E+00  0.818094E+00
  0.799032E+00  0.772502E+00  0.737684E+00  0.693853E+00  0.640735E+00  0.579136E+00
  0.511744E+00  0.443280E+00  0.443280E+00  0.390259E+00  0.344582E+00  0.306280E+00
  0.275088E+00  0.251103E+00  0.234262E+00  0.223749E+00  0.218222E+00  0.216525E+00
  0.218222E+00  0.223749E+00  0.234262E+00  0.251103E+00  0.275088E+00  0.306280E+00
  0.344582E+00  0.390259E+00  0.443280E+00  0.501898E+00  0.562314E+00  0.620109E+00
  0.671936E+00  0.716076E+00  0.752108E+00  0.780395E+00  0.801637E+00  0.816484E+00
  0.825316E+00  0.828254E+00  0.825316E+00  0.816484E+00  0.801637E+00  0.780395E+00
  0.752108E+00  0.716076E+00  0.671936E+00  0.620109E+00  0.562314E+00  0.501898E+00
  0.443280E+00  0.463843E+00  0.421131E+00  0.384671E+00  0.354522E+00  0.330651E+00
  0.313132E+00  0.301652E+00  0.295194E+00  0.292422E+00  0.292422E+00  0.295194E+00
  0.301652E+00  0.313132E+00  0.330651E+00  0.354522E+00  0.384671E+00  0.421131E+00
  0.463843E+00  0.511744E+00  0.562314E+00  0.612350E+00  0.659087E+00  0.700629E+00
  0.735872E+00  0.764434E+00  0.786564E+00  0.802802E+00  0.813565E+00  0.818968E+00
  0.818968E+00  0.813565E+00  0.802802E+00  0.786564E+00  0.764434E+00  0.735872E+00
  0.700629E+00  0.659087E+00  0.612350E+00  0.562314E+00  0.511744E+00  0.463843E+00
  0.500266E+00  0.467400E+00  0.440537E+00  0.419363E+00  0.403295E+00  0.391990E+00
  0.385068E+00  0.381671E+00  0.380709E+00  0.381671E+00  0.385068E+00  0.391990E+00
  0.403295E+00  0.419363E+00  0.440537E+00  0.467400E+00  0.500266E+00  0.538271E+00
  0.579136E+00  0.620109E+00  0.659087E+00  0.694809E+00  0.726396E+00  0.753104E+00
  0.774528E+00  0.790746E+00  0.802094E+00  0.808848E+00  0.811098E+00  0.808848E+00
  0.802094E+00  0.790746E+00  0.774528E+00  0.753104E+00  0.726396E+00  0.694809E+00
  0.659087E+00  0.620109E+00  0.579136E+00  0.538271E+00  0.500266E+00  0.549350E+00
  0.527332E+00  0.510505E+00  0.497490E+00  0.487377E+00  0.480256E+00  0.476271E+00
  0.474742E+00  0.474742E+00  0.476271E+00  0.480256E+00  0.487377E+00  0.497490E+00
  0.510505E+00  0.527332E+00  0.549350E+00  0.576863E+00  0.608249E+00  0.640735E+00
  0.671936E+00  0.700629E+00  0.726396E+00  0.748922E+00  0.767738E+00  0.782459E+00
  0.793042E+00  0.799767E+00  0.803006E+00  0.803006E+00  0.799767E+00  0.793042E+00
  0.782459E+00  0.767738E+00  0.748922E+00  0.726396E+00  0.700629E+00  0.671936E+00
  0.640735E+00  0.608249E+00  0.576863E+00  0.549350E+00  0.608913E+00  0.596559E+00
  0.586874E+00  0.578414E+00  0.571254E+00  0.566423E+00  0.564183E+00  0.563643E+00
  0.564183E+00  0.566423E+00  0.571254E+00  0.578414E+00  0.586874E+00  0.596559E+00
  0.608913E+00  0.625527E+00  0.646469E+00  0.670036E+00  0.693853E+00  0.716076E+00
  0.735872E+00  0.753104E+00  0.767738E+00  0.779529E+00  0.788194E+00  0.793768E+00
  0.796707E+00  0.797597E+00  0.796707E+00  0.793768E+00  0.788194E+00  0.779529E+00
  0.767738E+00  0.753104E+00  0.735872E+00  0.716076E+00  0.693853E+00  0.670036E+00
  0.646469E+00  0.625527E+00  0.608913E+00  0.671757E+00  0.664777E+00  0.658070E+00
  0.651364E+00  0.645828E+00  0.642597E+00  0.641433E+00  0.641433E+00  0.642597E+00
  0.645828E+00  0.651364E+00  0.658070E+00  0.664777E+00  0.671757E+00  0.680442E+00
  0.691944E+00  0.706145E+00  0.721908E+00  0.737684E+00  0.752108E+00  0.764434E+00
  0.774528E+00  0.782459E+00  0.788194E+00  0.791738E+00  0.793441E+00  0.794000E+00
  0.794000E+00  0.793441E+00  0.791738E+00  0.788194E+00  0.782459E+00  0.774528E+00
  0.764434E+00  0.752108E+00  0.737684E+00  0.721908E+00  0.706145E+00  0.691944E+00
  0.680442E+00  0.671757E+00  0.728674E+00  0.723719E+00  0.718127E+00  0.712551E+00
  0.708367E+00  0.706227E+00  0.705657E+00  0.706227E+00  0.708367E+00  0.712551E+00
  0.718127E+00  0.723719E+00  0.728674E+00  0.733578E+00  0.739381E+00  0.746479E+00
  0.754705E+00  0.763623E+00  0.772502E+00  0.780395E+00  0.786564E+00  0.790746E+00
  0.793042E+00  0.793768E+00  0.793441E+00  0.792777E+00  0.792461E+00  0.792777E+00
  0.793441E+00  0.793768E+00  0.793042E+00  0.790746E+00  0.786564E+00  0.780395E+00
  0.772502E+00  0.763623E+00  0.754705E+00  0.746479E+00  0.739381E+00  0.733578E+00
  0.728674E+00  0.775934E+00  0.771764E+00  0.766647E+00  0.761669E+00  0.758124E+00
  0.756457E+00  0.756457E+00  0.758124E+00  0.761669E+00  0.766647E+00  0.771764E+00
  0.775934E+00  0.779172E+00  0.782219E+00  0.785531E+00  0.788979E+00  0.792375E+00
  0.795758E+00  0.799032E+00  0.801637E+00  0.802802E+00  0.802094E+00  0.799767E+00
  0.796707E+00  0.794000E+00  0.792461E+00  0.792461E+00  0.794000E+00  0.796707E+00
  0.799767E+00  0.802094E+00  0.802802E+00  0.801637E+00  0.799032E+00  0.795758E+00
  0.792375E+00  0.788979E+00  0.785531E+00  0.782219E+00  0.779172E+00  0.775934E+00
  0.813565E+00  0.808848E+00  0.803006E+00  0.797597E+00  0.794000E+00  0.792777E+00
  0.794000E+00  0.797597E+00  0.803006E+00  0.808848E+00  0.813565E+00  0.816484E+00
  0.818094E+00  0.819245E+00  0.820212E+00  0.820625E+00  0.820212E+00  0.819245E+00
  0.818094E+00  0.816484E+00  0.813565E+00  0.808848E+00  0.803006E+00  0.797597E+00
  0.794000E+00  0.792777E+00  0.794000E+00  0.797597E+00  0.803006E+00  0.808848E+00
  0.813565E+00  0.816484E+00  0.818094E+00  0.819245E+00  0.820212E+00  0.820625E+00
  0.820212E+00  0.819245E+00  0.818094E+00  0.816484E+00  0.813565E+00  0.840541E+00
  0.833611E+00  0.825947E+00  0.819562E+00  0.816013E+00  0.816013E+00  0.819562E+00
  0.825947E+00  0.833611E+00  0.840541E+00  0.845200E+00  0.847223E+00  0.847340E+00
  0.846574E+00  0.845300E+00  0.843091E+00  0.839561E+00  0.835101E+00  0.830395E+00
  0.825316E+00  0.818968E+00  0.811098E+00  0.803006E+00  0.796707E+00  0.793441E+00
  0.793441E+00  0.796707E+00  0.803006E+00  0.811098E+00  0.818968E+00  0.825316E+00
  0.830395E+00  0.835101E+00  0.839561E+00  0.843091E+00  0.845300E+00  0.846574E+00
  0.847340E+00  0.847223E+00  0.845200E+00  0.840541E+00  0.855510E+00  0.845328E+00
  0.835329E+00  0.828034E+00  0.825368E+00  0.828034E+00  0.835329E+00  0.845328E+00
  0.855510E+00  0.863649E+00  0.868463E+00  0.869821E+00  0.868584E+00  0.865971E+00
  0.862563E+00  0.857951E+00  0.851675E+00  0.844211E+00  0.836424E+00  0.828254E+00
  0.818968E+00  0.808848E+00  0.799767E+00  0.793768E+00  0.791738E+00  0.793768E+00
  0.799767E+00  0.808848E+00  0.818968E+00  0.828254E+00  0.836424E+00  0.844211E+00
  0.851675E+00  0.857951E+00  0.862563E+00  0.865971E+00  0.868584E+00  0.869821E+00
  0.868463E+00  0.863649E+00  0.855510E+00  0.858014E+00  0.843404E+00  0.830264E+00
  0.822375E+00  0.822375E+00  0.830264E+00  0.843404E+00  0.858014E+00  0.870887E+00
  0.880140E+00  0.885046E+00  0.885756E+00  0.883233E+00  0.878847E+00  0.873354E+00
  0.866391E+00  0.857485E+00  0.847178E+00  0.836424E+00  0.825316E+00  0.813565E+00
  0.802094E+00  0.793042E+00  0.788194E+00  0.788194E+00  0.793042E+00  0.802094E+00
  0.813565E+00  0.825316E+00  0.836424E+00  0.847178E+00  0.857485E+00  0.866391E+00
  0.873354E+00  0.878847E+00  0.883233E+00  0.885756E+00  0.885046E+00  0.880140E+00
  0.870887E+00  0.858014E+00  0.845242E+00  0.822790E+00  0.804584E+00  0.797485E+00
  0.804584E+00  0.822790E+00  0.845242E+00  0.865837E+00  0.881525E+00  0.891621E+00
  0.896349E+00  0.896254E+00  0.892386E+00  0.886192E+00  0.878541E+00  0.869125E+00
  0.857485E+00  0.844211E+00  0.830395E+00  0.816484E+00  0.802802E+00  0.790746E+00
  0.782459E+00  0.779529E+00  0.782459E+00  0.790746E+00  0.802802E+00  0.816484E+00
  0.830395E+00  0.844211E+00  0.857485E+00  0.869125E+00  0.878541E+00  0.886192E+00
  0.892386E+00  0.896254E+00  0.896349E+00  0.891621E+00  0.881525E+00  0.865837E+00
  0.845242E+00  0.805035E+00  0.766890E+00  0.741749E+00  0.741749E+00  0.766890E+00
  0.805035E+00  0.841991E+00  0.870166E+00  0.888661E+00  0.899201E+00  0.903380E+00
  0.902206E+00  0.896781E+00  0.888578E+00  0.878541E+00  0.866391E+00  0.851675E+00
  0.835101E+00  0.818094E+00  0.801637E+00  0.786564E+00  0.774528E+00  0.767738E+00
  0.767738E+00  0.774528E+00  0.786564E+00  0.801637E+00  0.818094E+00  0.835101E+00
  0.851675E+00  0.866391E+00  0.878541E+00  0.888578E+00  0.896781E+00  0.902206E+00
  0.903380E+00  0.899201E+00  0.888661E+00  0.870166E+00  0.841991E+00  0.805035E+00
  0.705363E+00  0.640803E+00  0.614737E+00  0.640803E+00  0.705363E+00  0.777995E+00
  0.835344E+00  0.872146E+00  0.893062E+00  0.903537E+00  0.906756E+00  0.904133E+00
  0.896781E+00  0.886192E+00  0.873354E+00  0.857951E+00  0.839561E+00  0.819245E+00
  0.799032E+00  0.780395E+00  0.764434E+00  0.753104E+00  0.748922E+00  0.753104E+00
  0.764434E+00  0.780395E+00  0.799032E+00  0.819245E+00  0.839561E+00  0.857951E+00
  0.873354E+00  0.886192E+00  0.896781E+00  0.904133E+00  0.906756E+00  0.903537E+00
  0.893062E+00  0.872146E+00  0.835344E+00  0.777995E+00  0.705363E+00  0.497572E+00
  0.417858E+00  0.417858E+00  0.497572E+00  0.625811E+00  0.746892E+00  0.828034E+00
  0.872810E+00  0.895165E+00  0.904952E+00  0.906756E+00  0.902206E+00  0.892386E+00
  0.878847E+00  0.862563E+00  0.843091E+00  0.820212E+00  0.795758E+00  0.772502E+00
  0.752108E+00  0.735872E+00  0.726396E+00  0.726396E+00  0.735872E+00  0.752108E+00
  0.772502E+00  0.795758E+00  0.820212E+00  0.843091E+00  0.862563E+00  0.878847E+00
  0.892386E+00  0.902206E+00  0.906756E+00  0.904952E+00  0.895165E+00  0.872810E+00
  0.828034E+00  0.746892E+00  0.625811E+00  0.497572E+00  0.224906E+00  0.184562E+00
  0.224906E+00  0.354535E+00  0.549610E+00  0.721424E+00  0.823267E+00  0.872933E+00
  0.895165E+00  0.903537E+00  0.903380E+00  0.896254E+00  0.883233E+00  0.865971E+00
  0.845300E+00  0.820625E+00  0.792375E+00  0.763623E+00  0.737684E+00  0.716076E+00
  0.700629E+00  0.694809E+00  0.700629E+00  0.716076E+00  0.737684E+00  0.763623E+00
  0.792375E+00  0.820625E+00  0.845300E+00  0.865971E+00  0.883233E+00  0.896254E+00
  0.903380E+00  0.903537E+00  0.895165E+00  0.872933E+00  0.823267E+00  0.721424E+00
  0.549610E+00  0.354535E+00  0.224906E+00  0.628891E-01  0.628891E-01  0.113677E+00
  0.261004E+00  0.503559E+00  0.711533E+00  0.823267E+00  0.872810E+00  0.893062E+00
  0.899201E+00  0.896349E+00  0.885756E+00  0.868584E+00  0.846574E+00  0.820212E+00
  0.788979E+00  0.754705E+00  0.721908E+00  0.693853E+00  0.671936E+00  0.659087E+00
  0.659087E+00  0.671936E+00  0.693853E+00  0.721908E+00  0.754705E+00  0.788979E+00
  0.820212E+00  0.846574E+00  0.868584E+00  0.885756E+00  0.896349E+00  0.899201E+00
  0.893062E+00  0.872810E+00  0.823267E+00  0.711533E+00  0.503559E+00  0.261004E+00
  0.113677E+00  0.628891E-01  0.162960E-01  0.251451E-01  0.728189E-01  0.230579E+00
  0.503559E+00  0.721424E+00  0.828034E+00  0.872146E+00  0.888661E+00  0.891621E+00
  0.885046E+00  0.869821E+00  0.847340E+00  0.819245E+00  0.785531E+00  0.746479E+00
  0.706145E+00  0.670036E+00  0.640735E+00  0.620109E+00  0.612350E+00  0.620109E+00
  0.640735E+00  0.670036E+00  0.706145E+00  0.746479E+00  0.785531E+00  0.819245E+00
  0.847340E+00  0.869821E+00  0.885046E+00  0.891621E+00  0.888661E+00  0.872146E+00
  0.828034E+00  0.721424E+00  0.503559E+00  0.230579E+00  0.728189E-01  0.251451E-01
  0.162960E-01  0.694926E-02  0.176054E-01  0.728189E-01  0.261004E+00  0.549610E+00
  0.746892E+00  0.835344E+00  0.870166E+00  0.881525E+00  0.880140E+00  0.868463E+00
  0.847223E+00  0.818094E+00  0.782219E+00  0.739381E+00  0.691944E+00  0.646469E+00
  0.608249E+00  0.579136E+00  0.562314E+00  0.562314E+00  0.579136E+00  0.608249E+00
  0.646469E+00  0.691944E+00  0.739381E+00  0.782219E+00  0.818094E+00  0.847223E+00
  0.868463E+00  0.880140E+00  0.881525E+00  0.870166E+00  0.835344E+00  0.746892E+00
  0.549610E+00  0.261004E+00  0.728189E-01  0.176054E-01  0.694926E-02  0.694926E-02
  0.694926E-02  0.251451E-01  0.113677E+00  0.354535E+00  0.625811E+00  0.777995E+00
  0.841991E+00  0.865837E+00  0.870887E+00  0.863649E+00  0.845200E+00  0.816484E+00
  0.779172E+00  0.733578E+00  0.680442E+00  0.625527E+00  0.576863E+00  0.538271E+00
  0.511744E+00  0.501898E+00  0.511744E+00  0.538271E+00  0.576863E+00  0.625527E+00
  0.680442E+00  0.733578E+00  0.779172E+00  0.816484E+00  0.845200E+00  0.863649E+00
  0.870887E+00  0.865837E+00  0.841991E+00  0.777995E+00  0.625811E+00  0.354535E+00
  0.113677E+00  0.251451E-01  0.694926E-02  0.426314E-02  0.694926E-02  0.162960E-01
  0.628891E-01  0.224906E+00  0.497572E+00  0.705363E+00  0.805035E+00  0.845242E+00
  0.858014E+00  0.855510E+00  0.840541E+00  0.813565E+00  0.775934E+00  0.728674E+00
  0.671757E+00  0.608913E+00  0.549350E+00  0.500266E+00  0.463843E+00  0.443280E+00
  0.443280E+00  0.463843E+00  0.500266E+00  0.549350E+00  0.608913E+00  0.671757E+00
  0.728674E+00  0.775934E+00  0.813565E+00  0.840541E+00  0.855510E+00  0.858014E+00
  0.845242E+00  0.805035E+00  0.705363E+00  0.497572E+00  0.224906E+00  0.628891E-01
  0.162960E-01  0.694926E-02  0.694926E-02  0.162960E-01  0.184365E+00  0.340468E+00
  0.545248E+00  0.705363E+00  0.792954E+00  0.832366E+00  0.845901E+00  0.843999E+00
  0.829402E+00  0.802094E+00  0.762783E+00  0.712770E+00  0.652157E+00  0.583011E+00
  0.513817E+00  0.454340E+00  0.408431E+00  0.377787E+00  0.366662E+00  0.377787E+00
  0.408431E+00  0.454340E+00  0.513817E+00  0.583011E+00  0.652157E+00  0.712770E+00
  0.762783E+00  0.802094E+00  0.829402E+00  0.843999E+00  0.845901E+00  0.832366E+00
  0.792954E+00  0.705363E+00  0.545248E+00  0.340468E+00  0.184365E+00  0.111349E+00
  0.924047E-01  0.111349E+00  0.184365E+00  0.340468E+00  0.513969E+00  0.669685E+00
  0.766890E+00  0.815292E+00  0.834502E+00  0.836261E+00  0.824632E+00  0.799767E+00
  0.761664E+00  0.711558E+00  0.650093E+00  0.577993E+00  0.501562E+00  0.432080E+00
  0.376666E+00  0.336835E+00  0.315061E+00  0.315061E+00  0.336835E+00  0.376666E+00
  0.432080E+00  0.501562E+00  0.577993E+00  0.650093E+00  0.711558E+00  0.761664E+00
  0.799767E+00  0.824632E+00  0.836261E+00  0.834502E+00  0.815292E+00  0.766890E+00
  0.669685E+00  0.513969E+00  0.340468E+00  0.217618E+00  0.163247E+00  0.163247E+00
  0.217618E+00  0.340468E+00  0.545248E+00  0.669685E+00  0.756525E+00  0.804584E+00
  0.825711E+00  0.829410E+00  0.819684E+00  0.796707E+00  0.759861E+00  0.709869E+00
  0.647830E+00  0.574204E+00  0.493075E+00  0.415208E+00  0.350727E+00  0.302721E+00
  0.271949E+00  0.261101E+00  0.271949E+00  0.302721E+00  0.350727E+00  0.415208E+00
  0.493075E+00  0.574204E+00  0.647830E+00  0.709869E+00  0.759861E+00  0.796707E+00
  0.819684E+00  0.829410E+00  0.825711E+00  0.804584E+00  0.756525E+00  0.669685E+00
  0.545248E+00  0.416158E+00  0.326854E+00  0.296564E+00  0.326854E+00  0.416158E+00
  0.545248E+00  0.705363E+00  0.766890E+00  0.804584E+00  0.822375E+00  0.825368E+00
  0.816013E+00  0.794000E+00  0.758124E+00  0.708367E+00  0.645828E+00  0.571254E+00
  0.487377E+00  0.403295E+00  0.330651E+00  0.275088E+00  0.236971E+00  0.217075E+00
  0.217075E+00  0.236971E+00  0.275088E+00  0.330651E+00  0.403295E+00  0.487377E+00
  0.571254E+00  0.645828E+00  0.708367E+00  0.758124E+00  0.794000E+00  0.816013E+00
  0.825368E+00  0.822375E+00  0.804584E+00  0.766890E+00  0.705363E+00  0.625811E+00
  0.549610E+00  0.503559E+00  0.503559E+00  0.549610E+00  0.625811E+00  0.705363E+00
  0.792954E+00  0.815292E+00  0.825711E+00  0.825368E+00  0.814666E+00  0.792461E+00
  0.756997E+00  0.707519E+00  0.644672E+00  0.569373E+00  0.483899E+00  0.395767E+00
  0.316554E+00  0.254071E+00  0.209676E+00  0.182783E+00  0.173694E+00  0.182783E+00
  0.209676E+00  0.254071E+00  0.316554E+00  0.395767E+00  0.483899E+00  0.569373E+00
  0.644672E+00  0.707519E+00  0.756997E+00  0.792461E+00  0.814666E+00  0.825368E+00
  0.825711E+00  0.815292E+00  0.792954E+00  0.759459E+00  0.720901E+00  0.689240E+00
  0.676926E+00  0.689240E+00  0.720901E+00  0.759459E+00  0.792954E+00  0.832366E+00
  0.834502E+00  0.829410E+00  0.816013E+00  0.792461E+00  0.756626E+00  0.707249E+00
  0.644356E+00  0.568600E+00  0.482113E+00  0.391563E+00  0.307796E+00  0.239578E+00
  0.189685E+00  0.157337E+00  0.141423E+00  0.141423E+00  0.157337E+00  0.189685E+00
  0.239578E+00  0.307796E+00  0.391563E+00  0.482113E+00  0.568600E+00  0.644356E+00
  0.707249E+00  0.756626E+00  0.792461E+00  0.816013E+00  0.829410E+00  0.834502E+00
  0.832366E+00  0.823902E+00  0.811116E+00  0.797963E+00  0.789531E+00  0.789531E+00
  0.797963E+00  0.811116E+00  0.823902E+00  0.832366E+00  0.845901E+00  0.836261E+00
  0.819684E+00  0.794000E+00  0.756997E+00  0.707249E+00  0.644355E+00  0.568473E+00
  0.481393E+00  0.389399E+00  0.302838E+00  0.230540E+00  0.176133E+00  0.139386E+00
  0.118539E+00  0.111834E+00  0.118539E+00  0.139386E+00  0.176133E+00  0.230540E+00
  0.302838E+00  0.389399E+00  0.481393E+00  0.568473E+00  0.644355E+00  0.707249E+00
  0.756997E+00  0.794000E+00  0.819684E+00  0.836261E+00  0.845901E+00  0.850303E+00
  0.850890E+00  0.849241E+00  0.847174E+00  0.846272E+00  0.847174E+00  0.849241E+00
  0.850890E+00  0.850303E+00  0.845901E+00  0.843999E+00  0.824632E+00  0.796707E+00
  0.758124E+00  0.707519E+00  0.644356E+00  0.568473E+00  0.481219E+00  0.388443E+00
  0.300233E+00  0.225346E+00  0.167611E+00  0.127318E+00  0.102802E+00  0.914953E-01
  0.914953E-01  0.102802E+00  0.127318E+00  0.167611E+00  0.225346E+00  0.300233E+00
  0.388443E+00  0.481219E+00  0.568473E+00  0.644356E+00  0.707519E+00  0.758124E+00
  0.796707E+00  0.824632E+00  0.843999E+00  0.856974E+00  0.865327E+00  0.870384E+00
  0.873142E+00  0.874324E+00  0.874324E+00  0.873142E+00  0.870384E+00  0.865327E+00
  0.856974E+00  0.843999E+00  0.829402E+00  0.799767E+00  0.759861E+00  0.708367E+00
  0.644672E+00  0.568600E+00  0.481393E+00  0.388443E+00  0.299387E+00  0.222906E+00
  0.162867E+00  0.119777E+00  0.923386E-01  0.778040E-01  0.733511E-01  0.778040E-01
  0.923386E-01  0.119777E+00  0.162867E+00  0.222906E+00  0.299387E+00  0.388443E+00
  0.481393E+00  0.568600E+00  0.644672E+00  0.708367E+00  0.759861E+00  0.799767E+00
  0.829402E+00  0.850692E+00  0.865620E+00  0.875814E+00  0.882418E+00  0.886138E+00
  0.887341E+00  0.886138E+00  0.882418E+00  0.875814E+00  0.865620E+00  0.850692E+00
  0.829402E+00  0.802094E+00  0.761664E+00  0.709869E+00  0.645828E+00  0.569373E+00
  0.482113E+00  0.389399E+00  0.300233E+00  0.222906E+00  0.161323E+00  0.116081E+00
  0.861746E-01  0.690849E-01  0.616181E-01  0.616181E-01  0.690849E-01  0.861746E-01
  0.116081E+00  0.161323E+00  0.222906E+00  0.300233E+00  0.389399E+00  0.482113E+00
  0.569373E+00  0.645828E+00  0.709869E+00  0.761664E+00  0.802094E+00  0.832564E+00
  0.854811E+00  0.870561E+00  0.881245E+00  0.887875E+00  0.891056E+00  0.891056E+00
  0.887875E+00  0.881245E+00  0.870561E+00  0.854811E+00  0.832564E+00  0.802094E+00
  0.762783E+00  0.711558E+00  0.647830E+00  0.571254E+00  0.483899E+00  0.391563E+00
  0.302838E+00  0.225346E+00  0.162867E+00  0.116081E+00  0.841093E-01  0.647418E-01
  0.548912E-01  0.519413E-01  0.548912E-01  0.647418E-01  0.841093E-01  0.116081E+00
  0.162867E+00  0.225346E+00  0.302838E+00  0.391563E+00  0.483899E+00  0.571254E+00
  0.647830E+00  0.711558E+00  0.762783E+00  0.802802E+00  0.833164E+00  0.855442E+00
  0.871116E+00  0.881429E+00  0.887273E+00  0.889167E+00  0.887273E+00  0.881429E+00
  0.871116E+00  0.855442E+00  0.833164E+00  0.802802E+00  0.762783E+00  0.712770E+00
  0.650093E+00  0.574204E+00  0.487377E+00  0.395767E+00  0.307796E+00  0.230540E+00
  0.167611E+00  0.119777E+00  0.861746E-01  0.647418E-01  0.526775E-01  0.473963E-01
  0.473963E-01  0.526775E-01  0.647418E-01  0.861746E-01  0.119777E+00  0.167611E+00
  0.230540E+00  0.307796E+00  0.395767E+00  0.487377E+00  0.574204E+00  0.650093E+00
  0.712770E+00  0.762759E+00  0.801637E+00  0.831057E+00  0.852525E+00  0.867364E+00
  0.876646E+00  0.881105E+00  0.881105E+00  0.876646E+00  0.867364E+00  0.852525E+00
  0.831057E+00  0.801637E+00  0.762759E+00  0.712770E+00  0.652157E+00  0.577993E+00
  0.493075E+00  0.403295E+00  0.316554E+00  0.239578E+00  0.176133E+00  0.127318E+00
  0.923386E-01  0.690849E-01  0.548912E-01  0.473963E-01  0.450718E-01  0.473963E-01
  0.548912E-01  0.690849E-01  0.923386E-01  0.127318E+00  0.176133E+00  0.239578E+00
  0.316554E+00  0.403295E+00  0.493075E+00  0.577993E+00  0.652157E+00  0.713258E+00
  0.761703E+00  0.799032E+00  0.826949E+00  0.846985E+00  0.860388E+00  0.868069E+00
  0.870569E+00  0.868069E+00  0.860388E+00  0.846985E+00  0.826949E+00  0.799032E+00
  0.761703E+00  0.713258E+00  0.652157E+00  0.583011E+00  0.501562E+00  0.415208E+00
  0.330651E+00  0.254071E+00  0.189685E+00  0.139386E+00  0.102802E+00  0.778040E-01
  0.616181E-01  0.519413E-01  0.473963E-01  0.473963E-01  0.519413E-01  0.616181E-01
  0.778040E-01  0.102802E+00  0.139386E+00  0.189685E+00  0.254071E+00  0.330651E+00
  0.415208E+00  0.501562E+00  0.583011E+00  0.654443E+00  0.713501E+00  0.760179E+00
  0.795758E+00  0.821904E+00  0.840153E+00  0.851685E+00  0.857267E+00  0.857267E+00
  0.851685E+00  0.840153E+00  0.821904E+00  0.795758E+00  0.760179E+00  0.713501E+00
  0.654443E+00  0.583011E+00  0.513817E+00  0.432080E+00  0.350727E+00  0.275088E+00
  0.209676E+00  0.157337E+00  0.118539E+00  0.914953E-01  0.733511E-01  0.616181E-01
  0.548912E-01  0.526775E-01  0.548912E-01  0.616181E-01  0.733511E-01  0.914953E-01
  0.118539E+00  0.157337E+00  0.209676E+00  0.275088E+00  0.350727E+00  0.432080E+00
  0.513817E+00  0.590640E+00  0.658326E+00  0.714537E+00  0.758897E+00  0.792375E+00
  0.816466E+00  0.832599E+00  0.841850E+00  0.844862E+00  0.841850E+00  0.832599E+00
  0.816466E+00  0.792375E+00  0.758897E+00  0.714537E+00  0.658326E+00  0.590640E+00
  0.513817E+00  0.454340E+00  0.376666E+00  0.302721E+00  0.236971E+00  0.182783E+00
  0.141423E+00  0.111834E+00  0.914953E-01  0.778040E-01  0.690849E-01  0.647418E-01
  0.647418E-01  0.690849E-01  0.778040E-01  0.914953E-01  0.111834E+00  0.141423E+00
  0.182783E+00  0.236971E+00  0.302721E+00  0.376666E+00  0.454340E+00  0.531078E+00
  0.602559E+00  0.665346E+00  0.717435E+00  0.758404E+00  0.788979E+00  0.810395E+00
  0.823882E+00  0.830375E+00  0.830375E+00  0.823882E+00  0.810395E+00  0.788979E+00
  0.758404E+00  0.717435E+00  0.665346E+00  0.602559E+00  0.531078E+00  0.454340E+00
  0.408431E+00  0.336835E+00  0.271949E+00  0.217075E+00  0.173694E+00  0.141423E+00
  0.118539E+00  0.102802E+00  0.923386E-01  0.861746E-01  0.841093E-01  0.861746E-01
  0.923386E-01  0.102802E+00  0.118539E+00  0.141423E+00  0.173694E+00  0.217075E+00
  0.271949E+00  0.336835E+00  0.408431E+00  0.482304E+00  0.553899E+00  0.619366E+00
  0.676045E+00  0.722610E+00  0.758897E+00  0.785531E+00  0.803499E+00  0.813794E+00
  0.817138E+00  0.813794E+00  0.803499E+00  0.785531E+00  0.758897E+00  0.722610E+00
  0.676045E+00  0.619366E+00  0.553899E+00  0.482304E+00  0.408431E+00  0.377787E+00
  0.315061E+00  0.261101E+00  0.217075E+00  0.182783E+00  0.157337E+00  0.139386E+00
  0.127318E+00  0.119777E+00  0.116081E+00  0.116081E+00  0.119777E+00  0.127318E+00
  0.139386E+00  0.157337E+00  0.182783E+00  0.217075E+00  0.261101E+00  0.315061E+00
  0.377787E+00  0.446147E+00  0.515507E+00  0.581188E+00  0.639758E+00  0.689370E+00
  0.729441E+00  0.760179E+00  0.782219E+00  0.796329E+00  0.803188E+00  0.803188E+00
  0.796329E+00  0.782219E+00  0.760179E+00  0.729441E+00  0.689370E+00  0.639758E+00
  0.581188E+00  0.515507E+00  0.446147E+00  0.377787E+00  0.366662E+00  0.315061E+00
  0.271949E+00  0.236971E+00  0.209676E+00  0.189685E+00  0.176133E+00  0.167611E+00
  0.162867E+00  0.161323E+00  0.162867E+00  0.167611E+00  0.176133E+00  0.189685E+00
  0.209676E+00  0.236971E+00  0.271949E+00  0.315061E+00  0.366662E+00  0.425770E+00
  0.489174E+00  0.552194E+00  0.610475E+00  0.661224E+00  0.703281E+00  0.736608E+00
  0.761703E+00  0.779172E+00  0.789479E+00  0.792887E+00  0.789479E+00  0.779172E+00
  0.761703E+00  0.736608E+00  0.703281E+00  0.661224E+00  0.610475E+00  0.552194E+00
  0.489174E+00  0.425770E+00  0.366662E+00  0.377787E+00  0.336835E+00  0.302721E+00
  0.275088E+00  0.254071E+00  0.239578E+00  0.230540E+00  0.225346E+00  0.222906E+00
  0.222906E+00  0.225346E+00  0.230540E+00  0.239578E+00  0.254071E+00  0.275088E+00
  0.302721E+00  0.336835E+00  0.377787E+00  0.425770E+00  0.479423E+00  0.535488E+00
  0.589921E+00  0.639315E+00  0.681606E+00  0.716074E+00  0.742938E+00  0.762759E+00
  0.775934E+00  0.782550E+00  0.782550E+00  0.775934E+00  0.762759E+00  0.742938E+00
  0.716074E+00  0.681606E+00  0.639315E+00  0.589921E+00  0.535488E+00  0.479423E+00
  0.425770E+00  0.377787E+00  0.408431E+00  0.376666E+00  0.350727E+00  0.330651E+00
  0.316554E+00  0.307796E+00  0.302838E+00  0.300233E+00  0.299387E+00  0.300233E+00
  0.302838E+00  0.307796E+00  0.316554E+00  0.330651E+00  0.350727E+00  0.376666E+00
  0.408431E+00  0.446147E+00  0.489174E+00  0.535488E+00  0.582218E+00  0.626565E+00
  0.666304E+00  0.700005E+00  0.727158E+00  0.747958E+00  0.762783E+00  0.771764E+00
  0.774789E+00  0.771764E+00  0.762783E+00  0.747958E+00  0.727158E+00  0.700005E+00
  0.666304E+00  0.626565E+00  0.582218E+00  0.535488E+00  0.489174E+00  0.446147E+00
  0.408431E+00  0.454340E+00  0.432080E+00  0.415208E+00  0.403295E+00  0.395767E+00
  0.391563E+00  0.389399E+00  0.388443E+00  0.388443E+00  0.389399E+00  0.391563E+00
  0.395767E+00  0.403295E+00  0.415208E+00  0.432080E+00  0.454340E+00  0.482304E+00
  0.515507E+00  0.552194E+00  0.589921E+00  0.626565E+00  0.660614E+00  0.690872E+00
  0.716386E+00  0.736668E+00  0.751702E+00  0.761664E+00  0.766647E+00  0.766647E+00
  0.761664E+00  0.751702E+00  0.736668E+00  0.716386E+00  0.690872E+00  0.660614E+00
  0.626565E+00  0.589921E+00  0.552194E+00  0.515507E+00  0.482304E+00  0.454340E+00
  0.513817E+00  0.501562E+00  0.493075E+00  0.487377E+00  0.483899E+00  0.482113E+00
  0.481393E+00  0.481219E+00  0.481393E+00  0.482113E+00  0.483899E+00  0.487377E+00
  0.493075E+00  0.501562E+00  0.513817E+00  0.531078E+00  0.553899E+00  0.581188E+00
  0.610475E+00  0.639315E+00  0.666304E+00  0.690872E+00  0.712544E+00  0.730654E+00
  0.744625E+00  0.754289E+00  0.759861E+00  0.761669E+00  0.759861E+00  0.754289E+00
  0.744625E+00  0.730654E+00  0.712544E+00  0.690872E+00  0.666304E+00  0.639315E+00
  0.610475E+00  0.581188E+00  0.553899E+00  0.531078E+00  0.513817E+00  0.583011E+00
  0.577993E+00  0.574204E+00  0.571254E+00  0.569373E+00  0.568600E+00  0.568473E+00
  0.568473E+00  0.568600E+00  0.569373E+00  0.571254E+00  0.574204E+00  0.577993E+00
  0.583011E+00  0.590640E+00  0.602559E+00  0.619366E+00  0.639758E+00  0.661224E+00
  0.681606E+00  0.700005E+00  0.716386E+00  0.730654E+00  0.742273E+00  0.750675E+00
  0.755803E+00  0.758124E+00  0.758124E+00  0.755803E+00  0.750675E+00  0.742273E+00
  0.730654E+00  0.716386E+00  0.700005E+00  0.681606E+00  0.661224E+00  0.639758E+00
  0.619366E+00  0.602559E+00  0.590640E+00  0.583011E+00  0.652157E+00  0.650093E+00
  0.647830E+00  0.645828E+00  0.644672E+00  0.644356E+00  0.644355E+00  0.644356E+00
  0.644672E+00  0.645828E+00  0.647830E+00  0.650093E+00  0.652157E+00  0.654443E+00
  0.658326E+00  0.665346E+00  0.676045E+00  0.689370E+00  0.703281E+00  0.716074E+00
  0.727158E+00  0.736668E+00  0.744625E+00  0.750675E+00  0.754539E+00  0.756457E+00
  0.756997E+00  0.756457E+00  0.754539E+00  0.750675E+00  0.744625E+00  0.736668E+00
  0.727158E+00  0.716074E+00  0.703281E+00  0.689370E+00  0.676045E+00  0.665346E+00
  0.658326E+00  0.654443E+00  0.652157E+00  0.712770E+00  0.711558E+00  0.709869E+00
  0.708367E+00  0.707519E+00  0.707249E+00  0.707249E+00  0.707519E+00  0.708367E+00
  0.709869E+00  0.711558E+00  0.712770E+00  0.713258E+00  0.713501E+00  0.714537E+00
  0.717435E+00  0.722610E+00  0.729441E+00  0.736608E+00  0.742938E+00  0.747958E+00
  0.751702E+00  0.754289E+00  0.755803E+00  0.756457E+00  0.756626E+00  0.756626E+00
  0.756457E+00  0.755803E+00  0.754289E+00  0.751702E+00  0.747958E+00  0.742938E+00
  0.736608E+00  0.729441E+00  0.722610E+00  0.717435E+00  0.714537E+00  0.713501E+00
  0.713258E+00  0.712770E+00  0.762783E+00  0.761664E+00  0.759861E+00  0.758124E+00
  0.756997E+00  0.756626E+00  0.756997E+00  0.758124E+00  0.759861E+00  0.761664E+00
  0.762783E+00  0.762759E+00  0.761703E+00  0.760179E+00  0.758897E+00  0.758404E+00
  0.758897E+00  0.760179E+00  0.761703E+00  0.762759E+00  0.762783E+00  0.761664E+00
  0.759861E+00  0.758124E+00  0.756997E+00  0.756626E+00  0.756997E+00  0.758124E+00
  0.759861E+00  0.761664E+00  0.762783E+00  0.762759E+00  0.761703E+00  0.760179E+00
  0.758897E+00  0.758404E+00  0.758897E+00  0.760179E+00  0.761703E+00  0.762759E+00
  0.762783E+00  0.802094E+00  0.799767E+00  0.796707E+00  0.794000E+00  0.792461E+00
  0.792461E+00  0.794000E+00  0.796707E+00  0.799767E+00  0.802094E+00  0.802802E+00
  0.801637E+00  0.799032E+00  0.795758E+00  0.792375E+00  0.788979E+00  0.785531E+00
  0.782219E+00  0.779172E+00  0.775934E+00  0.771764E+00  0.766647E+00  0.761669E+00
  0.758124E+00  0.756457E+00  0.756457E+00  0.758124E+00  0.761669E+00  0.766647E+00
  0.771764E+00  0.775934E+00  0.779172E+00  0.782219E+00  0.785531E+00  0.788979E+00
  0.792375E+00  0.795758E+00  0.799032E+00  0.801637E+00  0.802802E+00  0.802094E+00
  0.829402E+00  0.824632E+00  0.819684E+00  0.816013E+00  0.814666E+00  0.816013E+00
  0.819684E+00  0.824632E+00  0.829402E+00  0.832564E+00  0.833164E+00  0.831057E+00
  0.826949E+00  0.821904E+00  0.816466E+00  0.810395E+00  0.803499E+00  0.796329E+00
  0.789479E+00  0.782550E+00  0.774789E+00  0.766647E+00  0.759861E+00  0.755803E+00
  0.754539E+00  0.755803E+00  0.759861E+00  0.766647E+00  0.774789E+00  0.782550E+00
  0.789479E+00  0.796329E+00  0.803499E+00  0.810395E+00  0.816466E+00  0.821904E+00
  0.826949E+00  0.831057E+00  0.833164E+00  0.832564E+00  0.829402E+00  0.843999E+00
  0.836261E+00  0.829410E+00  0.825368E+00  0.825368E+00  0.829410E+00  0.836261E+00
  0.843999E+00  0.850692E+00  0.854811E+00  0.855442E+00  0.852525E+00  0.846985E+00
  0.840153E+00  0.832599E+00  0.823882E+00  0.813794E+00  0.803188E+00  0.792887E+00
  0.782550E+00  0.771764E+00  0.761664E+00  0.754289E+00  0.750675E+00  0.750675E+00
  0.754289E+00  0.761664E+00  0.771764E+00  0.782550E+00  0.792887E+00  0.803188E+00
  0.813794E+00  0.823882E+00  0.832599E+00  0.840153E+00  0.846985E+00  0.852525E+00
  0.855442E+00  0.854811E+00  0.850692E+00  0.843999E+00  0.845901E+00  0.834502E+00
  0.825711E+00  0.822375E+00  0.825711E+00  0.834502E+00  0.845901E+00  0.856974E+00
  0.865620E+00  0.870561E+00  0.871116E+00  0.867364E+00  0.860388E+00  0.851685E+00
  0.841850E+00  0.830375E+00  0.817138E+00  0.803188E+00  0.789479E+00  0.775934E+00
  0.762783E+00  0.751702E+00  0.744625E+00  0.742273E+00  0.744625E+00  0.751702E+00
  0.762783E+00  0.775934E+00  0.789479E+00  0.803188E+00  0.817138E+00  0.830375E+00
  0.841850E+00  0.851685E+00  0.860388E+00  0.867364E+00  0.871116E+00  0.870561E+00
  0.865620E+00  0.856974E+00  0.845901E+00  0.832366E+00  0.815292E+00  0.804584E+00
  0.804584E+00  0.815292E+00  0.832366E+00  0.850303E+00  0.865327E+00  0.875814E+00
  0.881245E+00  0.881429E+00  0.876646E+00  0.868069E+00  0.857267E+00  0.844862E+00
  0.830375E+00  0.813794E+00  0.796329E+00  0.779172E+00  0.762759E+00  0.747958E+00
  0.736668E+00  0.730654E+00  0.730654E+00  0.736668E+00  0.747958E+00  0.762759E+00
  0.779172E+00  0.796329E+00  0.813794E+00  0.830375E+00  0.844862E+00  0.857267E+00
  0.868069E+00  0.876646E+00  0.881429E+00  0.881245E+00  0.875814E+00  0.865327E+00
  0.850303E+00  0.832366E+00  0.792954E+00  0.766890E+00  0.756525E+00  0.766890E+00
  0.792954E+00  0.823902E+00  0.850890E+00  0.870384E+00  0.882418E+00  0.887875E+00
  0.887273E+00  0.881105E+00  0.870569E+00  0.857267E+00  0.841850E+00  0.823882E+00
  0.803499E+00  0.782219E+00  0.761703E+00  0.742938E+00  0.727158E+00  0.716386E+00
  0.712544E+00  0.716386E+00  0.727158E+00  0.742938E+00  0.761703E+00  0.782219E+00
  0.803499E+00  0.823882E+00  0.841850E+00  0.857267E+00  0.870569E+00  0.881105E+00
  0.887273E+00  0.887875E+00  0.882418E+00  0.870384E+00  0.850890E+00  0.823902E+00
  0.792954E+00  0.705363E+00  0.669685E+00  0.669685E+00  0.705363E+00  0.759459E+00
  0.811116E+00  0.849241E+00  0.873142E+00  0.886138E+00  0.891056E+00  0.889167E+00
  0.881105E+00  0.868069E+00  0.851685E+00  0.832599E+00  0.810395E+00  0.785531E+00
  0.760179E+00  0.736608E+00  0.716074E+00  0.700005E+00  0.690872E+00  0.690872E+00
  0.700005E+00  0.716074E+00  0.736608E+00  0.760179E+00  0.785531E+00  0.810395E+00
  0.832599E+00  0.851685E+00  0.868069E+00  0.881105E+00  0.889167E+00  0.891056E+00
  0.886138E+00  0.873142E+00  0.849241E+00  0.811116E+00  0.759459E+00  0.705363E+00
  0.545248E+00  0.513969E+00  0.545248E+00  0.625811E+00  0.720901E+00  0.797963E+00
  0.847174E+00  0.874324E+00  0.887341E+00  0.891056E+00  0.887273E+00  0.876646E+00
  0.860388E+00  0.840153E+00  0.816466E+00  0.788979E+00  0.758897E+00  0.729441E+00
  0.703281E+00  0.681606E+00  0.666304E+00  0.660614E+00  0.666304E+00  0.681606E+00
  0.703281E+00  0.729441E+00  0.758897E+00  0.788979E+00  0.816466E+00  0.840153E+00
  0.860388E+00  0.876646E+00  0.887273E+00  0.891056E+00  0.887341E+00  0.874324E+00
  0.847174E+00  0.797963E+00  0.720901E+00  0.625811E+00  0.545248E+00  0.340468E+00
  0.340468E+00  0.416158E+00  0.549610E+00  0.689240E+00  0.789531E+00  0.846272E+00
  0.874324E+00  0.886138E+00  0.887875E+00  0.881429E+00  0.867364E+00  0.846985E+00
  0.821904E+00  0.792375E+00  0.758404E+00  0.722610E+00  0.689370E+00  0.661224E+00
  0.639315E+00  0.626565E+00  0.626565E+00  0.639315E+00  0.661224E+00  0.689370E+00
  0.722610E+00  0.758404E+00  0.792375E+00  0.821904E+00  0.846985E+00  0.867364E+00
  0.881429E+00  0.887875E+00  0.886138E+00  0.874324E+00  0.846272E+00  0.789531E+00
  0.689240E+00  0.549610E+00  0.416158E+00  0.340468E+00  0.184365E+00  0.217618E+00
  0.326854E+00  0.503559E+00  0.676926E+00  0.789531E+00  0.847174E+00  0.873142E+00
  0.882418E+00  0.881245E+00  0.871116E+00  0.852525E+00  0.826949E+00  0.795758E+00
  0.758897E+00  0.717435E+00  0.676045E+00  0.639758E+00  0.610475E+00  0.589921E+00
  0.582218E+00  0.589921E+00  0.610475E+00  0.639758E+00  0.676045E+00  0.717435E+00
  0.758897E+00  0.795758E+00  0.826949E+00  0.852525E+00  0.871116E+00  0.881245E+00
  0.882418E+00  0.873142E+00  0.847174E+00  0.789531E+00  0.676926E+00  0.503559E+00
  0.326854E+00  0.217618E+00  0.184365E+00  0.111349E+00  0.163247E+00  0.296564E+00
  0.503559E+00  0.689240E+00  0.797963E+00  0.849241E+00  0.870384E+00  0.875814E+00
  0.870561E+00  0.855442E+00  0.831057E+00  0.799032E+00  0.760179E+00  0.714537E+00
  0.665346E+00  0.619366E+00  0.581188E+00  0.552194E+00  0.535488E+00  0.535488E+00
  0.552194E+00  0.581188E+00  0.619366E+00  0.665346E+00  0.714537E+00  0.760179E+00
  0.799032E+00  0.831057E+00  0.855442E+00  0.870561E+00  0.875814E+00  0.870384E+00
  0.849241E+00  0.797963E+00  0.689240E+00  0.503559E+00  0.296564E+00  0.163247E+00
  0.111349E+00  0.111349E+00  0.924047E-01  0.163247E+00  0.326854E+00  0.549610E+00
  0.720901E+00  0.811116E+00  0.850890E+00  0.865327E+00  0.865620E+00  0.854811E+00
  0.833164E+00  0.801637E+00  0.761703E+00  0.713501E+00  0.658326E+00  0.602559E+00
  0.553899E+00  0.515507E+00  0.489174E+00  0.479423E+00  0.489174E+00  0.515507E+00
  0.553899E+00  0.602559E+00  0.658326E+00  0.713501E+00  0.761703E+00  0.801637E+00
  0.833164E+00  0.854811E+00  0.865620E+00  0.865327E+00  0.850890E+00  0.811116E+00
  0.720901E+00  0.549610E+00  0.326854E+00  0.163247E+00  0.924047E-01  0.752096E-01
  0.924047E-01  0.111349E+00  0.217618E+00  0.416158E+00  0.625811E+00  0.759459E+00
  0.823902E+00  0.850303E+00  0.856974E+00  0.850692E+00  0.832564E+00  0.802802E+00
  0.762759E+00  0.713258E+00  0.654443E+00  0.590640E+00  0.531078E+00  0.482304E+00
  0.446147E+00  0.425770E+00  0.425770E+00  0.446147E+00  0.482304E+00  0.531078E+00
  0.590640E+00  0.654443E+00  0.713258E+00  0.762759E+00  0.802802E+00  0.832564E+00
  0.850692E+00  0.856974E+00  0.850303E+00  0.823902E+00  0.759459E+00  0.625811E+00
  0.416158E+00  0.217618E+00  0.111349E+00  0.752096E-01  0.752096E-01  0.111349E+00
  0.184365E+00  0.340468E+00  0.545248E+00  0.705363E+00  0.792954E+00  0.832366E+00
  0.845901E+00  0.843999E+00  0.829402E+00  0.802094E+00  0.762783E+00  0.712770E+00
  0.652157E+00  0.583011E+00  0.513817E+00  0.454340E+00  0.408431E+00  0.377787E+00
  0.366662E+00  0.377787E+00  0.408431E+00  0.454340E+00  0.513817E+00  0.583011E+00
  0.652157E+00  0.712770E+00  0.762783E+00  0.802094E+00  0.829402E+00  0.843999E+00
  0.845901E+00  0.832366E+00  0.792954E+00  0.705363E+00  0.545248E+00  0.340468E+00
  0.184365E+00  0.111349E+00  0.924047E-01  0.111349E+00  0.184365E+00  0.555030E+00
  0.662403E+00  0.750279E+00  0.805035E+00  0.832366E+00  0.841364E+00  0.837372E+00
  0.821545E+00  0.793042E+00  0.751702E+00  0.698642E+00  0.634458E+00  0.560514E+00
  0.483816E+00  0.415170E+00  0.360708E+00  0.321634E+00  0.300356E+00  0.300356E+00
  0.321634E+00  0.360708E+00  0.415170E+00  0.483816E+00  0.560514E+00  0.634458E+00
  0.698642E+00  0.751702E+00  0.793042E+00  0.821545E+00  0.837372E+00  0.841364E+00
  0.832366E+00  0.805035E+00  0.750279E+00  0.662403E+00  0.555030E+00  0.463322E+00
  0.414598E+00  0.414598E+00  0.463322E+00  0.555030E+00  0.662403E+00  0.739332E+00
  0.793028E+00  0.822790E+00  0.834502E+00  0.832973E+00  0.819690E+00  0.793768E+00
  0.754289E+00  0.701843E+00  0.637412E+00  0.561858E+00  0.480079E+00  0.402850E+00
  0.339367E+00  0.292140E+00  0.261909E+00  0.251278E+00  0.261909E+00  0.292140E+00
  0.339367E+00  0.402850E+00  0.480079E+00  0.561858E+00  0.637412E+00  0.701843E+00
  0.754289E+00  0.793768E+00  0.819690E+00  0.832973E+00  0.834502E+00  0.822790E+00
  0.793028E+00  0.739332E+00  0.662403E+00  0.578953E+00  0.516324E+00  0.493675E+00
  0.516324E+00  0.578953E+00  0.662403E+00  0.750279E+00  0.793028E+00  0.819076E+00
  0.830264E+00  0.829410E+00  0.817484E+00  0.793441E+00  0.755803E+00  0.704408E+00
  0.640172E+00  0.563964E+00  0.479172E+00  0.395294E+00  0.323448E+00  0.268613E+00
  0.230999E+00  0.211393E+00  0.211393E+00  0.230999E+00  0.268613E+00  0.323448E+00
  0.395294E+00  0.479172E+00  0.563964E+00  0.640172E+00  0.704408E+00  0.755803E+00
  0.793441E+00  0.817484E+00  0.829410E+00  0.830264E+00  0.819076E+00  0.793028E+00
  0.750279E+00  0.695318E+00  0.642407E+00  0.609979E+00  0.609979E+00  0.642407E+00
  0.695318E+00  0.750279E+00  0.805035E+00  0.822790E+00  0.830264E+00  0.828034E+00
  0.816013E+00  0.792777E+00  0.756457E+00  0.706227E+00  0.642597E+00  0.566423E+00
  0.480256E+00  0.391990E+00  0.313132E+00  0.251103E+00  0.207057E+00  0.180393E+00
  0.171389E+00  0.180393E+00  0.207057E+00  0.251103E+00  0.313132E+00  0.391990E+00
  0.480256E+00  0.566423E+00  0.642597E+00  0.706227E+00  0.756457E+00  0.792777E+00
  0.816013E+00  0.828034E+00  0.830264E+00  0.822790E+00  0.805035E+00  0.777995E+00
  0.746892E+00  0.721424E+00  0.711533E+00  0.721424E+00  0.746892E+00  0.777995E+00
  0.805035E+00  0.832366E+00  0.834502E+00  0.829410E+00  0.816013E+00  0.792461E+00
  0.756626E+00  0.707249E+00  0.644356E+00  0.568600E+00  0.482113E+00  0.391563E+00
  0.307796E+00  0.239578E+00  0.189685E+00  0.157337E+00  0.141423E+00  0.141423E+00
  0.157337E+00  0.189685E+00  0.239578E+00  0.307796E+00  0.391563E+00  0.482113E+00
  0.568600E+00  0.644356E+00  0.707249E+00  0.756626E+00  0.792461E+00  0.816013E+00
  0.829410E+00  0.834502E+00  0.832366E+00  0.823902E+00  0.811116E+00  0.797963E+00
  0.789531E+00  0.789531E+00  0.797963E+00  0.811116E+00  0.823902E+00  0.832366E+00
  0.841364E+00  0.832973E+00  0.817484E+00  0.792777E+00  0.756626E+00  0.707567E+00
  0.645249E+00  0.569979E+00  0.483575E+00  0.392064E+00  0.305545E+00  0.232940E+00
  0.178127E+00  0.141018E+00  0.119917E+00  0.113118E+00  0.119917E+00  0.141018E+00
  0.178127E+00  0.232940E+00  0.305545E+00  0.392064E+00  0.483575E+00  0.569979E+00
  0.645249E+00  0.707567E+00  0.756626E+00  0.792777E+00  0.817484E+00  0.832973E+00
  0.841364E+00  0.844289E+00  0.843196E+00  0.839865E+00  0.836505E+00  0.835112E+00
  0.836505E+00  0.839865E+00  0.843196E+00  0.844289E+00  0.841364E+00  0.837372E+00
  0.819690E+00  0.793441E+00  0.756457E+00  0.707249E+00  0.645249E+00  0.570430E+00
  0.484233E+00  0.392291E+00  0.304381E+00  0.229252E+00  0.170962E+00  0.130025E+00
  0.104952E+00  0.933217E-01  0.933217E-01  0.104952E+00  0.130025E+00  0.170962E+00
  0.229252E+00  0.304381E+00  0.392291E+00  0.484233E+00  0.570430E+00  0.645249E+00
  0.707249E+00  0.756457E+00  0.793441E+00  0.819690E+00  0.837372E+00  0.848647E+00
  0.855284E+00  0.858699E+00  0.860108E+00  0.860515E+00  0.860515E+00  0.860108E+00
  0.858699E+00  0.855284E+00  0.848647E+00  0.837372E+00  0.821545E+00  0.793768E+00
  0.755803E+00  0.706227E+00  0.644356E+00  0.569979E+00  0.484233E+00  0.392282E+00
  0.303639E+00  0.227113E+00  0.166701E+00  0.122979E+00  0.948361E-01  0.797680E-01
  0.751196E-01  0.797680E-01  0.948361E-01  0.122979E+00  0.166701E+00  0.227113E+00
  0.303639E+00  0.392282E+00  0.484233E+00  0.569979E+00  0.644356E+00  0.706227E+00
  0.755803E+00  0.793768E+00  0.821545E+00  0.841125E+00  0.854517E+00  0.863373E+00
  0.868905E+00  0.871918E+00  0.872873E+00  0.871918E+00  0.868905E+00  0.863373E+00
  0.854517E+00  0.841125E+00  0.821545E+00  0.793042E+00  0.754289E+00  0.704408E+00
  0.642597E+00  0.568600E+00  0.483575E+00  0.392291E+00  0.303639E+00  0.226340E+00
  0.164596E+00  0.118956E+00  0.884513E-01  0.707981E-01  0.630070E-01  0.630070E-01
  0.707981E-01  0.884513E-01  0.118956E+00  0.164596E+00  0.226340E+00  0.303639E+00
  0.392291E+00  0.483575E+00  0.568600E+00  0.642597E+00  0.704408E+00  0.754289E+00
  0.793042E+00  0.822024E+00  0.842981E+00  0.857663E+00  0.867526E+00  0.873600E+00
  0.876501E+00  0.876501E+00  0.873600E+00  0.867526E+00  0.857663E+00  0.842981E+00
  0.822024E+00  0.793042E+00  0.751702E+00  0.701843E+00  0.640172E+00  0.566423E+00
  0.482113E+00  0.392064E+00  0.304381E+00  0.227113E+00  0.164596E+00  0.117626E+00
  0.853094E-01  0.655683E-01  0.554598E-01  0.524217E-01  0.554598E-01  0.655683E-01
  0.853094E-01  0.117626E+00  0.164596E+00  0.227113E+00  0.304381E+00  0.392064E+00
  0.482113E+00  0.566423E+00  0.640172E+00  0.701843E+00  0.751702E+00  0.790746E+00
  0.820310E+00  0.841911E+00  0.857044E+00  0.866972E+00  0.872592E+00  0.874411E+00
  0.872592E+00  0.866972E+00  0.857044E+00  0.841911E+00  0.820310E+00  0.790746E+00
  0.751702E+00  0.698642E+00  0.637412E+00  0.563964E+00  0.480256E+00  0.391563E+00
  0.305545E+00  0.229252E+00  0.166701E+00  0.118956E+00  0.853094E-01  0.638323E-01
  0.517834E-01  0.465371E-01  0.465371E-01  0.517834E-01  0.638323E-01  0.853094E-01
  0.118956E+00  0.166701E+00  0.229252E+00  0.305545E+00  0.391563E+00  0.480256E+00
  0.563964E+00  0.637412E+00  0.698642E+00  0.747958E+00  0.786564E+00  0.815850E+00
  0.837206E+00  0.851943E+00  0.861147E+00  0.865564E+00  0.865564E+00  0.861147E+00
  0.851943E+00  0.837206E+00  0.815850E+00  0.786564E+00  0.747958E+00  0.698642E+00
  0.634458E+00  0.561858E+00  0.479172E+00  0.391990E+00  0.307796E+00  0.232940E+00
  0.170962E+00  0.122979E+00  0.884513E-01  0.655683E-01  0.517834E-01  0.446415E-01
  0.424576E-01  0.446415E-01  0.517834E-01  0.655683E-01  0.884513E-01  0.122979E+00
  0.170962E+00  0.232940E+00  0.307796E+00  0.391990E+00  0.479172E+00  0.561858E+00
  0.634458E+00  0.694728E+00  0.742938E+00  0.780395E+00  0.808579E+00  0.828875E+00
  0.842470E+00  0.850264E+00  0.852801E+00  0.850264E+00  0.842470E+00  0.828875E+00
  0.808579E+00  0.780395E+00  0.742938E+00  0.694728E+00  0.634458E+00  0.560514E+00
  0.480079E+00  0.395294E+00  0.313132E+00  0.239578E+00  0.178127E+00  0.130025E+00
  0.948361E-01  0.707981E-01  0.554598E-01  0.465371E-01  0.424576E-01  0.424576E-01
  0.465371E-01  0.554598E-01  0.707981E-01  0.948361E-01  0.130025E+00  0.178127E+00
  0.239578E+00  0.313132E+00  0.395294E+00  0.480079E+00  0.560514E+00  0.631253E+00
  0.689934E+00  0.736608E+00  0.772502E+00  0.799131E+00  0.817871E+00  0.829785E+00
  0.835572E+00  0.835572E+00  0.829785E+00  0.817871E+00  0.799131E+00  0.772502E+00
  0.736608E+00  0.689934E+00  0.631253E+00  0.560514E+00  0.483816E+00  0.402850E+00
  0.323448E+00  0.251103E+00  0.189685E+00  0.141018E+00  0.104952E+00  0.797680E-01
  0.630070E-01  0.524217E-01  0.465371E-01  0.446415E-01  0.465371E-01  0.524217E-01
  0.630070E-01  0.797680E-01  0.104952E+00  0.141018E+00  0.189685E+00  0.251103E+00
  0.323448E+00  0.402850E+00  0.483816E+00  0.560470E+00  0.628195E+00  0.684617E+00
  0.729441E+00  0.763623E+00  0.788535E+00  0.805428E+00  0.815211E+00  0.818415E+00
  0.815211E+00  0.805428E+00  0.788535E+00  0.763623E+00  0.729441E+00  0.684617E+00
  0.628195E+00  0.560470E+00  0.483816E+00  0.415170E+00  0.339367E+00  0.268613E+00
  0.207057E+00  0.157337E+00  0.119917E+00  0.933217E-01  0.751196E-01  0.630070E-01
  0.554598E-01  0.517834E-01  0.517834E-01  0.554598E-01  0.630070E-01  0.751196E-01
  0.933217E-01  0.119917E+00  0.157337E+00  0.207057E+00  0.268613E+00  0.339367E+00
  0.415170E+00  0.491273E+00  0.563063E+00  0.626776E+00  0.680158E+00  0.722610E+00
  0.754705E+00  0.777506E+00  0.792055E+00  0.799126E+00  0.799126E+00  0.792055E+00
  0.777506E+00  0.754705E+00  0.722610E+00  0.680158E+00  0.626776E+00  0.563063E+00
  0.491273E+00  0.415170E+00  0.360708E+00  0.292140E+00  0.230999E+00  0.180393E+00
  0.141423E+00  0.113118E+00  0.933217E-01  0.797680E-01  0.707981E-01  0.655683E-01
  0.638323E-01  0.655683E-01  0.707981E-01  0.797680E-01  0.933217E-01  0.113118E+00
  0.141423E+00  0.180393E+00  0.230999E+00  0.292140E+00  0.360708E+00  0.432594E+00
  0.503663E+00  0.570169E+00  0.629060E+00  0.678384E+00  0.717435E+00  0.746479E+00
  0.766286E+00  0.777724E+00  0.781454E+00  0.777724E+00  0.766286E+00  0.746479E+00
  0.717435E+00  0.678384E+00  0.629060E+00  0.570169E+00  0.503663E+00  0.432594E+00
  0.360708E+00  0.321634E+00  0.261909E+00  0.211393E+00  0.171389E+00  0.141423E+00
  0.119917E+00  0.104952E+00  0.948361E-01  0.884513E-01  0.853094E-01  0.853094E-01
  0.884513E-01  0.948361E-01  0.104952E+00  0.119917E+00  0.141423E+00  0.171389E+00
  0.211393E+00  0.261909E+00  0.321634E+00  0.387510E+00  0.455541E+00  0.521752E+00
  0.582755E+00  0.636052E+00  0.680158E+00  0.714537E+00  0.739381E+00  0.755313E+00
  0.763046E+00  0.763046E+00  0.755313E+00  0.739381E+00  0.714537E+00  0.680158E+00
  0.636052E+00  0.582755E+00  0.521752E+00  0.455541E+00  0.387510E+00  0.321634E+00
  0.300356E+00  0.251278E+00  0.211393E+00  0.180393E+00  0.157337E+00  0.141018E+00
  0.130025E+00  0.122979E+00  0.118956E+00  0.117626E+00  0.118956E+00  0.122979E+00
  0.130025E+00  0.141018E+00  0.157337E+00  0.180393E+00  0.211393E+00  0.251278E+00
  0.300356E+00  0.357555E+00  0.420053E+00  0.483824E+00  0.544784E+00  0.599719E+00
  0.646636E+00  0.684617E+00  0.713501E+00  0.733578E+00  0.745330E+00  0.749190E+00
  0.745330E+00  0.733578E+00  0.713501E+00  0.684617E+00  0.646636E+00  0.599719E+00
  0.544784E+00  0.483824E+00  0.420053E+00  0.357555E+00  0.300356E+00  0.300356E+00
  0.261909E+00  0.230999E+00  0.207057E+00  0.189685E+00  0.178127E+00  0.170962E+00
  0.166701E+00  0.164596E+00  0.164596E+00  0.166701E+00  0.170962E+00  0.178127E+00
  0.189685E+00  0.207057E+00  0.230999E+00  0.261909E+00  0.300356E+00  0.346732E+00
  0.400179E+00  0.457975E+00  0.516110E+00  0.570593E+00  0.618521E+00  0.658420E+00
  0.689934E+00  0.713258E+00  0.728674E+00  0.736349E+00  0.736349E+00  0.728674E+00
  0.713258E+00  0.689934E+00  0.658420E+00  0.618521E+00  0.570593E+00  0.516110E+00
  0.457975E+00  0.400179E+00  0.346732E+00  0.300356E+00  0.321634E+00  0.292140E+00
  0.268613E+00  0.251103E+00  0.239578E+00  0.232940E+00  0.229252E+00  0.227113E+00
  0.226340E+00  0.227113E+00  0.229252E+00  0.232940E+00  0.239578E+00  0.251103E+00
  0.268613E+00  0.292140E+00  0.321634E+00  0.357555E+00  0.400179E+00  0.448466E+00
  0.499732E+00  0.550355E+00  0.596880E+00  0.636936E+00  0.669545E+00  0.694728E+00
  0.712770E+00  0.723719E+00  0.727405E+00  0.723719E+00  0.712770E+00  0.694728E+00
  0.669545E+00  0.636936E+00  0.596880E+00  0.550355E+00  0.499732E+00  0.448466E+00
  0.400179E+00  0.357555E+00  0.321634E+00  0.360708E+00  0.339367E+00  0.323448E+00
  0.313132E+00  0.307796E+00  0.305545E+00  0.304381E+00  0.303639E+00  0.303639E+00
  0.304381E+00  0.305545E+00  0.307796E+00  0.313132E+00  0.323448E+00  0.339367E+00
  0.360708E+00  0.387510E+00  0.420053E+00  0.457975E+00  0.499732E+00  0.542854E+00
  0.584524E+00  0.622169E+00  0.654046E+00  0.679514E+00  0.698642E+00  0.711558E+00
  0.718127E+00  0.718127E+00  0.711558E+00  0.698642E+00  0.679514E+00  0.654046E+00
  0.622169E+00  0.584524E+00  0.542854E+00  0.499732E+00  0.457975E+00  0.420053E+00
  0.387510E+00  0.360708E+00  0.415170E+00  0.402850E+00  0.395294E+00  0.391990E+00
  0.391563E+00  0.392064E+00  0.392291E+00  0.392282E+00  0.392291E+00  0.392064E+00
  0.391563E+00  0.391990E+00  0.395294E+00  0.402850E+00  0.415170E+00  0.432594E+00
  0.455541E+00  0.483824E+00  0.516110E+00  0.550355E+00  0.584524E+00  0.616815E+00
  0.645610E+00  0.669691E+00  0.688468E+00  0.701843E+00  0.709869E+00  0.712551E+00
  0.709869E+00  0.701843E+00  0.688468E+00  0.669691E+00  0.645610E+00  0.616815E+00
  0.584524E+00  0.550355E+00  0.516110E+00  0.483824E+00  0.455541E+00  0.432594E+00
  0.415170E+00  0.483816E+00  0.480079E+00  0.479172E+00  0.480256E+00  0.482113E+00
  0.483575E+00  0.484233E+00  0.484233E+00  0.483575E+00  0.482113E+00  0.480256E+00
  0.479172E+00  0.480079E+00  0.483816E+00  0.491273E+00  0.503663E+00  0.521752E+00
  0.544784E+00  0.570593E+00  0.596880E+00  0.622169E+00  0.645610E+00  0.666361E+00
  0.683457E+00  0.696193E+00  0.704408E+00  0.708367E+00  0.708367E+00  0.704408E+00
  0.696193E+00  0.683457E+00  0.666361E+00  0.645610E+00  0.622169E+00  0.596880E+00
  0.570593E+00  0.544784E+00  0.521752E+00  0.503663E+00  0.491273E+00  0.483816E+00
  0.560514E+00  0.561858E+00  0.563964E+00  0.566423E+00  0.568600E+00  0.569979E+00
  0.570430E+00  0.569979E+00  0.568600E+00  0.566423E+00  0.563964E+00  0.561858E+00
  0.560514E+00  0.560470E+00  0.563063E+00  0.570169E+00  0.582755E+00  0.599719E+00
  0.618521E+00  0.636936E+00  0.654046E+00  0.669691E+00  0.683457E+00  0.694472E+00
  0.702050E+00  0.706227E+00  0.707519E+00  0.706227E+00  0.702050E+00  0.694472E+00
  0.683457E+00  0.669691E+00  0.654046E+00  0.636936E+00  0.618521E+00  0.599719E+00
  0.582755E+00  0.570169E+00  0.563063E+00  0.560470E+00  0.560514E+00  0.634458E+00
  0.637412E+00  0.640172E+00  0.642597E+00  0.644356E+00  0.645249E+00  0.645249E+00
  0.644356E+00  0.642597E+00  0.640172E+00  0.637412E+00  0.634458E+00  0.631253E+00
  0.628195E+00  0.626776E+00  0.629060E+00  0.636052E+00  0.646636E+00  0.658420E+00
  0.669545E+00  0.679514E+00  0.688468E+00  0.696193E+00  0.702050E+00  0.705657E+00
  0.707249E+00  0.707249E+00  0.705657E+00  0.702050E+00  0.696193E+00  0.688468E+00
  0.679514E+00  0.669545E+00  0.658420E+00  0.646636E+00  0.636052E+00  0.629060E+00
  0.626776E+00  0.628195E+00  0.631253E+00  0.634458E+00  0.698642E+00  0.701843E+00
  0.704408E+00  0.706227E+00  0.707249E+00  0.707567E+00  0.707249E+00  0.706227E+00
  0.704408E+00  0.701843E+00  0.698642E+00  0.694728E+00  0.689934E+00  0.684617E+00
  0.680158E+00  0.678384E+00  0.680158E+00  0.684617E+00  0.689934E+00  0.694728E+00
  0.698642E+00  0.701843E+00  0.704408E+00  0.706227E+00  0.707249E+00  0.707567E+00
  0.707249E+00  0.706227E+00  0.704408E+00  0.701843E+00  0.698642E+00  0.694728E+00
  0.689934E+00  0.684617E+00  0.680158E+00  0.678384E+00  0.680158E+00  0.684617E+00
  0.689934E+00  0.694728E+00  0.698642E+00  0.751702E+00  0.754289E+00  0.755803E+00
  0.756457E+00  0.756626E+00  0.756626E+00  0.756457E+00  0.755803E+00  0.754289E+00
  0.751702E+00  0.747958E+00  0.742938E+00  0.736608E+00  0.729441E+00  0.722610E+00
  0.717435E+00  0.714537E+00  0.713501E+00  0.713258E+00  0.712770E+00  0.711558E+00
  0.709869E+00  0.708367E+00  0.707519E+00  0.707249E+00  0.707249E+00  0.707519E+00
  0.708367E+00  0.709869E+00  0.711558E+00  0.712770E+00  0.713258E+00  0.713501E+00
  0.714537E+00  0.717435E+00  0.722610E+00  0.729441E+00  0.736608E+00  0.742938E+00
  0.747958E+00  0.751702E+00  0.793042E+00  0.793768E+00  0.793441E+00  0.792777E+00
  0.792461E+00  0.792777E+00  0.793441E+00  0.793768E+00  0.793042E+00  0.790746E+00
  0.786564E+00  0.780395E+00  0.772502E+00  0.763623E+00  0.754705E+00  0.746479E+00
  0.739381E+00  0.733578E+00  0.728674E+00  0.723719E+00  0.718127E+00  0.712551E+00
  0.708367E+00  0.706227E+00  0.705657E+00  0.706227E+00  0.708367E+00  0.712551E+00
  0.718127E+00  0.723719E+00  0.728674E+00  0.733578E+00  0.739381E+00  0.746479E+00
  0.754705E+00  0.763623E+00  0.772502E+00  0.780395E+00  0.786564E+00  0.790746E+00
  0.793042E+00  0.821545E+00  0.819690E+00  0.817484E+00  0.816013E+00  0.816013E+00
  0.817484E+00  0.819690E+00  0.821545E+00  0.822024E+00  0.820310E+00  0.815850E+00
  0.808579E+00  0.799131E+00  0.788535E+00  0.777506E+00  0.766286E+00  0.755313E+00
  0.745330E+00  0.736349E+00  0.727405E+00  0.718127E+00  0.709869E+00  0.704408E+00
  0.702050E+00  0.702050E+00  0.704408E+00  0.709869E+00  0.718127E+00  0.727405E+00
  0.736349E+00  0.745330E+00  0.755313E+00  0.766286E+00  0.777506E+00  0.788535E+00
  0.799131E+00  0.808579E+00  0.815850E+00  0.820310E+00  0.822024E+00  0.821545E+00
  0.837372E+00  0.832973E+00  0.829410E+00  0.828034E+00  0.829410E+00  0.832973E+00
  0.837372E+00  0.841125E+00  0.842981E+00  0.841911E+00  0.837206E+00  0.828875E+00
  0.817871E+00  0.805428E+00  0.792055E+00  0.777724E+00  0.763046E+00  0.749190E+00
  0.736349E+00  0.723719E+00  0.711558E+00  0.701843E+00  0.696193E+00  0.694472E+00
  0.696193E+00  0.701843E+00  0.711558E+00  0.723719E+00  0.736349E+00  0.749190E+00
  0.763046E+00  0.777724E+00  0.792055E+00  0.805428E+00  0.817871E+00  0.828875E+00
  0.837206E+00  0.841911E+00  0.842981E+00  0.841125E+00  0.837372E+00  0.841364E+00
  0.834502E+00  0.830264E+00  0.830264E+00  0.834502E+00  0.841364E+00  0.848647E+00
  0.854517E+00  0.857663E+00  0.857044E+00  0.851943E+00  0.842470E+00  0.829785E+00
  0.815211E+00  0.799126E+00  0.781454E+00  0.763046E+00  0.745330E+00  0.728674E+00
  0.712770E+00  0.698642E+00  0.688468E+00  0.683457E+00  0.683457E+00  0.688468E+00
  0.698642E+00  0.712770E+00  0.728674E+00  0.745330E+00  0.763046E+00  0.781454E+00
  0.799126E+00  0.815211E+00  0.829785E+00  0.842470E+00  0.851943E+00  0.857044E+00
  0.857663E+00  0.854517E+00  0.848647E+00  0.841364E+00  0.832366E+00  0.822790E+00
  0.819076E+00  0.822790E+00  0.832366E+00  0.844289E+00  0.855284E+00  0.863373E+00
  0.867526E+00  0.866972E+00  0.861147E+00  0.850264E+00  0.835572E+00  0.818415E+00
  0.799126E+00  0.777724E+00  0.755313E+00  0.733578E+00  0.713258E+00  0.694728E+00
  0.679514E+00  0.669691E+00  0.666361E+00  0.669691E+00  0.679514E+00  0.694728E+00
  0.713258E+00  0.733578E+00  0.755313E+00  0.777724E+00  0.799126E+00  0.818415E+00
  0.835572E+00  0.850264E+00  0.861147E+00  0.866972E+00  0.867526E+00  0.863373E+00
  0.855284E+00  0.844289E+00  0.832366E+00  0.805035E+00  0.793028E+00  0.793028E+00
  0.805035E+00  0.823902E+00  0.843196E+00  0.858699E+00  0.868905E+00  0.873600E+00
  0.872592E+00  0.865564E+00  0.852801E+00  0.835572E+00  0.815211E+00  0.792055E+00
  0.766286E+00  0.739381E+00  0.713501E+00  0.689934E+00  0.669545E+00  0.654046E+00
  0.645610E+00  0.645610E+00  0.654046E+00  0.669545E+00  0.689934E+00  0.713501E+00
  0.739381E+00  0.766286E+00  0.792055E+00  0.815211E+00  0.835572E+00  0.852801E+00
  0.865564E+00  0.872592E+00  0.873600E+00  0.868905E+00  0.858699E+00  0.843196E+00
  0.823902E+00  0.805035E+00  0.750279E+00  0.739332E+00  0.750279E+00  0.777995E+00
  0.811116E+00  0.839865E+00  0.860108E+00  0.871918E+00  0.876501E+00  0.874411E+00
  0.865564E+00  0.850264E+00  0.829785E+00  0.805428E+00  0.777506E+00  0.746479E+00
  0.714537E+00  0.684617E+00  0.658420E+00  0.636936E+00  0.622169E+00  0.616815E+00
  0.622169E+00  0.636936E+00  0.658420E+00  0.684617E+00  0.714537E+00  0.746479E+00
  0.777506E+00  0.805428E+00  0.829785E+00  0.850264E+00  0.865564E+00  0.874411E+00
  0.876501E+00  0.871918E+00  0.860108E+00  0.839865E+00  0.811116E+00  0.777995E+00
  0.750279E+00  0.662403E+00  0.662403E+00  0.695318E+00  0.746892E+00  0.797963E+00
  0.836505E+00  0.860515E+00  0.872873E+00  0.876501E+00  0.872592E+00  0.861147E+00
  0.842470E+00  0.817871E+00  0.788535E+00  0.754705E+00  0.717435E+00  0.680158E+00
  0.646636E+00  0.618521E+00  0.596880E+00  0.584524E+00  0.584524E+00  0.596880E+00
  0.618521E+00  0.646636E+00  0.680158E+00  0.717435E+00  0.754705E+00  0.788535E+00
  0.817871E+00  0.842470E+00  0.861147E+00  0.872592E+00  0.876501E+00  0.872873E+00
  0.860515E+00  0.836505E+00  0.797963E+00  0.746892E+00  0.695318E+00  0.662403E+00
  0.555030E+00  0.578953E+00  0.642407E+00  0.721424E+00  0.789531E+00  0.835112E+00
  0.860515E+00  0.871918E+00  0.873600E+00  0.866972E+00  0.851943E+00  0.828875E+00
  0.799131E+00  0.763623E+00  0.722610E+00  0.678384E+00  0.636052E+00  0.599719E+00
  0.570593E+00  0.550355E+00  0.542854E+00  0.550355E+00  0.570593E+00  0.599719E+00
  0.636052E+00  0.678384E+00  0.722610E+00  0.763623E+00  0.799131E+00  0.828875E+00
  0.851943E+00  0.866972E+00  0.873600E+00  0.871918E+00  0.860515E+00  0.835112E+00
  0.789531E+00  0.721424E+00  0.642407E+00  0.578953E+00  0.555030E+00  0.463322E+00
  0.516324E+00  0.609979E+00  0.711533E+00  0.789531E+00  0.836505E+00  0.860108E+00
  0.868905E+00  0.867526E+00  0.857044E+00  0.837206E+00  0.808579E+00  0.772502E+00
  0.729441E+00  0.680158E+00  0.629060E+00  0.582755E+00  0.544784E+00  0.516110E+00
  0.499732E+00  0.499732E+00  0.516110E+00  0.544784E+00  0.582755E+00  0.629060E+00
  0.680158E+00  0.729441E+00  0.772502E+00  0.808579E+00  0.837206E+00  0.857044E+00
  0.867526E+00  0.868905E+00  0.860108E+00  0.836505E+00  0.789531E+00  0.711533E+00
  0.609979E+00  0.516324E+00  0.463322E+00  0.463322E+00  0.414598E+00  0.493675E+00
  0.609979E+00  0.721424E+00  0.797963E+00  0.839865E+00  0.858699E+00  0.863373E+00
  0.857663E+00  0.841911E+00  0.815850E+00  0.780395E+00  0.736608E+00  0.684617E+00
  0.626776E+00  0.570169E+00  0.521752E+00  0.483824E+00  0.457975E+00  0.448466E+00
  0.457975E+00  0.483824E+00  0.521752E+00  0.570169E+00  0.626776E+00  0.684617E+00
  0.736608E+00  0.780395E+00  0.815850E+00  0.841911E+00  0.857663E+00  0.863373E+00
  0.858699E+00  0.839865E+00  0.797963E+00  0.721424E+00  0.609979E+00  0.493675E+00
  0.414598E+00  0.388599E+00  0.414598E+00  0.414598E+00  0.516324E+00  0.642407E+00
  0.746892E+00  0.811116E+00  0.843196E+00  0.855284E+00  0.854517E+00  0.842981E+00
  0.820310E+00  0.786564E+00  0.742938E+00  0.689934E+00  0.628195E+00  0.563063E+00
  0.503663E+00  0.455541E+00  0.420053E+00  0.400179E+00  0.400179E+00  0.420053E+00
  0.455541E+00  0.503663E+00  0.563063E+00  0.628195E+00  0.689934E+00  0.742938E+00
  0.786564E+00  0.820310E+00  0.842981E+00  0.854517E+00  0.855284E+00  0.843196E+00
  0.811116E+00  0.746892E+00  0.642407E+00  0.516324E+00  0.414598E+00  0.364881E+00
  0.364881E+00  0.414598E+00  0.463322E+00  0.578953E+00  0.695318E+00  0.777995E+00
  0.823902E+00  0.844289E+00  0.848647E+00  0.841125E+00  0.822024E+00  0.790746E+00
  0.747958E+00  0.694728E+00  0.631253E+00  0.560470E+00  0.491273E+00  0.432594E+00
  0.387510E+00  0.357555E+00  0.346732E+00  0.357555E+00  0.387510E+00  0.432594E+00
  0.491273E+00  0.560470E+00  0.631253E+00  0.694728E+00  0.747958E+00  0.790746E+00
  0.822024E+00  0.841125E+00  0.848647E+00  0.844289E+00  0.823902E+00  0.777995E+00
  0.695318E+00  0.578953E+00  0.463322E+00  0.388599E+00  0.364881E+00  0.388599E+00
  0.463322E+00  0.555030E+00  0.662403E+00  0.750279E+00  0.805035E+00  0.832366E+00
  0.841364E+00  0.837372E+00  0.821545E+00  0.793042E+00  0.751702E+00  0.698642E+00
  0.634458E+00  0.560514E+00  0.483816E+00  0.415170E+00  0.360708E+00  0.321634E+00
  0.300356E+00  0.300356E+00  0.321634E+00  0.360708E+00  0.415170E+00  0.483816E+00
  0.560514E+00  0.634458E+00  0.698642E+00  0.751702E+00  0.793042E+00  0.821545E+00
  0.837372E+00  0.841364E+00  0.832366E+00  0.805035E+00  0.750279E+00  0.662403E+00
  0.555030E+00  0.463322E+00  0.414598E+00  0.414598E+00  0.463322E+00  0.555030E+00
  0.783885E+00  0.813633E+00  0.834759E+00  0.845242E+00  0.845901E+00  0.837372E+00
  0.818748E+00  0.788194E+00  0.744625E+00  0.688468E+00  0.620460E+00  0.542026E+00
  0.459218E+00  0.382801E+00  0.320781E+00  0.274993E+00  0.245980E+00  0.235866E+00
  0.245980E+00  0.274993E+00  0.320781E+00  0.382801E+00  0.459218E+00  0.542026E+00
  0.620460E+00  0.688468E+00  0.744625E+00  0.788194E+00  0.818748E+00  0.837372E+00
  0.845901E+00  0.845242E+00  0.834759E+00  0.813633E+00  0.783885E+00  0.752692E+00
  0.729812E+00  0.721640E+00  0.729812E+00  0.752692E+00  0.783885E+00  0.813633E+00
  0.831954E+00  0.842014E+00  0.843404E+00  0.836261E+00  0.819690E+00  0.791738E+00
  0.750675E+00  0.696193E+00  0.628900E+00  0.549852E+00  0.463503E+00  0.379937E+00
  0.309412E+00  0.255937E+00  0.219479E+00  0.200622E+00  0.200622E+00  0.219479E+00
  0.255937E+00  0.309412E+00  0.379937E+00  0.463503E+00  0.549852E+00  0.628900E+00
  0.696193E+00  0.750675E+00  0.791738E+00  0.819690E+00  0.836261E+00  0.843404E+00
  0.842014E+00  0.831954E+00  0.813633E+00  0.790219E+00  0.768275E+00  0.755109E+00
  0.755109E+00  0.768275E+00  0.790219E+00  0.813633E+00  0.834759E+00  0.842014E+00
  0.842395E+00  0.835329E+00  0.819684E+00  0.793441E+00  0.754539E+00  0.702050E+00
  0.636177E+00  0.557648E+00  0.469715E+00  0.381155E+00  0.303224E+00  0.242401E+00
  0.199384E+00  0.173474E+00  0.164763E+00  0.173474E+00  0.199384E+00  0.242401E+00
  0.303224E+00  0.381155E+00  0.469715E+00  0.557648E+00  0.636177E+00  0.702050E+00
  0.754539E+00  0.793441E+00  0.819684E+00  0.835329E+00  0.842395E+00  0.842014E+00
  0.834759E+00  0.821954E+00  0.806911E+00  0.794686E+00  0.789978E+00  0.794686E+00
  0.806911E+00  0.821954E+00  0.834759E+00  0.845242E+00  0.843404E+00  0.835329E+00
  0.819562E+00  0.794000E+00  0.756457E+00  0.705657E+00  0.641433E+00  0.564183E+00
  0.476271E+00  0.385068E+00  0.301652E+00  0.234262E+00  0.185174E+00  0.153454E+00
  0.137906E+00  0.137906E+00  0.153454E+00  0.185174E+00  0.234262E+00  0.301652E+00
  0.385068E+00  0.476271E+00  0.564183E+00  0.641433E+00  0.705657E+00  0.756457E+00
  0.794000E+00  0.819562E+00  0.835329E+00  0.843404E+00  0.845242E+00  0.841991E+00
  0.835344E+00  0.828034E+00  0.823267E+00  0.823267E+00  0.828034E+00  0.835344E+00
  0.841991E+00  0.845242E+00  0.845901E+00  0.836261E+00  0.819684E+00  0.794000E+00
  0.756997E+00  0.707249E+00  0.644355E+00  0.568473E+00  0.481393E+00  0.389399E+00
  0.302838E+00  0.230540E+00  0.176133E+00  0.139386E+00  0.118539E+00  0.111834E+00
  0.118539E+00  0.139386E+00  0.176133E+00  0.230540E+00  0.302838E+00  0.389399E+00
  0.481393E+00  0.568473E+00  0.644355E+00  0.707249E+00  0.756997E+00  0.794000E+00
  0.819684E+00  0.836261E+00  0.845901E+00  0.850303E+00  0.850890E+00  0.849241E+00
  0.847174E+00  0.846272E+00  0.847174E+00  0.849241E+00  0.850890E+00  0.850303E+00
  0.845901E+00  0.837372E+00  0.819690E+00  0.793441E+00  0.756457E+00  0.707249E+00
  0.645249E+00  0.570430E+00  0.484233E+00  0.392291E+00  0.304381E+00  0.229252E+00
  0.170962E+00  0.130025E+00  0.104952E+00  0.933217E-01  0.933217E-01  0.104952E+00
  0.130025E+00  0.170962E+00  0.229252E+00  0.304381E+00  0.392291E+00  0.484233E+00
  0.570430E+00  0.645249E+00  0.707249E+00  0.756457E+00  0.793441E+00  0.819690E+00
  0.837372E+00  0.848647E+00  0.855284E+00  0.858699E+00  0.860108E+00  0.860515E+00
  0.860515E+00  0.860108E+00  0.858699E+00  0.855284E+00  0.848647E+00  0.837372E+00
  0.818748E+00  0.791738E+00  0.754539E+00  0.705657E+00  0.644355E+00  0.570430E+00
  0.485071E+00  0.393448E+00  0.305030E+00  0.228580E+00  0.168074E+00  0.124123E+00
  0.957126E-01  0.804409E-01  0.757171E-01  0.804409E-01  0.957126E-01  0.124123E+00
  0.168074E+00  0.228580E+00  0.305030E+00  0.393448E+00  0.485071E+00  0.570430E+00
  0.644355E+00  0.705657E+00  0.754539E+00  0.791738E+00  0.818748E+00  0.837603E+00
  0.850325E+00  0.858585E+00  0.863628E+00  0.866314E+00  0.867154E+00  0.866314E+00
  0.863628E+00  0.858585E+00  0.850325E+00  0.837603E+00  0.818748E+00  0.788194E+00
  0.750675E+00  0.702050E+00  0.641433E+00  0.568473E+00  0.484233E+00  0.393448E+00
  0.305100E+00  0.228041E+00  0.166420E+00  0.120643E+00  0.897868E-01  0.717654E-01
  0.637526E-01  0.637526E-01  0.717654E-01  0.897868E-01  0.120643E+00  0.166420E+00
  0.228041E+00  0.305100E+00  0.393448E+00  0.484233E+00  0.568473E+00  0.641433E+00
  0.702050E+00  0.750675E+00  0.788194E+00  0.816039E+00  0.836001E+00  0.849857E+00
  0.859078E+00  0.864712E+00  0.867388E+00  0.867388E+00  0.864712E+00  0.859078E+00
  0.849857E+00  0.836001E+00  0.816039E+00  0.788194E+00  0.744625E+00  0.696193E+00
  0.636177E+00  0.564183E+00  0.481393E+00  0.392291E+00  0.305030E+00  0.228041E+00
  0.165832E+00  0.118992E+00  0.864908E-01  0.663992E-01  0.559970E-01  0.528488E-01
  0.559970E-01  0.663992E-01  0.864908E-01  0.118992E+00  0.165832E+00  0.228041E+00
  0.305030E+00  0.392291E+00  0.481393E+00  0.564183E+00  0.636177E+00  0.696193E+00
  0.744625E+00  0.782459E+00  0.811007E+00  0.831783E+00  0.846287E+00  0.855783E+00
  0.861154E+00  0.862894E+00  0.861154E+00  0.855783E+00  0.846287E+00  0.831783E+00
  0.811007E+00  0.782459E+00  0.744625E+00  0.688468E+00  0.628900E+00  0.557648E+00
  0.476271E+00  0.389399E+00  0.304381E+00  0.228580E+00  0.166420E+00  0.118992E+00
  0.854345E-01  0.638341E-01  0.516051E-01  0.462436E-01  0.462436E-01  0.516051E-01
  0.638341E-01  0.854345E-01  0.118992E+00  0.166420E+00  0.228580E+00  0.304381E+00
  0.389399E+00  0.476271E+00  0.557648E+00  0.628900E+00  0.688468E+00  0.736668E+00
  0.774528E+00  0.803281E+00  0.824240E+00  0.838692E+00  0.847717E+00  0.852050E+00
  0.852050E+00  0.847717E+00  0.838692E+00  0.824240E+00  0.803281E+00  0.774528E+00
  0.736668E+00  0.688468E+00  0.620460E+00  0.549852E+00  0.469715E+00  0.385068E+00
  0.302838E+00  0.229252E+00  0.168074E+00  0.120643E+00  0.864908E-01  0.638341E-01
  0.501780E-01  0.431068E-01  0.409461E-01  0.431068E-01  0.501780E-01  0.638341E-01
  0.864908E-01  0.120643E+00  0.168074E+00  0.229252E+00  0.302838E+00  0.385068E+00
  0.469715E+00  0.549852E+00  0.620460E+00  0.679514E+00  0.727158E+00  0.764434E+00
  0.792597E+00  0.812902E+00  0.826500E+00  0.834291E+00  0.836827E+00  0.834291E+00
  0.826500E+00  0.812902E+00  0.792597E+00  0.764434E+00  0.727158E+00  0.679514E+00
  0.620460E+00  0.542026E+00  0.463503E+00  0.381155E+00  0.301652E+00  0.230540E+00
  0.170962E+00  0.124123E+00  0.897868E-01  0.663992E-01  0.516051E-01  0.431068E-01
  0.392650E-01  0.392650E-01  0.431068E-01  0.516051E-01  0.663992E-01  0.897868E-01
  0.124123E+00  0.170962E+00  0.230540E+00  0.301652E+00  0.381155E+00  0.463503E+00
  0.542026E+00  0.611501E+00  0.669545E+00  0.716074E+00  0.752108E+00  0.778972E+00
  0.797923E+00  0.809983E+00  0.815843E+00  0.815843E+00  0.809983E+00  0.797923E+00
  0.778972E+00  0.752108E+00  0.716074E+00  0.669545E+00  0.611501E+00  0.542026E+00
  0.459218E+00  0.379937E+00  0.303224E+00  0.234262E+00  0.176133E+00  0.130025E+00
  0.957126E-01  0.717654E-01  0.559970E-01  0.462436E-01  0.409461E-01  0.392650E-01
  0.409461E-01  0.462436E-01  0.559970E-01  0.717654E-01  0.957126E-01  0.130025E+00
  0.176133E+00  0.234262E+00  0.303224E+00  0.379937E+00  0.459218E+00  0.534954E+00
  0.602198E+00  0.658420E+00  0.703281E+00  0.737684E+00  0.762906E+00  0.780106E+00
  0.790112E+00  0.793397E+00  0.790112E+00  0.780106E+00  0.762906E+00  0.737684E+00
  0.703281E+00  0.658420E+00  0.602198E+00  0.534954E+00  0.459218E+00  0.382801E+00
  0.309412E+00  0.242401E+00  0.185174E+00  0.139386E+00  0.104952E+00  0.804409E-01
  0.637526E-01  0.528488E-01  0.462436E-01  0.431068E-01  0.431068E-01  0.462436E-01
  0.528488E-01  0.637526E-01  0.804409E-01  0.104952E+00  0.139386E+00  0.185174E+00
  0.242401E+00  0.309412E+00  0.382801E+00  0.457827E+00  0.529349E+00  0.593101E+00
  0.646636E+00  0.689370E+00  0.721908E+00  0.745250E+00  0.760302E+00  0.767678E+00
  0.767678E+00  0.760302E+00  0.745250E+00  0.721908E+00  0.689370E+00  0.646636E+00
  0.593101E+00  0.529349E+00  0.457827E+00  0.382801E+00  0.320781E+00  0.255937E+00
  0.199384E+00  0.153454E+00  0.118539E+00  0.933217E-01  0.757171E-01  0.637526E-01
  0.559970E-01  0.516051E-01  0.501780E-01  0.516051E-01  0.559970E-01  0.637526E-01
  0.757171E-01  0.933217E-01  0.118539E+00  0.153454E+00  0.199384E+00  0.255937E+00
  0.320781E+00  0.390274E+00  0.460270E+00  0.526663E+00  0.585990E+00  0.636052E+00
  0.676045E+00  0.706145E+00  0.726956E+00  0.739124E+00  0.743123E+00  0.739124E+00
  0.726956E+00  0.706145E+00  0.676045E+00  0.636052E+00  0.585990E+00  0.526663E+00
  0.460270E+00  0.390274E+00  0.320781E+00  0.274993E+00  0.219479E+00  0.173474E+00
  0.137906E+00  0.111834E+00  0.933217E-01  0.804409E-01  0.717654E-01  0.663992E-01
  0.638341E-01  0.638341E-01  0.663992E-01  0.717654E-01  0.804409E-01  0.933217E-01
  0.111834E+00  0.137906E+00  0.173474E+00  0.219479E+00  0.274993E+00  0.337287E+00
  0.402757E+00  0.467733E+00  0.528830E+00  0.583241E+00  0.629060E+00  0.665346E+00
  0.691944E+00  0.709199E+00  0.717638E+00  0.717638E+00  0.709199E+00  0.691944E+00
  0.665346E+00  0.629060E+00  0.583241E+00  0.528830E+00  0.467733E+00  0.402757E+00
  0.337287E+00  0.274993E+00  0.245980E+00  0.200622E+00  0.164763E+00  0.137906E+00
  0.118539E+00  0.104952E+00  0.957126E-01  0.897868E-01  0.864908E-01  0.854345E-01
  0.864908E-01  0.897868E-01  0.957126E-01  0.104952E+00  0.118539E+00  0.137906E+00
  0.164763E+00  0.200622E+00  0.245980E+00  0.299688E+00  0.359064E+00  0.420642E+00
  0.480923E+00  0.536835E+00  0.585990E+00  0.626776E+00  0.658326E+00  0.680442E+00
  0.693413E+00  0.697670E+00  0.693413E+00  0.680442E+00  0.658326E+00  0.626776E+00
  0.585990E+00  0.536835E+00  0.480923E+00  0.420642E+00  0.359064E+00  0.299688E+00
  0.245980E+00  0.235866E+00  0.200622E+00  0.173474E+00  0.153454E+00  0.139386E+00
  0.130025E+00  0.124123E+00  0.120643E+00  0.118992E+00  0.118992E+00  0.120643E+00
  0.124123E+00  0.130025E+00  0.139386E+00  0.153454E+00  0.173474E+00  0.200622E+00
  0.235866E+00  0.279474E+00  0.330442E+00  0.386346E+00  0.443801E+00  0.499257E+00
  0.549718E+00  0.593101E+00  0.628195E+00  0.654443E+00  0.671757E+00  0.680319E+00
  0.680319E+00  0.671757E+00  0.654443E+00  0.628195E+00  0.593101E+00  0.549718E+00
  0.499257E+00  0.443801E+00  0.386346E+00  0.330442E+00  0.279474E+00  0.235866E+00
  0.245980E+00  0.219479E+00  0.199384E+00  0.185174E+00  0.176133E+00  0.170962E+00
  0.168074E+00  0.166420E+00  0.165832E+00  0.166420E+00  0.168074E+00  0.170962E+00
  0.176133E+00  0.185174E+00  0.199384E+00  0.219479E+00  0.245980E+00  0.279474E+00
  0.320222E+00  0.367440E+00  0.418915E+00  0.471310E+00  0.521037E+00  0.565225E+00
  0.602198E+00  0.631253E+00  0.652157E+00  0.664777E+00  0.668999E+00  0.664777E+00
  0.652157E+00  0.631253E+00  0.602198E+00  0.565225E+00  0.521037E+00  0.471310E+00
  0.418915E+00  0.367440E+00  0.320222E+00  0.279474E+00  0.245980E+00  0.274993E+00
  0.255937E+00  0.242401E+00  0.234262E+00  0.230540E+00  0.229252E+00  0.228580E+00
  0.228041E+00  0.228041E+00  0.228580E+00  0.229252E+00  0.230540E+00  0.234262E+00
  0.242401E+00  0.255937E+00  0.274993E+00  0.299688E+00  0.330442E+00  0.367440E+00
  0.409896E+00  0.455695E+00  0.501643E+00  0.544365E+00  0.581373E+00  0.611501E+00
  0.634458E+00  0.650093E+00  0.658070E+00  0.658070E+00  0.650093E+00  0.634458E+00
  0.611501E+00  0.581373E+00  0.544365E+00  0.501643E+00  0.455695E+00  0.409896E+00
  0.367440E+00  0.330442E+00  0.299688E+00  0.274993E+00  0.320781E+00  0.309412E+00
  0.303224E+00  0.301652E+00  0.302838E+00  0.304381E+00  0.305030E+00  0.305100E+00
  0.305030E+00  0.304381E+00  0.302838E+00  0.301652E+00  0.303224E+00  0.309412E+00
  0.320781E+00  0.337287E+00  0.359064E+00  0.386346E+00  0.418915E+00  0.455695E+00
  0.494630E+00  0.532914E+00  0.567736E+00  0.597177E+00  0.620460E+00  0.637412E+00
  0.647830E+00  0.651364E+00  0.647830E+00  0.637412E+00  0.620460E+00  0.597177E+00
  0.567736E+00  0.532914E+00  0.494630E+00  0.455695E+00  0.418915E+00  0.386346E+00
  0.359064E+00  0.337287E+00  0.320781E+00  0.382801E+00  0.379937E+00  0.381155E+00
  0.385068E+00  0.389399E+00  0.392291E+00  0.393448E+00  0.393448E+00  0.392291E+00
  0.389399E+00  0.385068E+00  0.381155E+00  0.379937E+00  0.382801E+00  0.390274E+00
  0.402757E+00  0.420642E+00  0.443801E+00  0.471310E+00  0.501643E+00  0.532914E+00
  0.563000E+00  0.589867E+00  0.612065E+00  0.628900E+00  0.640172E+00  0.645828E+00
  0.645828E+00  0.640172E+00  0.628900E+00  0.612065E+00  0.589867E+00  0.563000E+00
  0.532914E+00  0.501643E+00  0.471310E+00  0.443801E+00  0.420642E+00  0.402757E+00
  0.390274E+00  0.382801E+00  0.459218E+00  0.463503E+00  0.469715E+00  0.476271E+00
  0.481393E+00  0.484233E+00  0.485071E+00  0.484233E+00  0.481393E+00  0.476271E+00
  0.469715E+00  0.463503E+00  0.459218E+00  0.457827E+00  0.460270E+00  0.467733E+00
  0.480923E+00  0.499257E+00  0.521037E+00  0.544365E+00  0.567736E+00  0.589867E+00
  0.609407E+00  0.625093E+00  0.636177E+00  0.642597E+00  0.644672E+00  0.642597E+00
  0.636177E+00  0.625093E+00  0.609407E+00  0.589867E+00  0.567736E+00  0.544365E+00
  0.521037E+00  0.499257E+00  0.480923E+00  0.467733E+00  0.460270E+00  0.457827E+00
  0.459218E+00  0.542026E+00  0.549852E+00  0.557648E+00  0.564183E+00  0.568473E+00
  0.570430E+00  0.570430E+00  0.568473E+00  0.564183E+00  0.557648E+00  0.549852E+00
  0.542026E+00  0.534954E+00  0.529349E+00  0.526663E+00  0.528830E+00  0.536835E+00
  0.549718E+00  0.565225E+00  0.581373E+00  0.597177E+00  0.612065E+00  0.625093E+00
  0.635089E+00  0.641433E+00  0.644356E+00  0.644356E+00  0.641433E+00  0.635089E+00
  0.625093E+00  0.612065E+00  0.597177E+00  0.581373E+00  0.565225E+00  0.549718E+00
  0.536835E+00  0.528830E+00  0.526663E+00  0.529349E+00  0.534954E+00  0.542026E+00
  0.620460E+00  0.628900E+00  0.636177E+00  0.641433E+00  0.644355E+00  0.645249E+00
  0.644355E+00  0.641433E+00  0.636177E+00  0.628900E+00  0.620460E+00  0.611501E+00
  0.602198E+00  0.593101E+00  0.585990E+00  0.583241E+00  0.585990E+00  0.593101E+00
  0.602198E+00  0.611501E+00  0.620460E+00  0.628900E+00  0.636177E+00  0.641433E+00
  0.644355E+00  0.645249E+00  0.644355E+00  0.641433E+00  0.636177E+00  0.628900E+00
  0.620460E+00  0.611501E+00  0.602198E+00  0.593101E+00  0.585990E+00  0.583241E+00
  0.585990E+00  0.593101E+00  0.602198E+00  0.611501E+00  0.620460E+00  0.688468E+00
  0.696193E+00  0.702050E+00  0.705657E+00  0.707249E+00  0.707249E+00  0.705657E+00
  0.702050E+00  0.696193E+00  0.688468E+00  0.679514E+00  0.669545E+00  0.658420E+00
  0.646636E+00  0.636052E+00  0.629060E+00  0.626776E+00  0.628195E+00  0.631253E+00
  0.634458E+00  0.637412E+00  0.640172E+00  0.642597E+00  0.644356E+00  0.645249E+00
  0.645249E+00  0.644356E+00  0.642597E+00  0.640172E+00  0.637412E+00  0.634458E+00
  0.631253E+00  0.628195E+00  0.626776E+00  0.629060E+00  0.636052E+00  0.646636E+00
  0.658420E+00  0.669545E+00  0.679514E+00  0.688468E+00  0.744625E+00  0.750675E+00
  0.754539E+00  0.756457E+00  0.756997E+00  0.756457E+00  0.754539E+00  0.750675E+00
  0.744625E+00  0.736668E+00  0.727158E+00  0.716074E+00  0.703281E+00  0.689370E+00
  0.676045E+00  0.665346E+00  0.658326E+00  0.654443E+00  0.652157E+00  0.650093E+00
  0.647830E+00  0.645828E+00  0.644672E+00  0.644356E+00  0.644355E+00  0.644356E+00
  0.644672E+00  0.645828E+00  0.647830E+00  0.650093E+00  0.652157E+00  0.654443E+00
  0.658326E+00  0.665346E+00  0.676045E+00  0.689370E+00  0.703281E+00  0.716074E+00
  0.727158E+00  0.736668E+00  0.744625E+00  0.788194E+00  0.791738E+00  0.793441E+00
  0.794000E+00  0.794000E+00  0.793441E+00  0.791738E+00  0.788194E+00  0.782459E+00
  0.774528E+00  0.764434E+00  0.752108E+00  0.737684E+00  0.721908E+00  0.706145E+00
  0.691944E+00  0.680442E+00  0.671757E+00  0.664777E+00  0.658070E+00  0.651364E+00
  0.645828E+00  0.642597E+00  0.641433E+00  0.641433E+00  0.642597E+00  0.645828E+00
  0.651364E+00  0.658070E+00  0.664777E+00  0.671757E+00  0.680442E+00  0.691944E+00
  0.706145E+00  0.721908E+00  0.737684E+00  0.752108E+00  0.764434E+00  0.774528E+00
  0.782459E+00  0.788194E+00  0.818748E+00  0.819690E+00  0.819684E+00  0.819562E+00
  0.819684E+00  0.819690E+00  0.818748E+00  0.816039E+00  0.811007E+00  0.803281E+00
  0.792597E+00  0.778972E+00  0.762906E+00  0.745250E+00  0.726956E+00  0.709199E+00
  0.693413E+00  0.680319E+00  0.668999E+00  0.658070E+00  0.647830E+00  0.640172E+00
  0.636177E+00  0.635089E+00  0.636177E+00  0.640172E+00  0.647830E+00  0.658070E+00
  0.668999E+00  0.680319E+00  0.693413E+00  0.709199E+00  0.726956E+00  0.745250E+00
  0.762906E+00  0.778972E+00  0.792597E+00  0.803281E+00  0.811007E+00  0.816039E+00
  0.818748E+00  0.837372E+00  0.836261E+00  0.835329E+00  0.835329E+00  0.836261E+00
  0.837372E+00  0.837603E+00  0.836001E+00  0.831783E+00  0.824240E+00  0.812902E+00
  0.797923E+00  0.780106E+00  0.760302E+00  0.739124E+00  0.717638E+00  0.697670E+00
  0.680319E+00  0.664777E+00  0.650093E+00  0.637412E+00  0.628900E+00  0.625093E+00
  0.625093E+00  0.628900E+00  0.637412E+00  0.650093E+00  0.664777E+00  0.680319E+00
  0.697670E+00  0.717638E+00  0.739124E+00  0.760302E+00  0.780106E+00  0.797923E+00
  0.812902E+00  0.824240E+00  0.831783E+00  0.836001E+00  0.837603E+00  0.837372E+00
  0.845901E+00  0.843404E+00  0.842395E+00  0.843404E+00  0.845901E+00  0.848647E+00
  0.850325E+00  0.849857E+00  0.846287E+00  0.838692E+00  0.826500E+00  0.809983E+00
  0.790112E+00  0.767678E+00  0.743123E+00  0.717638E+00  0.693413E+00  0.671757E+00
  0.652157E+00  0.634458E+00  0.620460E+00  0.612065E+00  0.609407E+00  0.612065E+00
  0.620460E+00  0.634458E+00  0.652157E+00  0.671757E+00  0.693413E+00  0.717638E+00
  0.743123E+00  0.767678E+00  0.790112E+00  0.809983E+00  0.826500E+00  0.838692E+00
  0.846287E+00  0.849857E+00  0.850325E+00  0.848647E+00  0.845901E+00  0.845242E+00
  0.842014E+00  0.842014E+00  0.845242E+00  0.850303E+00  0.855284E+00  0.858585E+00
  0.859078E+00  0.855783E+00  0.847717E+00  0.834291E+00  0.815843E+00  0.793397E+00
  0.767678E+00  0.739124E+00  0.709199E+00  0.680442E+00  0.654443E+00  0.631253E+00
  0.611501E+00  0.597177E+00  0.589867E+00  0.589867E+00  0.597177E+00  0.611501E+00
  0.631253E+00  0.654443E+00  0.680442E+00  0.709199E+00  0.739124E+00  0.767678E+00
  0.793397E+00  0.815843E+00  0.834291E+00  0.847717E+00  0.855783E+00  0.859078E+00
  0.858585E+00  0.855284E+00  0.850303E+00  0.845242E+00  0.834759E+00  0.831954E+00
  0.834759E+00  0.841991E+00  0.850890E+00  0.858699E+00  0.863628E+00  0.864712E+00
  0.861154E+00  0.852050E+00  0.836827E+00  0.815843E+00  0.790112E+00  0.760302E+00
  0.726956E+00  0.691944E+00  0.658326E+00  0.628195E+00  0.602198E+00  0.581373E+00
  0.567736E+00  0.563000E+00  0.567736E+00  0.581373E+00  0.602198E+00  0.628195E+00
  0.658326E+00  0.691944E+00  0.726956E+00  0.760302E+00  0.790112E+00  0.815843E+00
  0.836827E+00  0.852050E+00  0.861154E+00  0.864712E+00  0.863628E+00  0.858699E+00
  0.850890E+00  0.841991E+00  0.834759E+00  0.813633E+00  0.813633E+00  0.821954E+00
  0.835344E+00  0.849241E+00  0.860108E+00  0.866314E+00  0.867388E+00  0.862894E+00
  0.852050E+00  0.834291E+00  0.809983E+00  0.780106E+00  0.745250E+00  0.706145E+00
  0.665346E+00  0.626776E+00  0.593101E+00  0.565225E+00  0.544365E+00  0.532914E+00
  0.532914E+00  0.544365E+00  0.565225E+00  0.593101E+00  0.626776E+00  0.665346E+00
  0.706145E+00  0.745250E+00  0.780106E+00  0.809983E+00  0.834291E+00  0.852050E+00
  0.862894E+00  0.867388E+00  0.866314E+00  0.860108E+00  0.849241E+00  0.835344E+00
  0.821954E+00  0.813633E+00  0.783885E+00  0.790219E+00  0.806911E+00  0.828034E+00
  0.847174E+00  0.860515E+00  0.867154E+00  0.867388E+00  0.861154E+00  0.847717E+00
  0.826500E+00  0.797923E+00  0.762906E+00  0.721908E+00  0.676045E+00  0.629060E+00
  0.585990E+00  0.549718E+00  0.521037E+00  0.501643E+00  0.494630E+00  0.501643E+00
  0.521037E+00  0.549718E+00  0.585990E+00  0.629060E+00  0.676045E+00  0.721908E+00
  0.762906E+00  0.797923E+00  0.826500E+00  0.847717E+00  0.861154E+00  0.867388E+00
  0.867154E+00  0.860515E+00  0.847174E+00  0.828034E+00  0.806911E+00  0.790219E+00
  0.783885E+00  0.752692E+00  0.768275E+00  0.794686E+00  0.823267E+00  0.846272E+00
  0.860515E+00  0.866314E+00  0.864712E+00  0.855783E+00  0.838692E+00  0.812902E+00
  0.778972E+00  0.737684E+00  0.689370E+00  0.636052E+00  0.583241E+00  0.536835E+00
  0.499257E+00  0.471310E+00  0.455695E+00  0.455695E+00  0.471310E+00  0.499257E+00
  0.536835E+00  0.583241E+00  0.636052E+00  0.689370E+00  0.737684E+00  0.778972E+00
  0.812902E+00  0.838692E+00  0.855783E+00  0.864712E+00  0.866314E+00  0.860515E+00
  0.846272E+00  0.823267E+00  0.794686E+00  0.768275E+00  0.752692E+00  0.752692E+00
  0.729812E+00  0.755109E+00  0.789978E+00  0.823267E+00  0.847174E+00  0.860108E+00
  0.863628E+00  0.859078E+00  0.846287E+00  0.824240E+00  0.792597E+00  0.752108E+00
  0.703281E+00  0.646636E+00  0.585990E+00  0.528830E+00  0.480923E+00  0.443801E+00
  0.418915E+00  0.409896E+00  0.418915E+00  0.443801E+00  0.480923E+00  0.528830E+00
  0.585990E+00  0.646636E+00  0.703281E+00  0.752108E+00  0.792597E+00  0.824240E+00
  0.846287E+00  0.859078E+00  0.863628E+00  0.860108E+00  0.847174E+00  0.823267E+00
  0.789978E+00  0.755109E+00  0.729812E+00  0.720928E+00  0.729812E+00  0.721640E+00
  0.755109E+00  0.794686E+00  0.828034E+00  0.849241E+00  0.858699E+00  0.858585E+00
  0.849857E+00  0.831783E+00  0.803281E+00  0.764434E+00  0.716074E+00  0.658420E+00
  0.593101E+00  0.526663E+00  0.467733E+00  0.420642E+00  0.386346E+00  0.367440E+00
  0.367440E+00  0.386346E+00  0.420642E+00  0.467733E+00  0.526663E+00  0.593101E+00
  0.658420E+00  0.716074E+00  0.764434E+00  0.803281E+00  0.831783E+00  0.849857E+00
  0.858585E+00  0.858699E+00  0.849241E+00  0.828034E+00  0.794686E+00  0.755109E+00
  0.721640E+00  0.704060E+00  0.704060E+00  0.721640E+00  0.729812E+00  0.768275E+00
  0.806911E+00  0.835344E+00  0.850890E+00  0.855284E+00  0.850325E+00  0.836001E+00
  0.811007E+00  0.774528E+00  0.727158E+00  0.669545E+00  0.602198E+00  0.529349E+00
  0.460270E+00  0.402757E+00  0.359064E+00  0.330442E+00  0.320222E+00  0.330442E+00
  0.359064E+00  0.402757E+00  0.460270E+00  0.529349E+00  0.602198E+00  0.669545E+00
  0.727158E+00  0.774528E+00  0.811007E+00  0.836001E+00  0.850325E+00  0.855284E+00
  0.850890E+00  0.835344E+00  0.806911E+00  0.768275E+00  0.729812E+00  0.704060E+00
  0.695689E+00  0.704060E+00  0.729812E+00  0.752692E+00  0.790219E+00  0.821954E+00
  0.841991E+00  0.850303E+00  0.848647E+00  0.837603E+00  0.816039E+00  0.782459E+00
  0.736668E+00  0.679514E+00  0.611501E+00  0.534954E+00  0.457827E+00  0.390274E+00
  0.337287E+00  0.299688E+00  0.279474E+00  0.279474E+00  0.299688E+00  0.337287E+00
  0.390274E+00  0.457827E+00  0.534954E+00  0.611501E+00  0.679514E+00  0.736668E+00
  0.782459E+00  0.816039E+00  0.837603E+00  0.848647E+00  0.850303E+00  0.841991E+00
  0.821954E+00  0.790219E+00  0.752692E+00  0.720928E+00  0.704060E+00  0.704060E+00
  0.720928E+00  0.752692E+00  0.783885E+00  0.813633E+00  0.834759E+00  0.845242E+00
  0.845901E+00  0.837372E+00  0.818748E+00  0.788194E+00  0.744625E+00  0.688468E+00
  0.620460E+00  0.542026E+00  0.459218E+00  0.382801E+00  0.320781E+00  0.274993E+00
  0.245980E+00  0.235866E+00  0.245980E+00  0.274993E+00  0.320781E+00  0.382801E+00
  0.459218E+00  0.542026E+00  0.620460E+00  0.688468E+00  0.744625E+00  0.788194E+00
  0.818748E+00  0.837372E+00  0.845901E+00  0.845242E+00  0.834759E+00  0.813633E+00
  0.783885E+00  0.752692E+00  0.729812E+00  0.721640E+00  0.729812E+00  0.752692E+00
  0.783885E+00  0.867806E+00  0.868573E+00  0.865726E+00  0.858014E+00  0.843999E+00
  0.821545E+00  0.788194E+00  0.742273E+00  0.683457E+00  0.612065E+00  0.529505E+00
  0.441462E+00  0.358416E+00  0.289519E+00  0.237906E+00  0.203313E+00  0.185748E+00
  0.185748E+00  0.203313E+00  0.237906E+00  0.289519E+00  0.358416E+00  0.441462E+00
  0.529505E+00  0.612065E+00  0.683457E+00  0.742273E+00  0.788194E+00  0.821545E+00
  0.843999E+00  0.858014E+00  0.865726E+00  0.868573E+00  0.867806E+00  0.865110E+00
  0.862387E+00  0.860868E+00  0.860868E+00  0.862387E+00  0.865110E+00  0.867806E+00
  0.868573E+00  0.865612E+00  0.858323E+00  0.845328E+00  0.824632E+00  0.793768E+00
  0.750675E+00  0.694472E+00  0.625093E+00  0.543259E+00  0.453165E+00  0.364464E+00
  0.287831E+00  0.228664E+00  0.187277E+00  0.162718E+00  0.154555E+00  0.162718E+00
  0.187277E+00  0.228664E+00  0.287831E+00  0.364464E+00  0.453165E+00  0.543259E+00
  0.625093E+00  0.694472E+00  0.750675E+00  0.793768E+00  0.824632E+00  0.845328E+00
  0.858323E+00  0.865612E+00  0.868573E+00  0.868461E+00  0.866788E+00  0.865091E+00
  0.864412E+00  0.865091E+00  0.866788E+00  0.868461E+00  0.868573E+00  0.865726E+00
  0.858323E+00  0.845694E+00  0.825947E+00  0.796707E+00  0.755803E+00  0.702050E+00
  0.635089E+00  0.555094E+00  0.464936E+00  0.372954E+00  0.290282E+00  0.224264E+00
  0.176571E+00  0.146065E+00  0.131269E+00  0.131269E+00  0.146065E+00  0.176571E+00
  0.224264E+00  0.290282E+00  0.372954E+00  0.464936E+00  0.555094E+00  0.635089E+00
  0.702050E+00  0.755803E+00  0.796707E+00  0.825947E+00  0.845694E+00  0.858323E+00
  0.865726E+00  0.869270E+00  0.870177E+00  0.869747E+00  0.869175E+00  0.869175E+00
  0.869747E+00  0.870177E+00  0.869270E+00  0.865726E+00  0.858014E+00  0.845328E+00
  0.825947E+00  0.797597E+00  0.758124E+00  0.706227E+00  0.641433E+00  0.563643E+00
  0.474742E+00  0.381671E+00  0.295194E+00  0.223749E+00  0.170405E+00  0.134650E+00
  0.114535E+00  0.108104E+00  0.114535E+00  0.134650E+00  0.170405E+00  0.223749E+00
  0.295194E+00  0.381671E+00  0.474742E+00  0.563643E+00  0.641433E+00  0.706227E+00
  0.758124E+00  0.797597E+00  0.825947E+00  0.845328E+00  0.858014E+00  0.865837E+00
  0.870166E+00  0.872146E+00  0.872810E+00  0.872933E+00  0.872810E+00  0.872146E+00
  0.870166E+00  0.865837E+00  0.858014E+00  0.843999E+00  0.824632E+00  0.796707E+00
  0.758124E+00  0.707519E+00  0.644356E+00  0.568473E+00  0.481219E+00  0.388443E+00
  0.300233E+00  0.225346E+00  0.167611E+00  0.127318E+00  0.102802E+00  0.914953E-01
  0.914953E-01  0.102802E+00  0.127318E+00  0.167611E+00  0.225346E+00  0.300233E+00
  0.388443E+00  0.481219E+00  0.568473E+00  0.644356E+00  0.707519E+00  0.758124E+00
  0.796707E+00  0.824632E+00  0.843999E+00  0.856974E+00  0.865327E+00  0.870384E+00
  0.873142E+00  0.874324E+00  0.874324E+00  0.873142E+00  0.870384E+00  0.865327E+00
  0.856974E+00  0.843999E+00  0.821545E+00  0.793768E+00  0.755803E+00  0.706227E+00
  0.644356E+00  0.569979E+00  0.484233E+00  0.392282E+00  0.303639E+00  0.227113E+00
  0.166701E+00  0.122979E+00  0.948361E-01  0.797680E-01  0.751196E-01  0.797680E-01
  0.948361E-01  0.122979E+00  0.166701E+00  0.227113E+00  0.303639E+00  0.392282E+00
  0.484233E+00  0.569979E+00  0.644356E+00  0.706227E+00  0.755803E+00  0.793768E+00
  0.821545E+00  0.841125E+00  0.854517E+00  0.863373E+00  0.868905E+00  0.871918E+00
  0.872873E+00  0.871918E+00  0.868905E+00  0.863373E+00  0.854517E+00  0.841125E+00
  0.821545E+00  0.788194E+00  0.750675E+00  0.702050E+00  0.641433E+00  0.568473E+00
  0.484233E+00  0.393448E+00  0.305100E+00  0.228041E+00  0.166420E+00  0.120643E+00
  0.897868E-01  0.717654E-01  0.637526E-01  0.637526E-01  0.717654E-01  0.897868E-01
  0.120643E+00  0.166420E+00  0.228041E+00  0.305100E+00  0.393448E+00  0.484233E+00
  0.568473E+00  0.641433E+00  0.702050E+00  0.750675E+00  0.788194E+00  0.816039E+00
  0.836001E+00  0.849857E+00  0.859078E+00  0.864712E+00  0.867388E+00  0.867388E+00
  0.864712E+00  0.859078E+00  0.849857E+00  0.836001E+00  0.816039E+00  0.788194E+00
  0.742273E+00  0.694472E+00  0.635089E+00  0.563643E+00  0.481219E+00  0.392282E+00
  0.305100E+00  0.228259E+00  0.166259E+00  0.119534E+00  0.869786E-01  0.667412E-01
  0.562090E-01  0.530109E-01  0.562090E-01  0.667412E-01  0.869786E-01  0.119534E+00
  0.166259E+00  0.228259E+00  0.305100E+00  0.392282E+00  0.481219E+00  0.563643E+00
  0.635089E+00  0.694472E+00  0.742273E+00  0.779529E+00  0.807585E+00  0.827966E+00
  0.842175E+00  0.851470E+00  0.856728E+00  0.858431E+00  0.856728E+00  0.851470E+00
  0.842175E+00  0.827966E+00  0.807585E+00  0.779529E+00  0.742273E+00  0.683457E+00
  0.625093E+00  0.555094E+00  0.474742E+00  0.388443E+00  0.303639E+00  0.228041E+00
  0.166259E+00  0.119207E+00  0.857884E-01  0.640868E-01  0.516755E-01  0.461896E-01
  0.461896E-01  0.516755E-01  0.640868E-01  0.857884E-01  0.119207E+00  0.166259E+00
  0.228041E+00  0.303639E+00  0.388443E+00  0.474742E+00  0.555094E+00  0.625093E+00
  0.683457E+00  0.730654E+00  0.767738E+00  0.795912E+00  0.816460E+00  0.830641E+00
  0.839508E+00  0.843770E+00  0.843770E+00  0.839508E+00  0.830641E+00  0.816460E+00
  0.795912E+00  0.767738E+00  0.730654E+00  0.683457E+00  0.612065E+00  0.543259E+00
  0.464936E+00  0.381671E+00  0.300233E+00  0.227113E+00  0.166420E+00  0.119534E+00
  0.857884E-01  0.632778E-01  0.495751E-01  0.424063E-01  0.402011E-01  0.424063E-01
  0.495751E-01  0.632778E-01  0.857884E-01  0.119534E+00  0.166420E+00  0.227113E+00
  0.300233E+00  0.381671E+00  0.464936E+00  0.543259E+00  0.612065E+00  0.669691E+00
  0.716386E+00  0.753104E+00  0.780953E+00  0.801086E+00  0.814591E+00  0.822339E+00
  0.824863E+00  0.822339E+00  0.814591E+00  0.801086E+00  0.780953E+00  0.753104E+00
  0.716386E+00  0.669691E+00  0.612065E+00  0.529505E+00  0.453165E+00  0.372954E+00
  0.295194E+00  0.225346E+00  0.166701E+00  0.120643E+00  0.869786E-01  0.640868E-01
  0.495751E-01  0.411925E-01  0.373806E-01  0.373806E-01  0.411925E-01  0.495751E-01
  0.640868E-01  0.869786E-01  0.120643E+00  0.166701E+00  0.225346E+00  0.295194E+00
  0.372954E+00  0.453165E+00  0.529505E+00  0.597177E+00  0.654046E+00  0.700005E+00
  0.735872E+00  0.762750E+00  0.781758E+00  0.793862E+00  0.799744E+00  0.799744E+00
  0.793862E+00  0.781758E+00  0.762750E+00  0.735872E+00  0.700005E+00  0.654046E+00
  0.597177E+00  0.529505E+00  0.441462E+00  0.364464E+00  0.290282E+00  0.223749E+00
  0.167611E+00  0.122979E+00  0.897868E-01  0.667412E-01  0.516755E-01  0.424063E-01
  0.373806E-01  0.357853E-01  0.373806E-01  0.424063E-01  0.516755E-01  0.667412E-01
  0.897868E-01  0.122979E+00  0.167611E+00  0.223749E+00  0.290282E+00  0.364464E+00
  0.441462E+00  0.515378E+00  0.581373E+00  0.636936E+00  0.681606E+00  0.716076E+00
  0.741444E+00  0.758769E+00  0.768851E+00  0.772161E+00  0.768851E+00  0.758769E+00
  0.741444E+00  0.716076E+00  0.681606E+00  0.636936E+00  0.581373E+00  0.515378E+00
  0.441462E+00  0.358416E+00  0.287831E+00  0.224264E+00  0.170405E+00  0.127318E+00
  0.948361E-01  0.717654E-01  0.562090E-01  0.461896E-01  0.402011E-01  0.373806E-01
  0.373806E-01  0.402011E-01  0.461896E-01  0.562090E-01  0.717654E-01  0.948361E-01
  0.127318E+00  0.170405E+00  0.224264E+00  0.287831E+00  0.358416E+00  0.431585E+00
  0.502036E+00  0.565225E+00  0.618521E+00  0.661224E+00  0.693853E+00  0.717344E+00
  0.732543E+00  0.740010E+00  0.740010E+00  0.732543E+00  0.717344E+00  0.693853E+00
  0.661224E+00  0.618521E+00  0.565225E+00  0.502036E+00  0.431585E+00  0.358416E+00
  0.289519E+00  0.228664E+00  0.176571E+00  0.134650E+00  0.102802E+00  0.797680E-01
  0.637526E-01  0.530109E-01  0.461896E-01  0.424063E-01  0.411925E-01  0.424063E-01
  0.461896E-01  0.530109E-01  0.637526E-01  0.797680E-01  0.102802E+00  0.134650E+00
  0.176571E+00  0.228664E+00  0.289519E+00  0.356242E+00  0.424778E+00  0.490587E+00
  0.549718E+00  0.599719E+00  0.639758E+00  0.670036E+00  0.691126E+00  0.703554E+00
  0.707659E+00  0.703554E+00  0.691126E+00  0.670036E+00  0.639758E+00  0.599719E+00
  0.549718E+00  0.490587E+00  0.424778E+00  0.356242E+00  0.289519E+00  0.237906E+00
  0.187277E+00  0.146065E+00  0.114535E+00  0.914953E-01  0.751196E-01  0.637526E-01
  0.562090E-01  0.516755E-01  0.495751E-01  0.495751E-01  0.516755E-01  0.562090E-01
  0.637526E-01  0.751196E-01  0.914953E-01  0.114535E+00  0.146065E+00  0.187277E+00
  0.237906E+00  0.296061E+00  0.358688E+00  0.422125E+00  0.482585E+00  0.536835E+00
  0.582755E+00  0.619366E+00  0.646469E+00  0.664254E+00  0.673034E+00  0.673034E+00
  0.664254E+00  0.646469E+00  0.619366E+00  0.582755E+00  0.536835E+00  0.482585E+00
  0.422125E+00  0.358688E+00  0.296061E+00  0.237906E+00  0.203313E+00  0.162718E+00
  0.131269E+00  0.108104E+00  0.914953E-01  0.797680E-01  0.717654E-01  0.667412E-01
  0.640868E-01  0.632778E-01  0.640868E-01  0.667412E-01  0.717654E-01  0.797680E-01
  0.914953E-01  0.108104E+00  0.131269E+00  0.162718E+00  0.203313E+00  0.252355E+00
  0.307662E+00  0.366183E+00  0.424581E+00  0.479674E+00  0.528830E+00  0.570169E+00
  0.602559E+00  0.625527E+00  0.639113E+00  0.643594E+00  0.639113E+00  0.625527E+00
  0.602559E+00  0.570169E+00  0.528830E+00  0.479674E+00  0.424581E+00  0.366183E+00
  0.307662E+00  0.252355E+00  0.203313E+00  0.185748E+00  0.154555E+00  0.131269E+00
  0.114535E+00  0.102802E+00  0.948361E-01  0.897868E-01  0.869786E-01  0.857884E-01
  0.857884E-01  0.869786E-01  0.897868E-01  0.948361E-01  0.102802E+00  0.114535E+00
  0.131269E+00  0.154555E+00  0.185748E+00  0.225285E+00  0.272236E+00  0.324419E+00
  0.378901E+00  0.432565E+00  0.482585E+00  0.526663E+00  0.563063E+00  0.590640E+00
  0.608913E+00  0.617943E+00  0.617943E+00  0.608913E+00  0.590640E+00  0.563063E+00
  0.526663E+00  0.482585E+00  0.432565E+00  0.378901E+00  0.324419E+00  0.272236E+00
  0.225285E+00  0.185748E+00  0.185748E+00  0.162718E+00  0.146065E+00  0.134650E+00
  0.127318E+00  0.122979E+00  0.120643E+00  0.119534E+00  0.119207E+00  0.119534E+00
  0.120643E+00  0.122979E+00  0.127318E+00  0.134650E+00  0.146065E+00  0.162718E+00
  0.185748E+00  0.216009E+00  0.253648E+00  0.297772E+00  0.346390E+00  0.396706E+00
  0.445675E+00  0.490587E+00  0.529349E+00  0.560470E+00  0.583011E+00  0.596559E+00
  0.601064E+00  0.596559E+00  0.583011E+00  0.560470E+00  0.529349E+00  0.490587E+00
  0.445675E+00  0.396706E+00  0.346390E+00  0.297772E+00  0.253648E+00  0.216009E+00
  0.185748E+00  0.203313E+00  0.187277E+00  0.176571E+00  0.170405E+00  0.167611E+00
  0.166701E+00  0.166420E+00  0.166259E+00  0.166259E+00  0.166420E+00  0.166701E+00
  0.167611E+00  0.170405E+00  0.176571E+00  0.187277E+00  0.203313E+00  0.225285E+00
  0.253648E+00  0.288456E+00  0.328983E+00  0.373444E+00  0.419092E+00  0.462829E+00
  0.502036E+00  0.534954E+00  0.560514E+00  0.577993E+00  0.586874E+00  0.586874E+00
  0.577993E+00  0.560514E+00  0.534954E+00  0.502036E+00  0.462829E+00  0.419092E+00
  0.373444E+00  0.328983E+00  0.288456E+00  0.253648E+00  0.225285E+00  0.203313E+00
  0.237906E+00  0.228664E+00  0.224264E+00  0.223749E+00  0.225346E+00  0.227113E+00
  0.228041E+00  0.228259E+00  0.228041E+00  0.227113E+00  0.225346E+00  0.223749E+00
  0.224264E+00  0.228664E+00  0.237906E+00  0.252355E+00  0.272236E+00  0.297772E+00
  0.328983E+00  0.365248E+00  0.404853E+00  0.444999E+00  0.482614E+00  0.515378E+00
  0.542026E+00  0.561858E+00  0.574204E+00  0.578414E+00  0.574204E+00  0.561858E+00
  0.542026E+00  0.515378E+00  0.482614E+00  0.444999E+00  0.404853E+00  0.365248E+00
  0.328983E+00  0.297772E+00  0.272236E+00  0.252355E+00  0.237906E+00  0.289519E+00
  0.287831E+00  0.290282E+00  0.295194E+00  0.300233E+00  0.303639E+00  0.305100E+00
  0.305100E+00  0.303639E+00  0.300233E+00  0.295194E+00  0.290282E+00  0.287831E+00
  0.289519E+00  0.296061E+00  0.307662E+00  0.324419E+00  0.346390E+00  0.373444E+00
  0.404853E+00  0.438824E+00  0.472615E+00  0.503461E+00  0.529505E+00  0.549852E+00
  0.563964E+00  0.571254E+00  0.571254E+00  0.563964E+00  0.549852E+00  0.529505E+00
  0.503461E+00  0.472615E+00  0.438824E+00  0.404853E+00  0.373444E+00  0.346390E+00
  0.324419E+00  0.307662E+00  0.296061E+00  0.289519E+00  0.358416E+00  0.364464E+00
  0.372954E+00  0.381671E+00  0.388443E+00  0.392282E+00  0.393448E+00  0.392282E+00
  0.388443E+00  0.381671E+00  0.372954E+00  0.364464E+00  0.358416E+00  0.356242E+00
  0.358688E+00  0.366183E+00  0.378901E+00  0.396706E+00  0.419092E+00  0.444999E+00
  0.472615E+00  0.499575E+00  0.523636E+00  0.543259E+00  0.557648E+00  0.566423E+00
  0.569373E+00  0.566423E+00  0.557648E+00  0.543259E+00  0.523636E+00  0.499575E+00
  0.472615E+00  0.444999E+00  0.419092E+00  0.396706E+00  0.378901E+00  0.366183E+00
  0.358688E+00  0.356242E+00  0.358416E+00  0.441462E+00  0.453165E+00  0.464936E+00
  0.474742E+00  0.481219E+00  0.484233E+00  0.484233E+00  0.481219E+00  0.474742E+00
  0.464936E+00  0.453165E+00  0.441462E+00  0.431585E+00  0.424778E+00  0.422125E+00
  0.424581E+00  0.432565E+00  0.445675E+00  0.462829E+00  0.482614E+00  0.503461E+00
  0.523636E+00  0.541336E+00  0.555094E+00  0.564183E+00  0.568600E+00  0.568600E+00
  0.564183E+00  0.555094E+00  0.541336E+00  0.523636E+00  0.503461E+00  0.482614E+00
  0.462829E+00  0.445675E+00  0.432565E+00  0.424581E+00  0.422125E+00  0.424778E+00
  0.431585E+00  0.441462E+00  0.529505E+00  0.543259E+00  0.555094E+00  0.563643E+00
  0.568473E+00  0.569979E+00  0.568473E+00  0.563643E+00  0.555094E+00  0.543259E+00
  0.529505E+00  0.515378E+00  0.502036E+00  0.490587E+00  0.482585E+00  0.479674E+00
  0.482585E+00  0.490587E+00  0.502036E+00  0.515378E+00  0.529505E+00  0.543259E+00
  0.555094E+00  0.563643E+00  0.568473E+00  0.569979E+00  0.568473E+00  0.563643E+00
  0.555094E+00  0.543259E+00  0.529505E+00  0.515378E+00  0.502036E+00  0.490587E+00
  0.482585E+00  0.479674E+00  0.482585E+00  0.490587E+00  0.502036E+00  0.515378E+00
  0.529505E+00  0.612065E+00  0.625093E+00  0.635089E+00  0.641433E+00  0.644356E+00
  0.644356E+00  0.641433E+00  0.635089E+00  0.625093E+00  0.612065E+00  0.597177E+00
  0.581373E+00  0.565225E+00  0.549718E+00  0.536835E+00  0.528830E+00  0.526663E+00
  0.529349E+00  0.534954E+00  0.542026E+00  0.549852E+00  0.557648E+00  0.564183E+00
  0.568473E+00  0.570430E+00  0.570430E+00  0.568473E+00  0.564183E+00  0.557648E+00
  0.549852E+00  0.542026E+00  0.534954E+00  0.529349E+00  0.526663E+00  0.528830E+00
  0.536835E+00  0.549718E+00  0.565225E+00  0.581373E+00  0.597177E+00  0.612065E+00
  0.683457E+00  0.694472E+00  0.702050E+00  0.706227E+00  0.707519E+00  0.706227E+00
  0.702050E+00  0.694472E+00  0.683457E+00  0.669691E+00  0.654046E+00  0.636936E+00
  0.618521E+00  0.599719E+00  0.582755E+00  0.570169E+00  0.563063E+00  0.560470E+00
  0.560514E+00  0.561858E+00  0.563964E+00  0.566423E+00  0.568600E+00  0.569979E+00
  0.570430E+00  0.569979E+00  0.568600E+00  0.566423E+00  0.563964E+00  0.561858E+00
  0.560514E+00  0.560470E+00  0.563063E+00  0.570169E+00  0.582755E+00  0.599719E+00
  0.618521E+00  0.636936E+00  0.654046E+00  0.669691E+00  0.683457E+00  0.742273E+00
  0.750675E+00  0.755803E+00  0.758124E+00  0.758124E+00  0.755803E+00  0.750675E+00
  0.742273E+00  0.730654E+00  0.716386E+00  0.700005E+00  0.681606E+00  0.661224E+00
  0.639758E+00  0.619366E+00  0.602559E+00  0.590640E+00  0.583011E+00  0.577993E+00
  0.574204E+00  0.571254E+00  0.569373E+00  0.568600E+00  0.568473E+00  0.568473E+00
  0.568600E+00  0.569373E+00  0.571254E+00  0.574204E+00  0.577993E+00  0.583011E+00
  0.590640E+00  0.602559E+00  0.619366E+00  0.639758E+00  0.661224E+00  0.681606E+00
  0.700005E+00  0.716386E+00  0.730654E+00  0.742273E+00  0.788194E+00  0.793768E+00
  0.796707E+00  0.797597E+00  0.796707E+00  0.793768E+00  0.788194E+00  0.779529E+00
  0.767738E+00  0.753104E+00  0.735872E+00  0.716076E+00  0.693853E+00  0.670036E+00
  0.646469E+00  0.625527E+00  0.608913E+00  0.596559E+00  0.586874E+00  0.578414E+00
  0.571254E+00  0.566423E+00  0.564183E+00  0.563643E+00  0.564183E+00  0.566423E+00
  0.571254E+00  0.578414E+00  0.586874E+00  0.596559E+00  0.608913E+00  0.625527E+00
  0.646469E+00  0.670036E+00  0.693853E+00  0.716076E+00  0.735872E+00  0.753104E+00
  0.767738E+00  0.779529E+00  0.788194E+00  0.821545E+00  0.824632E+00  0.825947E+00
  0.825947E+00  0.824632E+00  0.821545E+00  0.816039E+00  0.807585E+00  0.795912E+00
  0.780953E+00  0.762750E+00  0.741444E+00  0.717344E+00  0.691126E+00  0.664254E+00
  0.639113E+00  0.617943E+00  0.601064E+00  0.586874E+00  0.574204E+00  0.563964E+00
  0.557648E+00  0.555094E+00  0.555094E+00  0.557648E+00  0.563964E+00  0.574204E+00
  0.586874E+00  0.601064E+00  0.617943E+00  0.639113E+00  0.664254E+00  0.691126E+00
  0.717344E+00  0.741444E+00  0.762750E+00  0.780953E+00  0.795912E+00  0.807585E+00
  0.816039E+00  0.821545E+00  0.843999E+00  0.845328E+00  0.845694E+00  0.845328E+00
  0.843999E+00  0.841125E+00  0.836001E+00  0.827966E+00  0.816460E+00  0.801086E+00
  0.781758E+00  0.758769E+00  0.732543E+00  0.703554E+00  0.673034E+00  0.643594E+00
  0.617943E+00  0.596559E+00  0.577993E+00  0.561858E+00  0.549852E+00  0.543259E+00
  0.541336E+00  0.543259E+00  0.549852E+00  0.561858E+00  0.577993E+00  0.596559E+00
  0.617943E+00  0.643594E+00  0.673034E+00  0.703554E+00  0.732543E+00  0.758769E+00
  0.781758E+00  0.801086E+00  0.816460E+00  0.827966E+00  0.836001E+00  0.841125E+00
  0.843999E+00  0.858014E+00  0.858323E+00  0.858323E+00  0.858014E+00  0.856974E+00
  0.854517E+00  0.849857E+00  0.842175E+00  0.830641E+00  0.814591E+00  0.793862E+00
  0.768851E+00  0.740010E+00  0.707659E+00  0.673034E+00  0.639113E+00  0.608913E+00
  0.583011E+00  0.560514E+00  0.542026E+00  0.529505E+00  0.523636E+00  0.523636E+00
  0.529505E+00  0.542026E+00  0.560514E+00  0.583011E+00  0.608913E+00  0.639113E+00
  0.673034E+00  0.707659E+00  0.740010E+00  0.768851E+00  0.793862E+00  0.814591E+00
  0.830641E+00  0.842175E+00  0.849857E+00  0.854517E+00  0.856974E+00  0.858014E+00
  0.865726E+00  0.865612E+00  0.865726E+00  0.865837E+00  0.865327E+00  0.863373E+00
  0.859078E+00  0.851470E+00  0.839508E+00  0.822339E+00  0.799744E+00  0.772161E+00
  0.740010E+00  0.703554E+00  0.664254E+00  0.625527E+00  0.590640E+00  0.560470E+00
  0.534954E+00  0.515378E+00  0.503461E+00  0.499575E+00  0.503461E+00  0.515378E+00
  0.534954E+00  0.560470E+00  0.590640E+00  0.625527E+00  0.664254E+00  0.703554E+00
  0.740010E+00  0.772161E+00  0.799744E+00  0.822339E+00  0.839508E+00  0.851470E+00
  0.859078E+00  0.863373E+00  0.865327E+00  0.865837E+00  0.865726E+00  0.868573E+00
  0.868573E+00  0.869270E+00  0.870166E+00  0.870384E+00  0.868905E+00  0.864712E+00
  0.856728E+00  0.843770E+00  0.824863E+00  0.799744E+00  0.768851E+00  0.732543E+00
  0.691126E+00  0.646469E+00  0.602559E+00  0.563063E+00  0.529349E+00  0.502036E+00
  0.482614E+00  0.472615E+00  0.472615E+00  0.482614E+00  0.502036E+00  0.529349E+00
  0.563063E+00  0.602559E+00  0.646469E+00  0.691126E+00  0.732543E+00  0.768851E+00
  0.799744E+00  0.824863E+00  0.843770E+00  0.856728E+00  0.864712E+00  0.868905E+00
  0.870384E+00  0.870166E+00  0.869270E+00  0.868573E+00  0.867806E+00  0.868461E+00
  0.870177E+00  0.872146E+00  0.873142E+00  0.871918E+00  0.867388E+00  0.858431E+00
  0.843770E+00  0.822339E+00  0.793862E+00  0.758769E+00  0.717344E+00  0.670036E+00
  0.619366E+00  0.570169E+00  0.526663E+00  0.490587E+00  0.462829E+00  0.444999E+00
  0.438824E+00  0.444999E+00  0.462829E+00  0.490587E+00  0.526663E+00  0.570169E+00
  0.619366E+00  0.670036E+00  0.717344E+00  0.758769E+00  0.793862E+00  0.822339E+00
  0.843770E+00  0.858431E+00  0.867388E+00  0.871918E+00  0.873142E+00  0.872146E+00
  0.870177E+00  0.868461E+00  0.867806E+00  0.865110E+00  0.866788E+00  0.869747E+00
  0.872810E+00  0.874324E+00  0.872873E+00  0.867388E+00  0.856728E+00  0.839508E+00
  0.814591E+00  0.781758E+00  0.741444E+00  0.693853E+00  0.639758E+00  0.582755E+00
  0.528830E+00  0.482585E+00  0.445675E+00  0.419092E+00  0.404853E+00  0.404853E+00
  0.419092E+00  0.445675E+00  0.482585E+00  0.528830E+00  0.582755E+00  0.639758E+00
  0.693853E+00  0.741444E+00  0.781758E+00  0.814591E+00  0.839508E+00  0.856728E+00
  0.867388E+00  0.872873E+00  0.874324E+00  0.872810E+00  0.869747E+00  0.866788E+00
  0.865110E+00  0.865110E+00  0.862387E+00  0.865091E+00  0.869175E+00  0.872933E+00
  0.874324E+00  0.871918E+00  0.864712E+00  0.851470E+00  0.830641E+00  0.801086E+00
  0.762750E+00  0.716076E+00  0.661224E+00  0.599719E+00  0.536835E+00  0.479674E+00
  0.432565E+00  0.396706E+00  0.373444E+00  0.365248E+00  0.373444E+00  0.396706E+00
  0.432565E+00  0.479674E+00  0.536835E+00  0.599719E+00  0.661224E+00  0.716076E+00
  0.762750E+00  0.801086E+00  0.830641E+00  0.851470E+00  0.864712E+00  0.871918E+00
  0.874324E+00  0.872933E+00  0.869175E+00  0.865091E+00  0.862387E+00  0.861526E+00
  0.862387E+00  0.860868E+00  0.864412E+00  0.869175E+00  0.872810E+00  0.873142E+00
  0.868905E+00  0.859078E+00  0.842175E+00  0.816460E+00  0.780953E+00  0.735872E+00
  0.681606E+00  0.618521E+00  0.549718E+00  0.482585E+00  0.424581E+00  0.378901E+00
  0.346390E+00  0.328983E+00  0.328983E+00  0.346390E+00  0.378901E+00  0.424581E+00
  0.482585E+00  0.549718E+00  0.618521E+00  0.681606E+00  0.735872E+00  0.780953E+00
  0.816460E+00  0.842175E+00  0.859078E+00  0.868905E+00  0.873142E+00  0.872810E+00
  0.869175E+00  0.864412E+00  0.860868E+00  0.859381E+00  0.859381E+00  0.860868E+00
  0.860868E+00  0.865091E+00  0.869747E+00  0.872146E+00  0.870384E+00  0.863373E+00
  0.849857E+00  0.827966E+00  0.795912E+00  0.753104E+00  0.700005E+00  0.636936E+00
  0.565225E+00  0.490587E+00  0.422125E+00  0.366183E+00  0.324419E+00  0.297772E+00
  0.288456E+00  0.297772E+00  0.324419E+00  0.366183E+00  0.422125E+00  0.490587E+00
  0.565225E+00  0.636936E+00  0.700005E+00  0.753104E+00  0.795912E+00  0.827966E+00
  0.849857E+00  0.863373E+00  0.870384E+00  0.872146E+00  0.869747E+00  0.865091E+00
  0.860868E+00  0.858780E+00  0.858340E+00  0.858780E+00  0.860868E+00  0.862387E+00
  0.866788E+00  0.870177E+00  0.870166E+00  0.865327E+00  0.854517E+00  0.836001E+00
  0.807585E+00  0.767738E+00  0.716386E+00  0.654046E+00  0.581373E+00  0.502036E+00
  0.424778E+00  0.358688E+00  0.307662E+00  0.272236E+00  0.253648E+00  0.253648E+00
  0.272236E+00  0.307662E+00  0.358688E+00  0.424778E+00  0.502036E+00  0.581373E+00
  0.654046E+00  0.716386E+00  0.767738E+00  0.807585E+00  0.836001E+00  0.854517E+00
  0.865327E+00  0.870166E+00  0.870177E+00  0.866788E+00  0.862387E+00  0.859381E+00
  0.858340E+00  0.858340E+00  0.859381E+00  0.862387E+00  0.865110E+00  0.868461E+00
  0.869270E+00  0.865837E+00  0.856974E+00  0.841125E+00  0.816039E+00  0.779529E+00
  0.730654E+00  0.669691E+00  0.597177E+00  0.515378E+00  0.431585E+00  0.356242E+00
  0.296061E+00  0.252355E+00  0.225285E+00  0.216009E+00  0.225285E+00  0.252355E+00
  0.296061E+00  0.356242E+00  0.431585E+00  0.515378E+00  0.597177E+00  0.669691E+00
  0.730654E+00  0.779529E+00  0.816039E+00  0.841125E+00  0.856974E+00  0.865837E+00
  0.869270E+00  0.868461E+00  0.865110E+00  0.861526E+00  0.859381E+00  0.858780E+00
  0.859381E+00  0.861526E+00  0.865110E+00  0.867806E+00  0.868573E+00  0.865726E+00
  0.858014E+00  0.843999E+00  0.821545E+00  0.788194E+00  0.742273E+00  0.683457E+00
  0.612065E+00  0.529505E+00  0.441462E+00  0.358416E+00  0.289519E+00  0.237906E+00
  0.203313E+00  0.185748E+00  0.185748E+00  0.203313E+00  0.237906E+00  0.289519E+00
  0.358416E+00  0.441462E+00  0.529505E+00  0.612065E+00  0.683457E+00  0.742273E+00
  0.788194E+00  0.821545E+00  0.843999E+00  0.858014E+00  0.865726E+00  0.868573E+00
  0.867806E+00  0.865110E+00  0.862387E+00  0.860868E+00  0.860868E+00  0.862387E+00
  0.865110E+00  0.867806E+00  0.896485E+00  0.887013E+00  0.873920E+00  0.855510E+00
  0.829402E+00  0.793042E+00  0.744625E+00  0.683457E+00  0.609407E+00  0.523636E+00
  0.431556E+00  0.343291E+00  0.268374E+00  0.211179E+00  0.171875E+00  0.149139E+00
  0.141725E+00  0.149139E+00  0.171875E+00  0.211179E+00  0.268374E+00  0.343291E+00
  0.431556E+00  0.523636E+00  0.609407E+00  0.683457E+00  0.744625E+00  0.793042E+00
  0.829402E+00  0.855510E+00  0.873920E+00  0.887013E+00  0.896485E+00  0.903361E+00
  0.908190E+00  0.911146E+00  0.912156E+00  0.911146E+00  0.908190E+00  0.903361E+00
  0.896485E+00  0.887013E+00  0.874916E+00  0.857832E+00  0.833611E+00  0.799767E+00
  0.754289E+00  0.696193E+00  0.625093E+00  0.541336E+00  0.448723E+00  0.356431E+00
  0.275028E+00  0.210714E+00  0.164771E+00  0.135927E+00  0.122207E+00  0.122207E+00
  0.135927E+00  0.164771E+00  0.210714E+00  0.275028E+00  0.356431E+00  0.448723E+00
  0.541336E+00  0.625093E+00  0.696193E+00  0.754289E+00  0.799767E+00  0.833611E+00
  0.857832E+00  0.874916E+00  0.887013E+00  0.895593E+00  0.901539E+00  0.905338E+00
  0.907208E+00  0.907208E+00  0.905338E+00  0.901539E+00  0.895593E+00  0.887013E+00
  0.873920E+00  0.857832E+00  0.834977E+00  0.803006E+00  0.759861E+00  0.704408E+00
  0.636177E+00  0.555094E+00  0.463627E+00  0.369580E+00  0.283712E+00  0.213582E+00
  0.161678E+00  0.127329E+00  0.108313E+00  0.102303E+00  0.108313E+00  0.127329E+00
  0.161678E+00  0.213582E+00  0.283712E+00  0.369580E+00  0.463627E+00  0.555094E+00
  0.636177E+00  0.704408E+00  0.759861E+00  0.803006E+00  0.834977E+00  0.857832E+00
  0.873920E+00  0.885191E+00  0.892974E+00  0.898084E+00  0.900993E+00  0.901939E+00
  0.900993E+00  0.898084E+00  0.892974E+00  0.885191E+00  0.873920E+00  0.855510E+00
  0.833611E+00  0.803006E+00  0.761669E+00  0.708367E+00  0.642597E+00  0.564183E+00
  0.474742E+00  0.380709E+00  0.292422E+00  0.218222E+00  0.161478E+00  0.122273E+00
  0.987199E-01  0.879811E-01  0.879811E-01  0.987199E-01  0.122273E+00  0.161478E+00
  0.218222E+00  0.292422E+00  0.380709E+00  0.474742E+00  0.564183E+00  0.642597E+00
  0.708367E+00  0.761669E+00  0.803006E+00  0.833611E+00  0.855510E+00  0.870887E+00
  0.881525E+00  0.888661E+00  0.893062E+00  0.895165E+00  0.895165E+00  0.893062E+00
  0.888661E+00  0.881525E+00  0.870887E+00  0.855510E+00  0.829402E+00  0.799767E+00
  0.759861E+00  0.708367E+00  0.644672E+00  0.568600E+00  0.481393E+00  0.388443E+00
  0.299387E+00  0.222906E+00  0.162867E+00  0.119777E+00  0.923386E-01  0.778040E-01
  0.733511E-01  0.778040E-01  0.923386E-01  0.119777E+00  0.162867E+00  0.222906E+00
  0.299387E+00  0.388443E+00  0.481393E+00  0.568600E+00  0.644672E+00  0.708367E+00
  0.759861E+00  0.799767E+00  0.829402E+00  0.850692E+00  0.865620E+00  0.875814E+00
  0.882418E+00  0.886138E+00  0.887341E+00  0.886138E+00  0.882418E+00  0.875814E+00
  0.865620E+00  0.850692E+00  0.829402E+00  0.793042E+00  0.754289E+00  0.704408E+00
  0.642597E+00  0.568600E+00  0.483575E+00  0.392291E+00  0.303639E+00  0.226340E+00
  0.164596E+00  0.118956E+00  0.884513E-01  0.707981E-01  0.630070E-01  0.630070E-01
  0.707981E-01  0.884513E-01  0.118956E+00  0.164596E+00  0.226340E+00  0.303639E+00
  0.392291E+00  0.483575E+00  0.568600E+00  0.642597E+00  0.704408E+00  0.754289E+00
  0.793042E+00  0.822024E+00  0.842981E+00  0.857663E+00  0.867526E+00  0.873600E+00
  0.876501E+00  0.876501E+00  0.873600E+00  0.867526E+00  0.857663E+00  0.842981E+00
  0.822024E+00  0.793042E+00  0.744625E+00  0.696193E+00  0.636177E+00  0.564183E+00
  0.481393E+00  0.392291E+00  0.305030E+00  0.228041E+00  0.165832E+00  0.118992E+00
  0.864908E-01  0.663992E-01  0.559970E-01  0.528488E-01  0.559970E-01  0.663992E-01
  0.864908E-01  0.118992E+00  0.165832E+00  0.228041E+00  0.305030E+00  0.392291E+00
  0.481393E+00  0.564183E+00  0.636177E+00  0.696193E+00  0.744625E+00  0.782459E+00
  0.811007E+00  0.831783E+00  0.846287E+00  0.855783E+00  0.861154E+00  0.862894E+00
  0.861154E+00  0.855783E+00  0.846287E+00  0.831783E+00  0.811007E+00  0.782459E+00
  0.744625E+00  0.683457E+00  0.625093E+00  0.555094E+00  0.474742E+00  0.388443E+00
  0.303639E+00  0.228041E+00  0.166259E+00  0.119207E+00  0.857884E-01  0.640868E-01
  0.516755E-01  0.461896E-01  0.461896E-01  0.516755E-01  0.640868E-01  0.857884E-01
  0.119207E+00  0.166259E+00  0.228041E+00  0.303639E+00  0.388443E+00  0.474742E+00
  0.555094E+00  0.625093E+00  0.683457E+00  0.730654E+00  0.767738E+00  0.795912E+00
  0.816460E+00  0.830641E+00  0.839508E+00  0.843770E+00  0.843770E+00  0.839508E+00
  0.830641E+00  0.816460E+00  0.795912E+00  0.767738E+00  0.730654E+00  0.683457E+00
  0.609407E+00  0.541336E+00  0.463627E+00  0.380709E+00  0.299387E+00  0.226340E+00
  0.165832E+00  0.119207E+00  0.856575E-01  0.632015E-01  0.494527E-01  0.422173E-01
  0.399832E-01  0.422173E-01  0.494527E-01  0.632015E-01  0.856575E-01  0.119207E+00
  0.165832E+00  0.226340E+00  0.299387E+00  0.380709E+00  0.463627E+00  0.541336E+00
  0.609407E+00  0.666361E+00  0.712544E+00  0.748922E+00  0.776565E+00  0.796581E+00
  0.810027E+00  0.817749E+00  0.820266E+00  0.817749E+00  0.810027E+00  0.796581E+00
  0.776565E+00  0.748922E+00  0.712544E+00  0.666361E+00  0.609407E+00  0.523636E+00
  0.448723E+00  0.369580E+00  0.292422E+00  0.222906E+00  0.164596E+00  0.118992E+00
  0.857884E-01  0.632015E-01  0.487902E-01  0.403780E-01  0.365169E-01  0.365169E-01
  0.403780E-01  0.487902E-01  0.632015E-01  0.857884E-01  0.118992E+00  0.164596E+00
  0.222906E+00  0.292422E+00  0.369580E+00  0.448723E+00  0.523636E+00  0.589867E+00
  0.645610E+00  0.690872E+00  0.726396E+00  0.753143E+00  0.772116E+00  0.784218E+00
  0.790103E+00  0.790103E+00  0.784218E+00  0.772116E+00  0.753143E+00  0.726396E+00
  0.690872E+00  0.645610E+00  0.589867E+00  0.523636E+00  0.431556E+00  0.356431E+00
  0.283712E+00  0.218222E+00  0.162867E+00  0.118956E+00  0.864908E-01  0.640868E-01
  0.494527E-01  0.403780E-01  0.353952E-01  0.337995E-01  0.353952E-01  0.403780E-01
  0.494527E-01  0.640868E-01  0.864908E-01  0.118956E+00  0.162867E+00  0.218222E+00
  0.283712E+00  0.356431E+00  0.431556E+00  0.503461E+00  0.567736E+00  0.622169E+00
  0.666304E+00  0.700629E+00  0.726014E+00  0.743384E+00  0.753494E+00  0.756812E+00
  0.753494E+00  0.743384E+00  0.726014E+00  0.700629E+00  0.666304E+00  0.622169E+00
  0.567736E+00  0.503461E+00  0.431556E+00  0.343291E+00  0.275028E+00  0.213582E+00
  0.161478E+00  0.119777E+00  0.884513E-01  0.663992E-01  0.516755E-01  0.422173E-01
  0.365169E-01  0.337995E-01  0.337995E-01  0.365169E-01  0.422173E-01  0.516755E-01
  0.663992E-01  0.884513E-01  0.119777E+00  0.161478E+00  0.213582E+00  0.275028E+00
  0.343291E+00  0.414163E+00  0.482614E+00  0.544365E+00  0.596880E+00  0.639315E+00
  0.671936E+00  0.695483E+00  0.710722E+00  0.718204E+00  0.718204E+00  0.710722E+00
  0.695483E+00  0.671936E+00  0.639315E+00  0.596880E+00  0.544365E+00  0.482614E+00
  0.414163E+00  0.343291E+00  0.268374E+00  0.210714E+00  0.161678E+00  0.122273E+00
  0.923386E-01  0.707981E-01  0.559970E-01  0.461896E-01  0.399832E-01  0.365169E-01
  0.353952E-01  0.365169E-01  0.399832E-01  0.461896E-01  0.559970E-01  0.707981E-01
  0.923386E-01  0.122273E+00  0.161678E+00  0.210714E+00  0.268374E+00  0.332251E+00
  0.398564E+00  0.462829E+00  0.521037E+00  0.570593E+00  0.610475E+00  0.640735E+00
  0.661859E+00  0.674329E+00  0.678452E+00  0.674329E+00  0.661859E+00  0.640735E+00
  0.610475E+00  0.570593E+00  0.521037E+00  0.462829E+00  0.398564E+00  0.332251E+00
  0.268374E+00  0.211179E+00  0.164771E+00  0.127329E+00  0.987199E-01  0.778040E-01
  0.630070E-01  0.528488E-01  0.461896E-01  0.422173E-01  0.403780E-01  0.403780E-01
  0.422173E-01  0.461896E-01  0.528488E-01  0.630070E-01  0.778040E-01  0.987199E-01
  0.127329E+00  0.164771E+00  0.211179E+00  0.265392E+00  0.324964E+00  0.386391E+00
  0.445675E+00  0.499257E+00  0.544784E+00  0.581188E+00  0.608249E+00  0.626109E+00
  0.634974E+00  0.634974E+00  0.626109E+00  0.608249E+00  0.581188E+00  0.544784E+00
  0.499257E+00  0.445675E+00  0.386391E+00  0.324964E+00  0.265392E+00  0.211179E+00
  0.171875E+00  0.135927E+00  0.108313E+00  0.879811E-01  0.733511E-01  0.630070E-01
  0.559970E-01  0.516755E-01  0.494527E-01  0.487902E-01  0.494527E-01  0.516755E-01
  0.559970E-01  0.630070E-01  0.733511E-01  0.879811E-01  0.108313E+00  0.135927E+00
  0.171875E+00  0.216060E+00  0.267076E+00  0.322397E+00  0.378727E+00  0.432565E+00
  0.480923E+00  0.521752E+00  0.553899E+00  0.576863E+00  0.590561E+00  0.595102E+00
  0.590561E+00  0.576863E+00  0.553899E+00  0.521752E+00  0.480923E+00  0.432565E+00
  0.378727E+00  0.322397E+00  0.267076E+00  0.216060E+00  0.171875E+00  0.149139E+00
  0.122207E+00  0.102303E+00  0.879811E-01  0.778040E-01  0.707981E-01  0.663992E-01
  0.640868E-01  0.632015E-01  0.632015E-01  0.640868E-01  0.663992E-01  0.707981E-01
  0.778040E-01  0.879811E-01  0.102303E+00  0.122207E+00  0.149139E+00  0.183852E+00
  0.225939E+00  0.273790E+00  0.324864E+00  0.376120E+00  0.424581E+00  0.467733E+00
  0.503663E+00  0.531078E+00  0.549350E+00  0.558414E+00  0.558414E+00  0.549350E+00
  0.531078E+00  0.503663E+00  0.467733E+00  0.424581E+00  0.376120E+00  0.324864E+00
  0.273790E+00  0.225939E+00  0.183852E+00  0.149139E+00  0.141725E+00  0.122207E+00
  0.108313E+00  0.987199E-01  0.923386E-01  0.884513E-01  0.864908E-01  0.857884E-01
  0.856575E-01  0.857884E-01  0.864908E-01  0.884513E-01  0.923386E-01  0.987199E-01
  0.108313E+00  0.122207E+00  0.141725E+00  0.167962E+00  0.201282E+00  0.241029E+00
  0.285526E+00  0.332334E+00  0.378727E+00  0.422125E+00  0.460270E+00  0.491273E+00
  0.513817E+00  0.527332E+00  0.531810E+00  0.527332E+00  0.513817E+00  0.491273E+00
  0.460270E+00  0.422125E+00  0.378727E+00  0.332334E+00  0.285526E+00  0.241029E+00
  0.201282E+00  0.167962E+00  0.141725E+00  0.149139E+00  0.135927E+00  0.127329E+00
  0.122273E+00  0.119777E+00  0.118956E+00  0.118992E+00  0.119207E+00  0.119207E+00
  0.118992E+00  0.118956E+00  0.119777E+00  0.122273E+00  0.127329E+00  0.135927E+00
  0.149139E+00  0.167962E+00  0.193044E+00  0.224427E+00  0.261358E+00  0.302226E+00
  0.344747E+00  0.386391E+00  0.424778E+00  0.457827E+00  0.483816E+00  0.501562E+00
  0.510505E+00  0.510505E+00  0.501562E+00  0.483816E+00  0.457827E+00  0.424778E+00
  0.386391E+00  0.344747E+00  0.302226E+00  0.261358E+00  0.224427E+00  0.193044E+00
  0.167962E+00  0.149139E+00  0.171875E+00  0.164771E+00  0.161678E+00  0.161478E+00
  0.162867E+00  0.164596E+00  0.165832E+00  0.166259E+00  0.165832E+00  0.164596E+00
  0.162867E+00  0.161478E+00  0.161678E+00  0.164771E+00  0.171875E+00  0.183852E+00
  0.201282E+00  0.224427E+00  0.253167E+00  0.286794E+00  0.323795E+00  0.361893E+00
  0.398564E+00  0.431585E+00  0.459218E+00  0.480079E+00  0.493075E+00  0.497490E+00
  0.493075E+00  0.480079E+00  0.459218E+00  0.431585E+00  0.398564E+00  0.361893E+00
  0.323795E+00  0.286794E+00  0.253167E+00  0.224427E+00  0.201282E+00  0.183852E+00
  0.171875E+00  0.211179E+00  0.210714E+00  0.213582E+00  0.218222E+00  0.222906E+00
  0.226340E+00  0.228041E+00  0.228041E+00  0.226340E+00  0.222906E+00  0.218222E+00
  0.213582E+00  0.210714E+00  0.211179E+00  0.216060E+00  0.225939E+00  0.241029E+00
  0.261358E+00  0.286794E+00  0.316720E+00  0.349566E+00  0.382893E+00  0.414163E+00
  0.441462E+00  0.463503E+00  0.479172E+00  0.487377E+00  0.487377E+00  0.479172E+00
  0.463503E+00  0.441462E+00  0.414163E+00  0.382893E+00  0.349566E+00  0.316720E+00
  0.286794E+00  0.261358E+00  0.241029E+00  0.225939E+00  0.216060E+00  0.211179E+00
  0.268374E+00  0.275028E+00  0.283712E+00  0.292422E+00  0.299387E+00  0.303639E+00
  0.305030E+00  0.303639E+00  0.299387E+00  0.292422E+00  0.283712E+00  0.275028E+00
  0.268374E+00  0.265392E+00  0.267076E+00  0.273790E+00  0.285526E+00  0.302226E+00
  0.323795E+00  0.349566E+00  0.377786E+00  0.405907E+00  0.431556E+00  0.453165E+00
  0.469715E+00  0.480256E+00  0.483899E+00  0.480256E+00  0.469715E+00  0.453165E+00
  0.431556E+00  0.405907E+00  0.377786E+00  0.349566E+00  0.323795E+00  0.302226E+00
  0.285526E+00  0.273790E+00  0.267076E+00  0.265392E+00  0.268374E+00  0.343291E+00
  0.356431E+00  0.369580E+00  0.380709E+00  0.388443E+00  0.392291E+00  0.392291E+00
  0.388443E+00  0.380709E+00  0.369580E+00  0.356431E+00  0.343291E+00  0.332251E+00
  0.324964E+00  0.322397E+00  0.324864E+00  0.332334E+00  0.344747E+00  0.361893E+00
  0.382893E+00  0.405907E+00  0.428559E+00  0.448723E+00  0.464936E+00  0.476271E+00
  0.482113E+00  0.482113E+00  0.476271E+00  0.464936E+00  0.448723E+00  0.428559E+00
  0.405907E+00  0.382893E+00  0.361893E+00  0.344747E+00  0.332334E+00  0.324864E+00
  0.322397E+00  0.324964E+00  0.332251E+00  0.343291E+00  0.431556E+00  0.448723E+00
  0.463627E+00  0.474742E+00  0.481393E+00  0.483575E+00  0.481393E+00  0.474742E+00
  0.463627E+00  0.448723E+00  0.431556E+00  0.414163E+00  0.398564E+00  0.386391E+00
  0.378727E+00  0.376120E+00  0.378727E+00  0.386391E+00  0.398564E+00  0.414163E+00
  0.431556E+00  0.448723E+00  0.463627E+00  0.474742E+00  0.481393E+00  0.483575E+00
  0.481393E+00  0.474742E+00  0.463627E+00  0.448723E+00  0.431556E+00  0.414163E+00
  0.398564E+00  0.386391E+00  0.378727E+00  0.376120E+00  0.378727E+00  0.386391E+00
  0.398564E+00  0.414163E+00  0.431556E+00  0.523636E+00  0.541336E+00  0.555094E+00
  0.564183E+00  0.568600E+00  0.568600E+00  0.564183E+00  0.555094E+00  0.541336E+00
  0.523636E+00  0.503461E+00  0.482614E+00  0.462829E+00  0.445675E+00  0.432565E+00
  0.424581E+00  0.422125E+00  0.424778E+00  0.431585E+00  0.441462E+00  0.453165E+00
  0.464936E+00  0.474742E+00  0.481219E+00  0.484233E+00  0.484233E+00  0.481219E+00
  0.474742E+00  0.464936E+00  0.453165E+00  0.441462E+00  0.431585E+00  0.424778E+00
  0.422125E+00  0.424581E+00  0.432565E+00  0.445675E+00  0.462829E+00  0.482614E+00
  0.503461E+00  0.523636E+00  0.609407E+00  0.625093E+00  0.636177E+00  0.642597E+00
  0.644672E+00  0.642597E+00  0.636177E+00  0.625093E+00  0.609407E+00  0.589867E+00
  0.567736E+00  0.544365E+00  0.521037E+00  0.499257E+00  0.480923E+00  0.467733E+00
  0.460270E+00  0.457827E+00  0.459218E+00  0.463503E+00  0.469715E+00  0.476271E+00
  0.481393E+00  0.484233E+00  0.485071E+00  0.484233E+00  0.481393E+00  0.476271E+00
  0.469715E+00  0.463503E+00  0.459218E+00  0.457827E+00  0.460270E+00  0.467733E+00
  0.480923E+00  0.499257E+00  0.521037E+00  0.544365E+00  0.567736E+00  0.589867E+00
  0.609407E+00  0.683457E+00  0.696193E+00  0.704408E+00  0.708367E+00  0.708367E+00
  0.704408E+00  0.696193E+00  0.683457E+00  0.666361E+00  0.645610E+00  0.622169E+00
  0.596880E+00  0.570593E+00  0.544784E+00  0.521752E+00  0.503663E+00  0.491273E+00
  0.483816E+00  0.480079E+00  0.479172E+00  0.480256E+00  0.482113E+00  0.483575E+00
  0.484233E+00  0.484233E+00  0.483575E+00  0.482113E+00  0.480256E+00  0.479172E+00
  0.480079E+00  0.483816E+00  0.491273E+00  0.503663E+00  0.521752E+00  0.544784E+00
  0.570593E+00  0.596880E+00  0.622169E+00  0.645610E+00  0.666361E+00  0.683457E+00
  0.744625E+00  0.754289E+00  0.759861E+00  0.761669E+00  0.759861E+00  0.754289E+00
  0.744625E+00  0.730654E+00  0.712544E+00  0.690872E+00  0.666304E+00  0.639315E+00
  0.610475E+00  0.581188E+00  0.553899E+00  0.531078E+00  0.513817E+00  0.501562E+00
  0.493075E+00  0.487377E+00  0.483899E+00  0.482113E+00  0.481393E+00  0.481219E+00
  0.481393E+00  0.482113E+00  0.483899E+00  0.487377E+00  0.493075E+00  0.501562E+00
  0.513817E+00  0.531078E+00  0.553899E+00  0.581188E+00  0.610475E+00  0.639315E+00
  0.666304E+00  0.690872E+00  0.712544E+00  0.730654E+00  0.744625E+00  0.793042E+00
  0.799767E+00  0.803006E+00  0.803006E+00  0.799767E+00  0.793042E+00  0.782459E+00
  0.767738E+00  0.748922E+00  0.726396E+00  0.700629E+00  0.671936E+00  0.640735E+00
  0.608249E+00  0.576863E+00  0.549350E+00  0.527332E+00  0.510505E+00  0.497490E+00
  0.487377E+00  0.480256E+00  0.476271E+00  0.474742E+00  0.474742E+00  0.476271E+00
  0.480256E+00  0.487377E+00  0.497490E+00  0.510505E+00  0.527332E+00  0.549350E+00
  0.576863E+00  0.608249E+00  0.640735E+00  0.671936E+00  0.700629E+00  0.726396E+00
  0.748922E+00  0.767738E+00  0.782459E+00  0.793042E+00  0.829402E+00  0.833611E+00
  0.834977E+00  0.833611E+00  0.829402E+00  0.822024E+00  0.811007E+00  0.795912E+00
  0.776565E+00  0.753143E+00  0.726014E+00  0.695483E+00  0.661859E+00  0.626109E+00
  0.590561E+00  0.558414E+00  0.531810E+00  0.510505E+00  0.493075E+00  0.479172E+00
  0.469715E+00  0.464936E+00  0.463627E+00  0.464936E+00  0.469715E+00  0.479172E+00
  0.493075E+00  0.510505E+00  0.531810E+00  0.558414E+00  0.590561E+00  0.626109E+00
  0.661859E+00  0.695483E+00  0.726014E+00  0.753143E+00  0.776565E+00  0.795912E+00
  0.811007E+00  0.822024E+00  0.829402E+00  0.855510E+00  0.857832E+00  0.857832E+00
  0.855510E+00  0.850692E+00  0.842981E+00  0.831783E+00  0.816460E+00  0.796581E+00
  0.772116E+00  0.743384E+00  0.710722E+00  0.674329E+00  0.634974E+00  0.595102E+00
  0.558414E+00  0.527332E+00  0.501562E+00  0.480079E+00  0.463503E+00  0.453165E+00
  0.448723E+00  0.448723E+00  0.453165E+00  0.463503E+00  0.480079E+00  0.501562E+00
  0.527332E+00  0.558414E+00  0.595102E+00  0.634974E+00  0.674329E+00  0.710722E+00
  0.743384E+00  0.772116E+00  0.796581E+00  0.816460E+00  0.831783E+00  0.842981E+00
  0.850692E+00  0.855510E+00  0.873920E+00  0.874916E+00  0.873920E+00  0.870887E+00
  0.865620E+00  0.857663E+00  0.846287E+00  0.830641E+00  0.810027E+00  0.784218E+00
  0.753494E+00  0.718204E+00  0.678452E+00  0.634974E+00  0.590561E+00  0.549350E+00
  0.513817E+00  0.483816E+00  0.459218E+00  0.441462E+00  0.431556E+00  0.428559E+00
  0.431556E+00  0.441462E+00  0.459218E+00  0.483816E+00  0.513817E+00  0.549350E+00
  0.590561E+00  0.634974E+00  0.678452E+00  0.718204E+00  0.753494E+00  0.784218E+00
  0.810027E+00  0.830641E+00  0.846287E+00  0.857663E+00  0.865620E+00  0.870887E+00
  0.873920E+00  0.887013E+00  0.887013E+00  0.885191E+00  0.881525E+00  0.875814E+00
  0.867526E+00  0.855783E+00  0.839508E+00  0.817749E+00  0.790103E+00  0.756812E+00
  0.718204E+00  0.674329E+00  0.626109E+00  0.576863E+00  0.531078E+00  0.491273E+00
  0.457827E+00  0.431585E+00  0.414163E+00  0.405907E+00  0.405907E+00  0.414163E+00
  0.431585E+00  0.457827E+00  0.491273E+00  0.531078E+00  0.576863E+00  0.626109E+00
  0.674329E+00  0.718204E+00  0.756812E+00  0.790103E+00  0.817749E+00  0.839508E+00
  0.855783E+00  0.867526E+00  0.875814E+00  0.881525E+00  0.885191E+00  0.887013E+00
  0.896485E+00  0.895593E+00  0.892974E+00  0.888661E+00  0.882418E+00  0.873600E+00
  0.861154E+00  0.843770E+00  0.820266E+00  0.790103E+00  0.753494E+00  0.710722E+00
  0.661859E+00  0.608249E+00  0.553899E+00  0.503663E+00  0.460270E+00  0.424778E+00
  0.398564E+00  0.382893E+00  0.377786E+00  0.382893E+00  0.398564E+00  0.424778E+00
  0.460270E+00  0.503663E+00  0.553899E+00  0.608249E+00  0.661859E+00  0.710722E+00
  0.753494E+00  0.790103E+00  0.820266E+00  0.843770E+00  0.861154E+00  0.873600E+00
  0.882418E+00  0.888661E+00  0.892974E+00  0.895593E+00  0.896485E+00  0.903361E+00
  0.901539E+00  0.898084E+00  0.893062E+00  0.886138E+00  0.876501E+00  0.862894E+00
  0.843770E+00  0.817749E+00  0.784218E+00  0.743384E+00  0.695483E+00  0.640735E+00
  0.581188E+00  0.521752E+00  0.467733E+00  0.422125E+00  0.386391E+00  0.361893E+00
  0.349566E+00  0.349566E+00  0.361893E+00  0.386391E+00  0.422125E+00  0.467733E+00
  0.521752E+00  0.581188E+00  0.640735E+00  0.695483E+00  0.743384E+00  0.784218E+00
  0.817749E+00  0.843770E+00  0.862894E+00  0.876501E+00  0.886138E+00  0.893062E+00
  0.898084E+00  0.901539E+00  0.903361E+00  0.903361E+00  0.908190E+00  0.905338E+00
  0.900993E+00  0.895165E+00  0.887341E+00  0.876501E+00  0.861154E+00  0.839508E+00
  0.810027E+00  0.772116E+00  0.726014E+00  0.671936E+00  0.610475E+00  0.544784E+00
  0.480923E+00  0.424581E+00  0.378727E+00  0.344747E+00  0.323795E+00  0.316720E+00
  0.323795E+00  0.344747E+00  0.378727E+00  0.424581E+00  0.480923E+00  0.544784E+00
  0.610475E+00  0.671936E+00  0.726014E+00  0.772116E+00  0.810027E+00  0.839508E+00
  0.861154E+00  0.876501E+00  0.887341E+00  0.895165E+00  0.900993E+00  0.905338E+00
  0.908190E+00  0.909209E+00  0.908190E+00  0.911146E+00  0.907208E+00  0.901939E+00
  0.895165E+00  0.886138E+00  0.873600E+00  0.855783E+00  0.830641E+00  0.796581E+00
  0.753143E+00  0.700629E+00  0.639315E+00  0.570593E+00  0.499257E+00  0.432565E+00
  0.376120E+00  0.332334E+00  0.302226E+00  0.286794E+00  0.286794E+00  0.302226E+00
  0.332334E+00  0.376120E+00  0.432565E+00  0.499257E+00  0.570593E+00  0.639315E+00
  0.700629E+00  0.753143E+00  0.796581E+00  0.830641E+00  0.855783E+00  0.873600E+00
  0.886138E+00  0.895165E+00  0.901939E+00  0.907208E+00  0.911146E+00  0.913362E+00
  0.913362E+00  0.911146E+00  0.912156E+00  0.907208E+00  0.900993E+00  0.893062E+00
  0.882418E+00  0.867526E+00  0.846287E+00  0.816460E+00  0.776565E+00  0.726396E+00
  0.666304E+00  0.596880E+00  0.521037E+00  0.445675E+00  0.378727E+00  0.324864E+00
  0.285526E+00  0.261358E+00  0.253167E+00  0.261358E+00  0.285526E+00  0.324864E+00
  0.378727E+00  0.445675E+00  0.521037E+00  0.596880E+00  0.666304E+00  0.726396E+00
  0.776565E+00  0.816460E+00  0.846287E+00  0.867526E+00  0.882418E+00  0.893062E+00
  0.900993E+00  0.907208E+00  0.912156E+00  0.915600E+00  0.916871E+00  0.915600E+00
  0.912156E+00  0.911146E+00  0.905338E+00  0.898084E+00  0.888661E+00  0.875814E+00
  0.857663E+00  0.831783E+00  0.795912E+00  0.748922E+00  0.690872E+00  0.622169E+00
  0.544365E+00  0.462829E+00  0.386391E+00  0.322397E+00  0.273790E+00  0.241029E+00
  0.224427E+00  0.224427E+00  0.241029E+00  0.273790E+00  0.322397E+00  0.386391E+00
  0.462829E+00  0.544365E+00  0.622169E+00  0.690872E+00  0.748922E+00  0.795912E+00
  0.831783E+00  0.857663E+00  0.875814E+00  0.888661E+00  0.898084E+00  0.905338E+00
  0.911146E+00  0.915600E+00  0.918146E+00  0.918146E+00  0.915600E+00  0.911146E+00
  0.908190E+00  0.901539E+00  0.892974E+00  0.881525E+00  0.865620E+00  0.842981E+00
  0.811007E+00  0.767738E+00  0.712544E+00  0.645610E+00  0.567736E+00  0.482614E+00
  0.398564E+00  0.324964E+00  0.267076E+00  0.225939E+00  0.201282E+00  0.193044E+00
  0.201282E+00  0.225939E+00  0.267076E+00  0.324964E+00  0.398564E+00  0.482614E+00
  0.567736E+00  0.645610E+00  0.712544E+00  0.767738E+00  0.811007E+00  0.842981E+00
  0.865620E+00  0.881525E+00  0.892974E+00  0.901539E+00  0.908190E+00  0.913362E+00
  0.916871E+00  0.918146E+00  0.916871E+00  0.913362E+00  0.908190E+00  0.903361E+00
  0.895593E+00  0.885191E+00  0.870887E+00  0.850692E+00  0.822024E+00  0.782459E+00
  0.730654E+00  0.666361E+00  0.589867E+00  0.503461E+00  0.414163E+00  0.332251E+00
  0.265392E+00  0.216060E+00  0.183852E+00  0.167962E+00  0.167962E+00  0.183852E+00
  0.216060E+00  0.265392E+00  0.332251E+00  0.414163E+00  0.503461E+00  0.589867E+00
  0.666361E+00  0.730654E+00  0.782459E+00  0.822024E+00  0.850692E+00  0.870887E+00
  0.885191E+00  0.895593E+00  0.903361E+00  0.909209E+00  0.913362E+00  0.915600E+00
  0.915600E+00  0.913362E+00  0.909209E+00  0.903361E+00  0.896485E+00  0.887013E+00
  0.873920E+00  0.855510E+00  0.829402E+00  0.793042E+00  0.744625E+00  0.683457E+00
  0.609407E+00  0.523636E+00  0.431556E+00  0.343291E+00  0.268374E+00  0.211179E+00
  0.171875E+00  0.149139E+00  0.141725E+00  0.149139E+00  0.171875E+00  0.211179E+00
  0.268374E+00  0.343291E+00  0.431556E+00  0.523636E+00  0.609407E+00  0.683457E+00
  0.744625E+00  0.793042E+00  0.829402E+00  0.855510E+00  0.873920E+00  0.887013E+00
  0.896485E+00  0.903361E+00  0.908190E+00  0.911146E+00  0.912156E+00  0.911146E+00
  0.908190E+00  0.903361E+00  0.896485E+00  0.904581E+00  0.889466E+00  0.868861E+00
  0.840541E+00  0.802094E+00  0.751702E+00  0.688468E+00  0.612065E+00  0.523636E+00
  0.428559E+00  0.336644E+00  0.257171E+00  0.194964E+00  0.151066E+00  0.124122E+00
  0.111615E+00  0.111615E+00  0.124122E+00  0.151066E+00  0.194964E+00  0.257171E+00
  0.336644E+00  0.428559E+00  0.523636E+00  0.612065E+00  0.688468E+00  0.751702E+00
  0.802094E+00  0.840541E+00  0.868861E+00  0.889466E+00  0.904581E+00  0.915757E+00
  0.923845E+00  0.929192E+00  0.931873E+00  0.931873E+00  0.929192E+00  0.923845E+00
  0.915757E+00  0.904581E+00  0.889466E+00  0.870592E+00  0.844500E+00  0.808848E+00
  0.761664E+00  0.701843E+00  0.628900E+00  0.543259E+00  0.448723E+00  0.354127E+00
  0.269569E+00  0.201218E+00  0.151029E+00  0.118317E+00  0.100578E+00  0.950581E-01
  0.100578E+00  0.118317E+00  0.151029E+00  0.201218E+00  0.269569E+00  0.354127E+00
  0.448723E+00  0.543259E+00  0.628900E+00  0.701843E+00  0.761664E+00  0.808848E+00
  0.844500E+00  0.870592E+00  0.889466E+00  0.903133E+00  0.912953E+00  0.919677E+00
  0.923640E+00  0.924954E+00  0.923640E+00  0.919677E+00  0.912953E+00  0.903133E+00
  0.889466E+00  0.868861E+00  0.844500E+00  0.811098E+00  0.766647E+00  0.709869E+00
  0.640172E+00  0.557648E+00  0.464936E+00  0.369580E+00  0.281813E+00  0.208888E+00
  0.153497E+00  0.115623E+00  0.932255E-01  0.831669E-01  0.831669E-01  0.932255E-01
  0.115623E+00  0.153497E+00  0.208888E+00  0.281813E+00  0.369580E+00  0.464936E+00
  0.557648E+00  0.640172E+00  0.709869E+00  0.766647E+00  0.811098E+00  0.844500E+00
  0.868861E+00  0.886366E+00  0.898819E+00  0.907438E+00  0.912918E+00  0.915596E+00
  0.915596E+00  0.912918E+00  0.907438E+00  0.898819E+00  0.886366E+00  0.868861E+00
  0.840541E+00  0.808848E+00  0.766647E+00  0.712551E+00  0.645828E+00  0.566423E+00
  0.476271E+00  0.381671E+00  0.292422E+00  0.216525E+00  0.157302E+00  0.115149E+00
  0.886433E-01  0.747895E-01  0.705824E-01  0.747895E-01  0.886433E-01  0.115149E+00
  0.157302E+00  0.216525E+00  0.292422E+00  0.381671E+00  0.476271E+00  0.566423E+00
  0.645828E+00  0.712551E+00  0.766647E+00  0.808848E+00  0.840541E+00  0.863649E+00
  0.880140E+00  0.891621E+00  0.899201E+00  0.903537E+00  0.904952E+00  0.903537E+00
  0.899201E+00  0.891621E+00  0.880140E+00  0.863649E+00  0.840541E+00  0.802094E+00
  0.761664E+00  0.709869E+00  0.645828E+00  0.569373E+00  0.482113E+00  0.389399E+00
  0.300233E+00  0.222906E+00  0.161323E+00  0.116081E+00  0.861746E-01  0.690849E-01
  0.616181E-01  0.616181E-01  0.690849E-01  0.861746E-01  0.116081E+00  0.161323E+00
  0.222906E+00  0.300233E+00  0.389399E+00  0.482113E+00  0.569373E+00  0.645828E+00
  0.709869E+00  0.761664E+00  0.802094E+00  0.832564E+00  0.854811E+00  0.870561E+00
  0.881245E+00  0.887875E+00  0.891056E+00  0.891056E+00  0.887875E+00  0.881245E+00
  0.870561E+00  0.854811E+00  0.832564E+00  0.802094E+00  0.751702E+00  0.701843E+00
  0.640172E+00  0.566423E+00  0.482113E+00  0.392064E+00  0.304381E+00  0.227113E+00
  0.164596E+00  0.117626E+00  0.853094E-01  0.655683E-01  0.554598E-01  0.524217E-01
  0.554598E-01  0.655683E-01  0.853094E-01  0.117626E+00  0.164596E+00  0.227113E+00
  0.304381E+00  0.392064E+00  0.482113E+00  0.566423E+00  0.640172E+00  0.701843E+00
  0.751702E+00  0.790746E+00  0.820310E+00  0.841911E+00  0.857044E+00  0.866972E+00
  0.872592E+00  0.874411E+00  0.872592E+00  0.866972E+00  0.857044E+00  0.841911E+00
  0.820310E+00  0.790746E+00  0.751702E+00  0.688468E+00  0.628900E+00  0.557648E+00
  0.476271E+00  0.389399E+00  0.304381E+00  0.228580E+00  0.166420E+00  0.118992E+00
  0.854345E-01  0.638341E-01  0.516051E-01  0.462436E-01  0.462436E-01  0.516051E-01
  0.638341E-01  0.854345E-01  0.118992E+00  0.166420E+00  0.228580E+00  0.304381E+00
  0.389399E+00  0.476271E+00  0.557648E+00  0.628900E+00  0.688468E+00  0.736668E+00
  0.774528E+00  0.803281E+00  0.824240E+00  0.838692E+00  0.847717E+00  0.852050E+00
  0.852050E+00  0.847717E+00  0.838692E+00  0.824240E+00  0.803281E+00  0.774528E+00
  0.736668E+00  0.688468E+00  0.612065E+00  0.543259E+00  0.464936E+00  0.381671E+00
  0.300233E+00  0.227113E+00  0.166420E+00  0.119534E+00  0.857884E-01  0.632778E-01
  0.495751E-01  0.424063E-01  0.402011E-01  0.424063E-01  0.495751E-01  0.632778E-01
  0.857884E-01  0.119534E+00  0.166420E+00  0.227113E+00  0.300233E+00  0.381671E+00
  0.464936E+00  0.543259E+00  0.612065E+00  0.669691E+00  0.716386E+00  0.753104E+00
  0.780953E+00  0.801086E+00  0.814591E+00  0.822339E+00  0.824863E+00  0.822339E+00
  0.814591E+00  0.801086E+00  0.780953E+00  0.753104E+00  0.716386E+00  0.669691E+00
  0.612065E+00  0.523636E+00  0.448723E+00  0.369580E+00  0.292422E+00  0.222906E+00
  0.164596E+00  0.118992E+00  0.857884E-01  0.632015E-01  0.487902E-01  0.403780E-01
  0.365169E-01  0.365169E-01  0.403780E-01  0.487902E-01  0.632015E-01  0.857884E-01
  0.118992E+00  0.164596E+00  0.222906E+00  0.292422E+00  0.369580E+00  0.448723E+00
  0.523636E+00  0.589867E+00  0.645610E+00  0.690872E+00  0.726396E+00  0.753143E+00
  0.772116E+00  0.784218E+00  0.790103E+00  0.790103E+00  0.784218E+00  0.772116E+00
  0.753143E+00  0.726396E+00  0.690872E+00  0.645610E+00  0.589867E+00  0.523636E+00
  0.428559E+00  0.354127E+00  0.281813E+00  0.216525E+00  0.161323E+00  0.117626E+00
  0.854345E-01  0.632778E-01  0.487902E-01  0.397553E-01  0.347576E-01  0.331495E-01
  0.347576E-01  0.397553E-01  0.487902E-01  0.632778E-01  0.854345E-01  0.117626E+00
  0.161323E+00  0.216525E+00  0.281813E+00  0.354127E+00  0.428559E+00  0.499575E+00
  0.563000E+00  0.616815E+00  0.660614E+00  0.694809E+00  0.720167E+00  0.737540E+00
  0.747656E+00  0.750976E+00  0.747656E+00  0.737540E+00  0.720167E+00  0.694809E+00
  0.660614E+00  0.616815E+00  0.563000E+00  0.499575E+00  0.428559E+00  0.336644E+00
  0.269569E+00  0.208888E+00  0.157302E+00  0.116081E+00  0.853094E-01  0.638341E-01
  0.495751E-01  0.403780E-01  0.347576E-01  0.320403E-01  0.320403E-01  0.347576E-01
  0.403780E-01  0.495751E-01  0.638341E-01  0.853094E-01  0.116081E+00  0.157302E+00
  0.208888E+00  0.269569E+00  0.336644E+00  0.405907E+00  0.472615E+00  0.532914E+00
  0.584524E+00  0.626565E+00  0.659087E+00  0.682634E+00  0.697879E+00  0.705360E+00
  0.705360E+00  0.697879E+00  0.682634E+00  0.659087E+00  0.626565E+00  0.584524E+00
  0.532914E+00  0.472615E+00  0.405907E+00  0.336644E+00  0.257171E+00  0.201218E+00
  0.153497E+00  0.115149E+00  0.861746E-01  0.655683E-01  0.516051E-01  0.424063E-01
  0.365169E-01  0.331495E-01  0.320403E-01  0.331495E-01  0.365169E-01  0.424063E-01
  0.516051E-01  0.655683E-01  0.861746E-01  0.115149E+00  0.153497E+00  0.201218E+00
  0.257171E+00  0.318927E+00  0.382893E+00  0.444999E+00  0.501643E+00  0.550355E+00
  0.589921E+00  0.620109E+00  0.641220E+00  0.653677E+00  0.657793E+00  0.653677E+00
  0.641220E+00  0.620109E+00  0.589921E+00  0.550355E+00  0.501643E+00  0.444999E+00
  0.382893E+00  0.318927E+00  0.257171E+00  0.194964E+00  0.151029E+00  0.115623E+00
  0.886433E-01  0.690849E-01  0.554598E-01  0.462436E-01  0.402011E-01  0.365169E-01
  0.347576E-01  0.347576E-01  0.365169E-01  0.402011E-01  0.462436E-01  0.554598E-01
  0.690849E-01  0.886433E-01  0.115623E+00  0.151029E+00  0.194964E+00  0.246393E+00
  0.303102E+00  0.361893E+00  0.419092E+00  0.471310E+00  0.516110E+00  0.552194E+00
  0.579136E+00  0.596964E+00  0.605827E+00  0.605827E+00  0.596964E+00  0.579136E+00
  0.552194E+00  0.516110E+00  0.471310E+00  0.419092E+00  0.361893E+00  0.303102E+00
  0.246393E+00  0.194964E+00  0.151066E+00  0.118317E+00  0.932255E-01  0.747895E-01
  0.616181E-01  0.524217E-01  0.462436E-01  0.424063E-01  0.403780E-01  0.397553E-01
  0.403780E-01  0.424063E-01  0.462436E-01  0.524217E-01  0.616181E-01  0.747895E-01
  0.932255E-01  0.118317E+00  0.151066E+00  0.191606E+00  0.238960E+00  0.291019E+00
  0.344747E+00  0.396706E+00  0.443801E+00  0.483824E+00  0.515507E+00  0.538271E+00
  0.551933E+00  0.556482E+00  0.551933E+00  0.538271E+00  0.515507E+00  0.483824E+00
  0.443801E+00  0.396706E+00  0.344747E+00  0.291019E+00  0.238960E+00  0.191606E+00
  0.151066E+00  0.124122E+00  0.100578E+00  0.831669E-01  0.705824E-01  0.616181E-01
  0.554598E-01  0.516051E-01  0.495751E-01  0.487902E-01  0.487902E-01  0.495751E-01
  0.516051E-01  0.554598E-01  0.616181E-01  0.705824E-01  0.831669E-01  0.100578E+00
  0.124122E+00  0.154692E+00  0.192336E+00  0.236029E+00  0.283667E+00  0.332334E+00
  0.378901E+00  0.420642E+00  0.455541E+00  0.482304E+00  0.500266E+00  0.509237E+00
  0.509237E+00  0.500266E+00  0.482304E+00  0.455541E+00  0.420642E+00  0.378901E+00
  0.332334E+00  0.283667E+00  0.236029E+00  0.192336E+00  0.154692E+00  0.124122E+00
  0.111615E+00  0.950581E-01  0.831669E-01  0.747895E-01  0.690849E-01  0.655683E-01
  0.638341E-01  0.632778E-01  0.632015E-01  0.632778E-01  0.638341E-01  0.655683E-01
  0.690849E-01  0.747895E-01  0.831669E-01  0.950581E-01  0.111615E+00  0.133960E+00
  0.162744E+00  0.197805E+00  0.237996E+00  0.281231E+00  0.324864E+00  0.366183E+00
  0.402757E+00  0.432594E+00  0.454340E+00  0.467400E+00  0.471731E+00  0.467400E+00
  0.454340E+00  0.432594E+00  0.402757E+00  0.366183E+00  0.324864E+00  0.281231E+00
  0.237996E+00  0.197805E+00  0.162744E+00  0.133960E+00  0.111615E+00  0.111615E+00
  0.100578E+00  0.932255E-01  0.886433E-01  0.861746E-01  0.853094E-01  0.854345E-01
  0.857884E-01  0.857884E-01  0.854345E-01  0.853094E-01  0.861746E-01  0.886433E-01
  0.932255E-01  0.100578E+00  0.111615E+00  0.127353E+00  0.148609E+00  0.175696E+00
  0.208193E+00  0.244835E+00  0.283667E+00  0.322397E+00  0.358688E+00  0.390274E+00
  0.415170E+00  0.432080E+00  0.440537E+00  0.440537E+00  0.432080E+00  0.415170E+00
  0.390274E+00  0.358688E+00  0.322397E+00  0.283667E+00  0.244835E+00  0.208193E+00
  0.175696E+00  0.148609E+00  0.127353E+00  0.111615E+00  0.124122E+00  0.118317E+00
  0.115623E+00  0.115149E+00  0.116081E+00  0.117626E+00  0.118992E+00  0.119534E+00
  0.118992E+00  0.117626E+00  0.116081E+00  0.115149E+00  0.115623E+00  0.118317E+00
  0.124122E+00  0.133960E+00  0.148609E+00  0.168522E+00  0.193676E+00  0.223437E+00
  0.256494E+00  0.291019E+00  0.324964E+00  0.356242E+00  0.382801E+00  0.402850E+00
  0.415208E+00  0.419363E+00  0.415208E+00  0.402850E+00  0.382801E+00  0.356242E+00
  0.324964E+00  0.291019E+00  0.256494E+00  0.223437E+00  0.193676E+00  0.168522E+00
  0.148609E+00  0.133960E+00  0.124122E+00  0.151066E+00  0.151029E+00  0.153497E+00
  0.157302E+00  0.161323E+00  0.164596E+00  0.166420E+00  0.166420E+00  0.164596E+00
  0.161323E+00  0.157302E+00  0.153497E+00  0.151029E+00  0.151066E+00  0.154692E+00
  0.162744E+00  0.175696E+00  0.193676E+00  0.216448E+00  0.243278E+00  0.272786E+00
  0.303102E+00  0.332251E+00  0.358416E+00  0.379937E+00  0.395294E+00  0.403295E+00
  0.403295E+00  0.395294E+00  0.379937E+00  0.358416E+00  0.332251E+00  0.303102E+00
  0.272786E+00  0.243278E+00  0.216448E+00  0.193676E+00  0.175696E+00  0.162744E+00
  0.154692E+00  0.151066E+00  0.194964E+00  0.201218E+00  0.208888E+00  0.216525E+00
  0.222906E+00  0.227113E+00  0.228580E+00  0.227113E+00  0.222906E+00  0.216525E+00
  0.208888E+00  0.201218E+00  0.194964E+00  0.191606E+00  0.192336E+00  0.197805E+00
  0.208193E+00  0.223437E+00  0.243278E+00  0.266935E+00  0.292839E+00  0.318927E+00
  0.343291E+00  0.364464E+00  0.381155E+00  0.391990E+00  0.395767E+00  0.391990E+00
  0.381155E+00  0.364464E+00  0.343291E+00  0.318927E+00  0.292839E+00  0.266935E+00
  0.243278E+00  0.223437E+00  0.208193E+00  0.197805E+00  0.192336E+00  0.191606E+00
  0.194964E+00  0.257171E+00  0.269569E+00  0.281813E+00  0.292422E+00  0.300233E+00
  0.304381E+00  0.304381E+00  0.300233E+00  0.292422E+00  0.281813E+00  0.269569E+00
  0.257171E+00  0.246393E+00  0.238960E+00  0.236029E+00  0.237996E+00  0.244835E+00
  0.256494E+00  0.272786E+00  0.292839E+00  0.314851E+00  0.336644E+00  0.356431E+00
  0.372954E+00  0.385068E+00  0.391563E+00  0.391563E+00  0.385068E+00  0.372954E+00
  0.356431E+00  0.336644E+00  0.314851E+00  0.292839E+00  0.272786E+00  0.256494E+00
  0.244835E+00  0.237996E+00  0.236029E+00  0.238960E+00  0.246393E+00  0.257171E+00
  0.336644E+00  0.354127E+00  0.369580E+00  0.381671E+00  0.389399E+00  0.392064E+00
  0.389399E+00  0.381671E+00  0.369580E+00  0.354127E+00  0.336644E+00  0.318927E+00
  0.303102E+00  0.291019E+00  0.283667E+00  0.281231E+00  0.283667E+00  0.291019E+00
  0.303102E+00  0.318927E+00  0.336644E+00  0.354127E+00  0.369580E+00  0.381671E+00
  0.389399E+00  0.392064E+00  0.389399E+00  0.381671E+00  0.369580E+00  0.354127E+00
  0.336644E+00  0.318927E+00  0.303102E+00  0.291019E+00  0.283667E+00  0.281231E+00
  0.283667E+00  0.291019E+00  0.303102E+00  0.318927E+00  0.336644E+00  0.428559E+00
  0.448723E+00  0.464936E+00  0.476271E+00  0.482113E+00  0.482113E+00  0.476271E+00
  0.464936E+00  0.448723E+00  0.428559E+00  0.405907E+00  0.382893E+00  0.361893E+00
  0.344747E+00  0.332334E+00  0.324864E+00  0.322397E+00  0.324964E+00  0.332251E+00
  0.343291E+00  0.356431E+00  0.369580E+00  0.380709E+00  0.388443E+00  0.392291E+00
  0.392291E+00  0.388443E+00  0.380709E+00  0.369580E+00  0.356431E+00  0.343291E+00
  0.332251E+00  0.324964E+00  0.322397E+00  0.324864E+00  0.332334E+00  0.344747E+00
  0.361893E+00  0.382893E+00  0.405907E+00  0.428559E+00  0.523636E+00  0.543259E+00
  0.557648E+00  0.566423E+00  0.569373E+00  0.566423E+00  0.557648E+00  0.543259E+00
  0.523636E+00  0.499575E+00  0.472615E+00  0.444999E+00  0.419092E+00  0.396706E+00
  0.378901E+00  0.366183E+00  0.358688E+00  0.356242E+00  0.358416E+00  0.364464E+00
  0.372954E+00  0.381671E+00  0.388443E+00  0.392282E+00  0.393448E+00  0.392282E+00
  0.388443E+00  0.381671E+00  0.372954E+00  0.364464E+00  0.358416E+00  0.356242E+00
  0.358688E+00  0.366183E+00  0.378901E+00  0.396706E+00  0.419092E+00  0.444999E+00
  0.472615E+00  0.499575E+00  0.523636E+00  0.612065E+00  0.628900E+00  0.640172E+00
  0.645828E+00  0.645828E+00  0.640172E+00  0.628900E+00  0.612065E+00  0.589867E+00
  0.563000E+00  0.532914E+00  0.501643E+00  0.471310E+00  0.443801E+00  0.420642E+00
  0.402757E+00  0.390274E+00  0.382801E+00  0.379937E+00  0.381155E+00  0.385068E+00
  0.389399E+00  0.392291E+00  0.393448E+00  0.393448E+00  0.392291E+00  0.389399E+00
  0.385068E+00  0.381155E+00  0.379937E+00  0.382801E+00  0.390274E+00  0.402757E+00
  0.420642E+00  0.443801E+00  0.471310E+00  0.501643E+00  0.532914E+00  0.563000E+00
  0.589867E+00  0.612065E+00  0.688468E+00  0.701843E+00  0.709869E+00  0.712551E+00
  0.709869E+00  0.701843E+00  0.688468E+00  0.669691E+00  0.645610E+00  0.616815E+00
  0.584524E+00  0.550355E+00  0.516110E+00  0.483824E+00  0.455541E+00  0.432594E+00
  0.415170E+00  0.402850E+00  0.395294E+00  0.391990E+00  0.391563E+00  0.392064E+00
  0.392291E+00  0.392282E+00  0.392291E+00  0.392064E+00  0.391563E+00  0.391990E+00
  0.395294E+00  0.402850E+00  0.415170E+00  0.432594E+00  0.455541E+00  0.483824E+00
  0.516110E+00  0.550355E+00  0.584524E+00  0.616815E+00  0.645610E+00  0.669691E+00
  0.688468E+00  0.751702E+00  0.761664E+00  0.766647E+00  0.766647E+00  0.761664E+00
  0.751702E+00  0.736668E+00  0.716386E+00  0.690872E+00  0.660614E+00  0.626565E+00
  0.589921E+00  0.552194E+00  0.515507E+00  0.482304E+00  0.454340E+00  0.432080E+00
  0.415208E+00  0.403295E+00  0.395767E+00  0.391563E+00  0.389399E+00  0.388443E+00
  0.388443E+00  0.389399E+00  0.391563E+00  0.395767E+00  0.403295E+00  0.415208E+00
  0.432080E+00  0.454340E+00  0.482304E+00  0.515507E+00  0.552194E+00  0.589921E+00
  0.626565E+00  0.660614E+00  0.690872E+00  0.716386E+00  0.736668E+00  0.751702E+00
  0.802094E+00  0.808848E+00  0.811098E+00  0.808848E+00  0.802094E+00  0.790746E+00
  0.774528E+00  0.753104E+00  0.726396E+00  0.694809E+00  0.659087E+00  0.620109E+00
  0.579136E+00  0.538271E+00  0.500266E+00  0.467400E+00  0.440537E+00  0.419363E+00
  0.403295E+00  0.391990E+00  0.385068E+00  0.381671E+00  0.380709E+00  0.381671E+00
  0.385068E+00  0.391990E+00  0.403295E+00  0.419363E+00  0.440537E+00  0.467400E+00
  0.500266E+00  0.538271E+00  0.579136E+00  0.620109E+00  0.659087E+00  0.694809E+00
  0.726396E+00  0.753104E+00  0.774528E+00  0.790746E+00  0.802094E+00  0.840541E+00
  0.844500E+00  0.844500E+00  0.840541E+00  0.832564E+00  0.820310E+00  0.803281E+00
  0.780953E+00  0.753143E+00  0.720167E+00  0.682634E+00  0.641220E+00  0.596964E+00
  0.551933E+00  0.509237E+00  0.471731E+00  0.440537E+00  0.415208E+00  0.395294E+00
  0.381155E+00  0.372954E+00  0.369580E+00  0.369580E+00  0.372954E+00  0.381155E+00
  0.395294E+00  0.415208E+00  0.440537E+00  0.471731E+00  0.509237E+00  0.551933E+00
  0.596964E+00  0.641220E+00  0.682634E+00  0.720167E+00  0.753143E+00  0.780953E+00
  0.803281E+00  0.820310E+00  0.832564E+00  0.840541E+00  0.868861E+00  0.870592E+00
  0.868861E+00  0.863649E+00  0.854811E+00  0.841911E+00  0.824240E+00  0.801086E+00
  0.772116E+00  0.737540E+00  0.697879E+00  0.653677E+00  0.605827E+00  0.556482E+00
  0.509237E+00  0.467400E+00  0.432080E+00  0.402850E+00  0.379937E+00  0.364464E+00
  0.356431E+00  0.354127E+00  0.356431E+00  0.364464E+00  0.379937E+00  0.402850E+00
  0.432080E+00  0.467400E+00  0.509237E+00  0.556482E+00  0.605827E+00  0.653677E+00
  0.697879E+00  0.737540E+00  0.772116E+00  0.801086E+00  0.824240E+00  0.841911E+00
  0.854811E+00  0.863649E+00  0.868861E+00  0.889466E+00  0.889466E+00  0.886366E+00
  0.880140E+00  0.870561E+00  0.857044E+00  0.838692E+00  0.814591E+00  0.784218E+00
  0.747656E+00  0.705360E+00  0.657793E+00  0.605827E+00  0.551933E+00  0.500266E+00
  0.454340E+00  0.415170E+00  0.382801E+00  0.358416E+00  0.343291E+00  0.336644E+00
  0.336644E+00  0.343291E+00  0.358416E+00  0.382801E+00  0.415170E+00  0.454340E+00
  0.500266E+00  0.551933E+00  0.605827E+00  0.657793E+00  0.705360E+00  0.747656E+00
  0.784218E+00  0.814591E+00  0.838692E+00  0.857044E+00  0.870561E+00  0.880140E+00
  0.886366E+00  0.889466E+00  0.904581E+00  0.903133E+00  0.898819E+00  0.891621E+00
  0.881245E+00  0.866972E+00  0.847717E+00  0.822339E+00  0.790103E+00  0.750976E+00
  0.705360E+00  0.653677E+00  0.596964E+00  0.538271E+00  0.482304E+00  0.432594E+00
  0.390274E+00  0.356242E+00  0.332251E+00  0.318927E+00  0.314851E+00  0.318927E+00
  0.332251E+00  0.356242E+00  0.390274E+00  0.432594E+00  0.482304E+00  0.538271E+00
  0.596964E+00  0.653677E+00  0.705360E+00  0.750976E+00  0.790103E+00  0.822339E+00
  0.847717E+00  0.866972E+00  0.881245E+00  0.891621E+00  0.898819E+00  0.903133E+00
  0.904581E+00  0.915757E+00  0.912953E+00  0.907438E+00  0.899201E+00  0.887875E+00
  0.872592E+00  0.852050E+00  0.824863E+00  0.790103E+00  0.747656E+00  0.697879E+00
  0.641220E+00  0.579136E+00  0.515507E+00  0.455541E+00  0.402757E+00  0.358688E+00
  0.324964E+00  0.303102E+00  0.292839E+00  0.292839E+00  0.303102E+00  0.324964E+00
  0.358688E+00  0.402757E+00  0.455541E+00  0.515507E+00  0.579136E+00  0.641220E+00
  0.697879E+00  0.747656E+00  0.790103E+00  0.824863E+00  0.852050E+00  0.872592E+00
  0.887875E+00  0.899201E+00  0.907438E+00  0.912953E+00  0.915757E+00  0.915757E+00
  0.923845E+00  0.919677E+00  0.912918E+00  0.903537E+00  0.891056E+00  0.874411E+00
  0.852050E+00  0.822339E+00  0.784218E+00  0.737540E+00  0.682634E+00  0.620109E+00
  0.552194E+00  0.483824E+00  0.420642E+00  0.366183E+00  0.322397E+00  0.291019E+00
  0.272786E+00  0.266935E+00  0.272786E+00  0.291019E+00  0.322397E+00  0.366183E+00
  0.420642E+00  0.483824E+00  0.552194E+00  0.620109E+00  0.682634E+00  0.737540E+00
  0.784218E+00  0.822339E+00  0.852050E+00  0.874411E+00  0.891056E+00  0.903537E+00
  0.912918E+00  0.919677E+00  0.923845E+00  0.925265E+00  0.923845E+00  0.929192E+00
  0.923640E+00  0.915596E+00  0.904952E+00  0.891056E+00  0.872592E+00  0.847717E+00
  0.814591E+00  0.772116E+00  0.720167E+00  0.659087E+00  0.589921E+00  0.516110E+00
  0.443801E+00  0.378901E+00  0.324864E+00  0.283667E+00  0.256494E+00  0.243278E+00
  0.243278E+00  0.256494E+00  0.283667E+00  0.324864E+00  0.378901E+00  0.443801E+00
  0.516110E+00  0.589921E+00  0.659087E+00  0.720167E+00  0.772116E+00  0.814591E+00
  0.847717E+00  0.872592E+00  0.891056E+00  0.904952E+00  0.915596E+00  0.923640E+00
  0.929192E+00  0.932065E+00  0.932065E+00  0.929192E+00  0.931873E+00  0.924954E+00
  0.915596E+00  0.903537E+00  0.887875E+00  0.866972E+00  0.838692E+00  0.801086E+00
  0.753143E+00  0.694809E+00  0.626565E+00  0.550355E+00  0.471310E+00  0.396706E+00
  0.332334E+00  0.281231E+00  0.244835E+00  0.223437E+00  0.216448E+00  0.223437E+00
  0.244835E+00  0.281231E+00  0.332334E+00  0.396706E+00  0.471310E+00  0.550355E+00
  0.626565E+00  0.694809E+00  0.753143E+00  0.801086E+00  0.838692E+00  0.866972E+00
  0.887875E+00  0.903537E+00  0.915596E+00  0.924954E+00  0.931873E+00  0.936207E+00
  0.937692E+00  0.936207E+00  0.931873E+00  0.931873E+00  0.923640E+00  0.912918E+00
  0.899201E+00  0.881245E+00  0.857044E+00  0.824240E+00  0.780953E+00  0.726396E+00
  0.660614E+00  0.584524E+00  0.501643E+00  0.419092E+00  0.344747E+00  0.283667E+00
  0.237996E+00  0.208193E+00  0.193676E+00  0.193676E+00  0.208193E+00  0.237996E+00
  0.283667E+00  0.344747E+00  0.419092E+00  0.501643E+00  0.584524E+00  0.660614E+00
  0.726396E+00  0.780953E+00  0.824240E+00  0.857044E+00  0.881245E+00  0.899201E+00
  0.912918E+00  0.923640E+00  0.931873E+00  0.937604E+00  0.940579E+00  0.940579E+00
  0.937604E+00  0.931873E+00  0.929192E+00  0.919677E+00  0.907438E+00  0.891621E+00
  0.870561E+00  0.841911E+00  0.803281E+00  0.753104E+00  0.690872E+00  0.616815E+00
  0.532914E+00  0.444999E+00  0.361893E+00  0.291019E+00  0.236029E+00  0.197805E+00
  0.175696E+00  0.168522E+00  0.175696E+00  0.197805E+00  0.236029E+00  0.291019E+00
  0.361893E+00  0.444999E+00  0.532914E+00  0.616815E+00  0.690872E+00  0.753104E+00
  0.803281E+00  0.841911E+00  0.870561E+00  0.891621E+00  0.907438E+00  0.919677E+00
  0.929192E+00  0.936207E+00  0.940579E+00  0.942073E+00  0.940579E+00  0.936207E+00
  0.929192E+00  0.923845E+00  0.912953E+00  0.898819E+00  0.880140E+00  0.854811E+00
  0.820310E+00  0.774528E+00  0.716386E+00  0.645610E+00  0.563000E+00  0.472615E+00
  0.382893E+00  0.303102E+00  0.238960E+00  0.192336E+00  0.162744E+00  0.148609E+00
  0.148609E+00  0.162744E+00  0.192336E+00  0.238960E+00  0.303102E+00  0.382893E+00
  0.472615E+00  0.563000E+00  0.645610E+00  0.716386E+00  0.774528E+00  0.820310E+00
  0.854811E+00  0.880140E+00  0.898819E+00  0.912953E+00  0.923845E+00  0.932065E+00
  0.937692E+00  0.940579E+00  0.940579E+00  0.937692E+00  0.932065E+00  0.923845E+00
  0.915757E+00  0.903133E+00  0.886366E+00  0.863649E+00  0.832564E+00  0.790746E+00
  0.736668E+00  0.669691E+00  0.589867E+00  0.499575E+00  0.405907E+00  0.318927E+00
  0.246393E+00  0.191606E+00  0.154692E+00  0.133960E+00  0.127353E+00  0.133960E+00
  0.154692E+00  0.191606E+00  0.246393E+00  0.318927E+00  0.405907E+00  0.499575E+00
  0.589867E+00  0.669691E+00  0.736668E+00  0.790746E+00  0.832564E+00  0.863649E+00
  0.886366E+00  0.903133E+00  0.915757E+00  0.925265E+00  0.932065E+00  0.936207E+00
  0.937604E+00  0.936207E+00  0.932065E+00  0.925265E+00  0.915757E+00  0.904581E+00
  0.889466E+00  0.868861E+00  0.840541E+00  0.802094E+00  0.751702E+00  0.688468E+00
  0.612065E+00  0.523636E+00  0.428559E+00  0.336644E+00  0.257171E+00  0.194964E+00
  0.151066E+00  0.124122E+00  0.111615E+00  0.111615E+00  0.124122E+00  0.151066E+00
  0.194964E+00  0.257171E+00  0.336644E+00  0.428559E+00  0.523636E+00  0.612065E+00
  0.688468E+00  0.751702E+00  0.802094E+00  0.840541E+00  0.868861E+00  0.889466E+00
  0.904581E+00  0.915757E+00  0.923845E+00  0.929192E+00  0.931873E+00  0.931873E+00
  0.929192E+00  0.923845E+00  0.915757E+00  0.904581E+00  0.901992E+00  0.881083E+00
  0.852350E+00  0.813565E+00  0.762783E+00  0.698642E+00  0.620460E+00  0.529505E+00
  0.431556E+00  0.336644E+00  0.253862E+00  0.187755E+00  0.139645E+00  0.108730E+00
  0.922641E-01  0.872067E-01  0.922641E-01  0.108730E+00  0.139645E+00  0.187755E+00
  0.253862E+00  0.336644E+00  0.431556E+00  0.529505E+00  0.620460E+00  0.698642E+00
  0.762783E+00  0.813565E+00  0.852350E+00  0.881083E+00  0.901992E+00  0.917075E+00
  0.927781E+00  0.934999E+00  0.939195E+00  0.940576E+00  0.939195E+00  0.934999E+00
  0.927781E+00  0.917075E+00  0.901992E+00  0.881083E+00  0.854731E+00  0.818968E+00
  0.771764E+00  0.711558E+00  0.637412E+00  0.549852E+00  0.453165E+00  0.356431E+00
  0.269569E+00  0.198370E+00  0.144694E+00  0.108348E+00  0.871398E-01  0.777345E-01
  0.777345E-01  0.871398E-01  0.108348E+00  0.144694E+00  0.198370E+00  0.269569E+00
  0.356431E+00  0.453165E+00  0.549852E+00  0.637412E+00  0.711558E+00  0.771764E+00
  0.818968E+00  0.854731E+00  0.881083E+00  0.900145E+00  0.913714E+00  0.923065E+00
  0.928973E+00  0.931846E+00  0.931846E+00  0.928973E+00  0.923065E+00  0.913714E+00
  0.900145E+00  0.881083E+00  0.852350E+00  0.818968E+00  0.774789E+00  0.718127E+00
  0.647830E+00  0.563964E+00  0.469715E+00  0.372954E+00  0.283712E+00  0.208888E+00
  0.150922E+00  0.109963E+00  0.844566E-01  0.712556E-01  0.672720E-01  0.712556E-01
  0.844566E-01  0.109963E+00  0.150922E+00  0.208888E+00  0.283712E+00  0.372954E+00
  0.469715E+00  0.563964E+00  0.647830E+00  0.718127E+00  0.774789E+00  0.818968E+00
  0.852350E+00  0.876906E+00  0.894561E+00  0.906902E+00  0.915058E+00  0.919719E+00
  0.921238E+00  0.919719E+00  0.915058E+00  0.906902E+00  0.894561E+00  0.876906E+00
  0.852350E+00  0.813565E+00  0.771764E+00  0.718127E+00  0.651364E+00  0.571254E+00
  0.480256E+00  0.385068E+00  0.295194E+00  0.218222E+00  0.157302E+00  0.112804E+00
  0.836237E-01  0.670839E-01  0.598989E-01  0.598989E-01  0.670839E-01  0.836237E-01
  0.112804E+00  0.157302E+00  0.218222E+00  0.295194E+00  0.385068E+00  0.480256E+00
  0.571254E+00  0.651364E+00  0.718127E+00  0.771764E+00  0.813565E+00  0.845200E+00
  0.868463E+00  0.885046E+00  0.896349E+00  0.903380E+00  0.906756E+00  0.906756E+00
  0.903380E+00  0.896349E+00  0.885046E+00  0.868463E+00  0.845200E+00  0.813565E+00
  0.762783E+00  0.711558E+00  0.647830E+00  0.571254E+00  0.483899E+00  0.391563E+00
  0.302838E+00  0.225346E+00  0.162867E+00  0.116081E+00  0.841093E-01  0.647418E-01
  0.548912E-01  0.519413E-01  0.548912E-01  0.647418E-01  0.841093E-01  0.116081E+00
  0.162867E+00  0.225346E+00  0.302838E+00  0.391563E+00  0.483899E+00  0.571254E+00
  0.647830E+00  0.711558E+00  0.762783E+00  0.802802E+00  0.833164E+00  0.855442E+00
  0.871116E+00  0.881429E+00  0.887273E+00  0.889167E+00  0.887273E+00  0.881429E+00
  0.871116E+00  0.855442E+00  0.833164E+00  0.802802E+00  0.762783E+00  0.698642E+00
  0.637412E+00  0.563964E+00  0.480256E+00  0.391563E+00  0.305545E+00  0.229252E+00
  0.166701E+00  0.118956E+00  0.853094E-01  0.638323E-01  0.517834E-01  0.465371E-01
  0.465371E-01  0.517834E-01  0.638323E-01  0.853094E-01  0.118956E+00  0.166701E+00
  0.229252E+00  0.305545E+00  0.391563E+00  0.480256E+00  0.563964E+00  0.637412E+00
  0.698642E+00  0.747958E+00  0.786564E+00  0.815850E+00  0.837206E+00  0.851943E+00
  0.861147E+00  0.865564E+00  0.865564E+00  0.861147E+00  0.851943E+00  0.837206E+00
  0.815850E+00  0.786564E+00  0.747958E+00  0.698642E+00  0.620460E+00  0.549852E+00
  0.469715E+00  0.385068E+00  0.302838E+00  0.229252E+00  0.168074E+00  0.120643E+00
  0.864908E-01  0.638341E-01  0.501780E-01  0.431068E-01  0.409461E-01  0.431068E-01
  0.501780E-01  0.638341E-01  0.864908E-01  0.120643E+00  0.168074E+00  0.229252E+00
  0.302838E+00  0.385068E+00  0.469715E+00  0.549852E+00  0.620460E+00  0.679514E+00
  0.727158E+00  0.764434E+00  0.792597E+00  0.812902E+00  0.826500E+00  0.834291E+00
  0.836827E+00  0.834291E+00  0.826500E+00  0.812902E+00  0.792597E+00  0.764434E+00
  0.727158E+00  0.679514E+00  0.620460E+00  0.529505E+00  0.453165E+00  0.372954E+00
  0.295194E+00  0.225346E+00  0.166701E+00  0.120643E+00  0.869786E-01  0.640868E-01
  0.495751E-01  0.411925E-01  0.373806E-01  0.373806E-01  0.411925E-01  0.495751E-01
  0.640868E-01  0.869786E-01  0.120643E+00  0.166701E+00  0.225346E+00  0.295194E+00
  0.372954E+00  0.453165E+00  0.529505E+00  0.597177E+00  0.654046E+00  0.700005E+00
  0.735872E+00  0.762750E+00  0.781758E+00  0.793862E+00  0.799744E+00  0.799744E+00
  0.793862E+00  0.781758E+00  0.762750E+00  0.735872E+00  0.700005E+00  0.654046E+00
  0.597177E+00  0.529505E+00  0.431556E+00  0.356431E+00  0.283712E+00  0.218222E+00
  0.162867E+00  0.118956E+00  0.864908E-01  0.640868E-01  0.494527E-01  0.403780E-01
  0.353952E-01  0.337995E-01  0.353952E-01  0.403780E-01  0.494527E-01  0.640868E-01
  0.864908E-01  0.118956E+00  0.162867E+00  0.218222E+00  0.283712E+00  0.356431E+00
  0.431556E+00  0.503461E+00  0.567736E+00  0.622169E+00  0.666304E+00  0.700629E+00
  0.726014E+00  0.743384E+00  0.753494E+00  0.756812E+00  0.753494E+00  0.743384E+00
  0.726014E+00  0.700629E+00  0.666304E+00  0.622169E+00  0.567736E+00  0.503461E+00
  0.431556E+00  0.336644E+00  0.269569E+00  0.208888E+00  0.157302E+00  0.116081E+00
  0.853094E-01  0.638341E-01  0.495751E-01  0.403780E-01  0.347576E-01  0.320403E-01
  0.320403E-01  0.347576E-01  0.403780E-01  0.495751E-01  0.638341E-01  0.853094E-01
  0.116081E+00  0.157302E+00  0.208888E+00  0.269569E+00  0.336644E+00  0.405907E+00
  0.472615E+00  0.532914E+00  0.584524E+00  0.626565E+00  0.659087E+00  0.682634E+00
  0.697879E+00  0.705360E+00  0.705360E+00  0.697879E+00  0.682634E+00  0.659087E+00
  0.626565E+00  0.584524E+00  0.532914E+00  0.472615E+00  0.405907E+00  0.336644E+00
  0.253862E+00  0.198370E+00  0.150922E+00  0.112804E+00  0.841093E-01  0.638323E-01
  0.501780E-01  0.411925E-01  0.353952E-01  0.320403E-01  0.309262E-01  0.320403E-01
  0.353952E-01  0.411925E-01  0.501780E-01  0.638323E-01  0.841093E-01  0.112804E+00
  0.150922E+00  0.198370E+00  0.253862E+00  0.314851E+00  0.377786E+00  0.438824E+00
  0.494630E+00  0.542854E+00  0.582218E+00  0.612350E+00  0.633445E+00  0.645890E+00
  0.650001E+00  0.645890E+00  0.633445E+00  0.612350E+00  0.582218E+00  0.542854E+00
  0.494630E+00  0.438824E+00  0.377786E+00  0.314851E+00  0.253862E+00  0.187755E+00
  0.144694E+00  0.109963E+00  0.836237E-01  0.647418E-01  0.517834E-01  0.431068E-01
  0.373806E-01  0.337995E-01  0.320403E-01  0.320403E-01  0.337995E-01  0.373806E-01
  0.431068E-01  0.517834E-01  0.647418E-01  0.836237E-01  0.109963E+00  0.144694E+00
  0.187755E+00  0.237903E+00  0.292839E+00  0.349566E+00  0.404853E+00  0.455695E+00
  0.499732E+00  0.535488E+00  0.562314E+00  0.580098E+00  0.588943E+00  0.588943E+00
  0.580098E+00  0.562314E+00  0.535488E+00  0.499732E+00  0.455695E+00  0.404853E+00
  0.349566E+00  0.292839E+00  0.237903E+00  0.187755E+00  0.139645E+00  0.108348E+00
  0.844566E-01  0.670839E-01  0.548912E-01  0.465371E-01  0.409461E-01  0.373806E-01
  0.353952E-01  0.347576E-01  0.353952E-01  0.373806E-01  0.409461E-01  0.465371E-01
  0.548912E-01  0.670839E-01  0.844566E-01  0.108348E+00  0.139645E+00  0.178353E+00
  0.223408E+00  0.272786E+00  0.323795E+00  0.373444E+00  0.418915E+00  0.457975E+00
  0.489174E+00  0.511744E+00  0.525357E+00  0.529902E+00  0.525357E+00  0.511744E+00
  0.489174E+00  0.457975E+00  0.418915E+00  0.373444E+00  0.323795E+00  0.272786E+00
  0.223408E+00  0.178353E+00  0.139645E+00  0.108730E+00  0.871398E-01  0.712556E-01
  0.598989E-01  0.519413E-01  0.465371E-01  0.431068E-01  0.411925E-01  0.403780E-01
  0.403780E-01  0.411925E-01  0.431068E-01  0.465371E-01  0.519413E-01  0.598989E-01
  0.712556E-01  0.871398E-01  0.108730E+00  0.136850E+00  0.171589E+00  0.212083E+00
  0.256494E+00  0.302226E+00  0.346390E+00  0.386346E+00  0.420053E+00  0.446147E+00
  0.463843E+00  0.472759E+00  0.472759E+00  0.463843E+00  0.446147E+00  0.420053E+00
  0.386346E+00  0.346390E+00  0.302226E+00  0.256494E+00  0.212083E+00  0.171589E+00
  0.136850E+00  0.108730E+00  0.922641E-01  0.777345E-01  0.672720E-01  0.598989E-01
  0.548912E-01  0.517834E-01  0.501780E-01  0.495751E-01  0.494527E-01  0.495751E-01
  0.501780E-01  0.517834E-01  0.548912E-01  0.598989E-01  0.672720E-01  0.777345E-01
  0.922641E-01  0.111875E+00  0.137289E+00  0.168606E+00  0.205038E+00  0.244835E+00
  0.285526E+00  0.324419E+00  0.359064E+00  0.387510E+00  0.408431E+00  0.421131E+00
  0.425375E+00  0.421131E+00  0.408431E+00  0.387510E+00  0.359064E+00  0.324419E+00
  0.285526E+00  0.244835E+00  0.205038E+00  0.168606E+00  0.137289E+00  0.111875E+00
  0.922641E-01  0.872067E-01  0.777345E-01  0.712556E-01  0.670839E-01  0.647418E-01
  0.638323E-01  0.638341E-01  0.640868E-01  0.640868E-01  0.638341E-01  0.638323E-01
  0.647418E-01  0.670839E-01  0.712556E-01  0.777345E-01  0.872067E-01  0.100519E+00
  0.118495E+00  0.141671E+00  0.170012E+00  0.202672E+00  0.237996E+00  0.273790E+00
  0.307662E+00  0.337287E+00  0.360708E+00  0.376666E+00  0.384671E+00  0.384671E+00
  0.376666E+00  0.360708E+00  0.337287E+00  0.307662E+00  0.273790E+00  0.237996E+00
  0.202672E+00  0.170012E+00  0.141671E+00  0.118495E+00  0.100519E+00  0.872067E-01
  0.922641E-01  0.871398E-01  0.844566E-01  0.836237E-01  0.841093E-01  0.853094E-01
  0.864908E-01  0.869786E-01  0.864908E-01  0.853094E-01  0.841093E-01  0.836237E-01
  0.844566E-01  0.871398E-01  0.922641E-01  0.100519E+00  0.112620E+00  0.129151E+00
  0.150368E+00  0.175980E+00  0.205038E+00  0.236029E+00  0.267076E+00  0.296061E+00
  0.320781E+00  0.339367E+00  0.350727E+00  0.354522E+00  0.350727E+00  0.339367E+00
  0.320781E+00  0.296061E+00  0.267076E+00  0.236029E+00  0.205038E+00  0.175980E+00
  0.150368E+00  0.129151E+00  0.112620E+00  0.100519E+00  0.922641E-01  0.108730E+00
  0.108348E+00  0.109963E+00  0.112804E+00  0.116081E+00  0.118956E+00  0.120643E+00
  0.120643E+00  0.118956E+00  0.116081E+00  0.112804E+00  0.109963E+00  0.108348E+00
  0.108730E+00  0.111875E+00  0.118495E+00  0.129151E+00  0.144150E+00  0.163427E+00
  0.186427E+00  0.212083E+00  0.238960E+00  0.265392E+00  0.289519E+00  0.309412E+00
  0.323448E+00  0.330651E+00  0.330651E+00  0.323448E+00  0.309412E+00  0.289519E+00
  0.265392E+00  0.238960E+00  0.212083E+00  0.186427E+00  0.163427E+00  0.144150E+00
  0.129151E+00  0.118495E+00  0.111875E+00  0.108730E+00  0.139645E+00  0.144694E+00
  0.150922E+00  0.157302E+00  0.162867E+00  0.166701E+00  0.168074E+00  0.166701E+00
  0.162867E+00  0.157302E+00  0.150922E+00  0.144694E+00  0.139645E+00  0.136850E+00
  0.137289E+00  0.141671E+00  0.150368E+00  0.163427E+00  0.180547E+00  0.200956E+00
  0.223408E+00  0.246393E+00  0.268374E+00  0.287831E+00  0.303224E+00  0.313132E+00
  0.316554E+00  0.313132E+00  0.303224E+00  0.287831E+00  0.268374E+00  0.246393E+00
  0.223408E+00  0.200956E+00  0.180547E+00  0.163427E+00  0.150368E+00  0.141671E+00
  0.137289E+00  0.136850E+00  0.139645E+00  0.187755E+00  0.198370E+00  0.208888E+00
  0.218222E+00  0.225346E+00  0.229252E+00  0.229252E+00  0.225346E+00  0.218222E+00
  0.208888E+00  0.198370E+00  0.187755E+00  0.178353E+00  0.171589E+00  0.168606E+00
  0.170012E+00  0.175980E+00  0.186427E+00  0.200956E+00  0.218616E+00  0.237903E+00
  0.257171E+00  0.275028E+00  0.290282E+00  0.301652E+00  0.307796E+00  0.307796E+00
  0.301652E+00  0.290282E+00  0.275028E+00  0.257171E+00  0.237903E+00  0.218616E+00
  0.200956E+00  0.186427E+00  0.175980E+00  0.170012E+00  0.168606E+00  0.171589E+00
  0.178353E+00  0.187755E+00  0.253862E+00  0.269569E+00  0.283712E+00  0.295194E+00
  0.302838E+00  0.305545E+00  0.302838E+00  0.295194E+00  0.283712E+00  0.269569E+00
  0.253862E+00  0.237903E+00  0.223408E+00  0.212083E+00  0.205038E+00  0.202672E+00
  0.205038E+00  0.212083E+00  0.223408E+00  0.237903E+00  0.253862E+00  0.269569E+00
  0.283712E+00  0.295194E+00  0.302838E+00  0.305545E+00  0.302838E+00  0.295194E+00
  0.283712E+00  0.269569E+00  0.253862E+00  0.237903E+00  0.223408E+00  0.212083E+00
  0.205038E+00  0.202672E+00  0.205038E+00  0.212083E+00  0.223408E+00  0.237903E+00
  0.253862E+00  0.336644E+00  0.356431E+00  0.372954E+00  0.385068E+00  0.391563E+00
  0.391563E+00  0.385068E+00  0.372954E+00  0.356431E+00  0.336644E+00  0.314851E+00
  0.292839E+00  0.272786E+00  0.256494E+00  0.244835E+00  0.237996E+00  0.236029E+00
  0.238960E+00  0.246393E+00  0.257171E+00  0.269569E+00  0.281813E+00  0.292422E+00
  0.300233E+00  0.304381E+00  0.304381E+00  0.300233E+00  0.292422E+00  0.281813E+00
  0.269569E+00  0.257171E+00  0.246393E+00  0.238960E+00  0.236029E+00  0.237996E+00
  0.244835E+00  0.256494E+00  0.272786E+00  0.292839E+00  0.314851E+00  0.336644E+00
  0.431556E+00  0.453165E+00  0.469715E+00  0.480256E+00  0.483899E+00  0.480256E+00
  0.469715E+00  0.453165E+00  0.431556E+00  0.405907E+00  0.377786E+00  0.349566E+00
  0.323795E+00  0.302226E+00  0.285526E+00  0.273790E+00  0.267076E+00  0.265392E+00
  0.268374E+00  0.275028E+00  0.283712E+00  0.292422E+00  0.299387E+00  0.303639E+00
  0.305030E+00  0.303639E+00  0.299387E+00  0.292422E+00  0.283712E+00  0.275028E+00
  0.268374E+00  0.265392E+00  0.267076E+00  0.273790E+00  0.285526E+00  0.302226E+00
  0.323795E+00  0.349566E+00  0.377786E+00  0.405907E+00  0.431556E+00  0.529505E+00
  0.549852E+00  0.563964E+00  0.571254E+00  0.571254E+00  0.563964E+00  0.549852E+00
  0.529505E+00  0.503461E+00  0.472615E+00  0.438824E+00  0.404853E+00  0.373444E+00
  0.346390E+00  0.324419E+00  0.307662E+00  0.296061E+00  0.289519E+00  0.287831E+00
  0.290282E+00  0.295194E+00  0.300233E+00  0.303639E+00  0.305100E+00  0.305100E+00
  0.303639E+00  0.300233E+00  0.295194E+00  0.290282E+00  0.287831E+00  0.289519E+00
  0.296061E+00  0.307662E+00  0.324419E+00  0.346390E+00  0.373444E+00  0.404853E+00
  0.438824E+00  0.472615E+00  0.503461E+00  0.529505E+00  0.620460E+00  0.637412E+00
  0.647830E+00  0.651364E+00  0.647830E+00  0.637412E+00  0.620460E+00  0.597177E+00
  0.567736E+00  0.532914E+00  0.494630E+00  0.455695E+00  0.418915E+00  0.386346E+00
  0.359064E+00  0.337287E+00  0.320781E+00  0.309412E+00  0.303224E+00  0.301652E+00
  0.302838E+00  0.304381E+00  0.305030E+00  0.305100E+00  0.305030E+00  0.304381E+00
  0.302838E+00  0.301652E+00  0.303224E+00  0.309412E+00  0.320781E+00  0.337287E+00
  0.359064E+00  0.386346E+00  0.418915E+00  0.455695E+00  0.494630E+00  0.532914E+00
  0.567736E+00  0.597177E+00  0.620460E+00  0.698642E+00  0.711558E+00  0.718127E+00
  0.718127E+00  0.711558E+00  0.698642E+00  0.679514E+00  0.654046E+00  0.622169E+00
  0.584524E+00  0.542854E+00  0.499732E+00  0.457975E+00  0.420053E+00  0.387510E+00
  0.360708E+00  0.339367E+00  0.323448E+00  0.313132E+00  0.307796E+00  0.305545E+00
  0.304381E+00  0.303639E+00  0.303639E+00  0.304381E+00  0.305545E+00  0.307796E+00
  0.313132E+00  0.323448E+00  0.339367E+00  0.360708E+00  0.387510E+00  0.420053E+00
  0.457975E+00  0.499732E+00  0.542854E+00  0.584524E+00  0.622169E+00  0.654046E+00
  0.679514E+00  0.698642E+00  0.762783E+00  0.771764E+00  0.774789E+00  0.771764E+00
  0.762783E+00  0.747958E+00  0.727158E+00  0.700005E+00  0.666304E+00  0.626565E+00
  0.582218E+00  0.535488E+00  0.489174E+00  0.446147E+00  0.408431E+00  0.376666E+00
  0.350727E+00  0.330651E+00  0.316554E+00  0.307796E+00  0.302838E+00  0.300233E+00
  0.299387E+00  0.300233E+00  0.302838E+00  0.307796E+00  0.316554E+00  0.330651E+00
  0.350727E+00  0.376666E+00  0.408431E+00  0.446147E+00  0.489174E+00  0.535488E+00
  0.582218E+00  0.626565E+00  0.666304E+00  0.700005E+00  0.727158E+00  0.747958E+00
  0.762783E+00  0.813565E+00  0.818968E+00  0.818968E+00  0.813565E+00  0.802802E+00
  0.786564E+00  0.764434E+00  0.735872E+00  0.700629E+00  0.659087E+00  0.612350E+00
  0.562314E+00  0.511744E+00  0.463843E+00  0.421131E+00  0.384671E+00  0.354522E+00
  0.330651E+00  0.313132E+00  0.301652E+00  0.295194E+00  0.292422E+00  0.292422E+00
  0.295194E+00  0.301652E+00  0.313132E+00  0.330651E+00  0.354522E+00  0.384671E+00
  0.421131E+00  0.463843E+00  0.511744E+00  0.562314E+00  0.612350E+00  0.659087E+00
  0.700629E+00  0.735872E+00  0.764434E+00  0.786564E+00  0.802802E+00  0.813565E+00
  0.852350E+00  0.854731E+00  0.852350E+00  0.845200E+00  0.833164E+00  0.815850E+00
  0.792597E+00  0.762750E+00  0.726014E+00  0.682634E+00  0.633445E+00  0.580098E+00
  0.525357E+00  0.472759E+00  0.425375E+00  0.384671E+00  0.350727E+00  0.323448E+00
  0.303224E+00  0.290282E+00  0.283712E+00  0.281813E+00  0.283712E+00  0.290282E+00
  0.303224E+00  0.323448E+00  0.350727E+00  0.384671E+00  0.425375E+00  0.472759E+00
  0.525357E+00  0.580098E+00  0.633445E+00  0.682634E+00  0.726014E+00  0.762750E+00
  0.792597E+00  0.815850E+00  0.833164E+00  0.845200E+00  0.852350E+00  0.881083E+00
  0.881083E+00  0.876906E+00  0.868463E+00  0.855442E+00  0.837206E+00  0.812902E+00
  0.781758E+00  0.743384E+00  0.697879E+00  0.645890E+00  0.588943E+00  0.529902E+00
  0.472759E+00  0.421131E+00  0.376666E+00  0.339367E+00  0.309412E+00  0.287831E+00
  0.275028E+00  0.269569E+00  0.269569E+00  0.275028E+00  0.287831E+00  0.309412E+00
  0.339367E+00  0.376666E+00  0.421131E+00  0.472759E+00  0.529902E+00  0.588943E+00
  0.645890E+00  0.697879E+00  0.743384E+00  0.781758E+00  0.812902E+00  0.837206E+00
  0.855442E+00  0.868463E+00  0.876906E+00  0.881083E+00  0.901992E+00  0.900145E+00
  0.894561E+00  0.885046E+00  0.871116E+00  0.851943E+00  0.826500E+00  0.793862E+00
  0.753494E+00  0.705360E+00  0.650001E+00  0.588943E+00  0.525357E+00  0.463843E+00
  0.408431E+00  0.360708E+00  0.320781E+00  0.289519E+00  0.268374E+00  0.257171E+00
  0.253862E+00  0.257171E+00  0.268374E+00  0.289519E+00  0.320781E+00  0.360708E+00
  0.408431E+00  0.463843E+00  0.525357E+00  0.588943E+00  0.650001E+00  0.705360E+00
  0.753494E+00  0.793862E+00  0.826500E+00  0.851943E+00  0.871116E+00  0.885046E+00
  0.894561E+00  0.900145E+00  0.901992E+00  0.917075E+00  0.913714E+00  0.906902E+00
  0.896349E+00  0.881429E+00  0.861147E+00  0.834291E+00  0.799744E+00  0.756812E+00
  0.705360E+00  0.645890E+00  0.580098E+00  0.511744E+00  0.446147E+00  0.387510E+00
  0.337287E+00  0.296061E+00  0.265392E+00  0.246393E+00  0.237903E+00  0.237903E+00
  0.246393E+00  0.265392E+00  0.296061E+00  0.337287E+00  0.387510E+00  0.446147E+00
  0.511744E+00  0.580098E+00  0.645890E+00  0.705360E+00  0.756812E+00  0.799744E+00
  0.834291E+00  0.861147E+00  0.881429E+00  0.896349E+00  0.906902E+00  0.913714E+00
  0.917075E+00  0.917075E+00  0.927781E+00  0.923065E+00  0.915058E+00  0.903380E+00
  0.887273E+00  0.865564E+00  0.836827E+00  0.799744E+00  0.753494E+00  0.697879E+00
  0.633445E+00  0.562314E+00  0.489174E+00  0.420053E+00  0.359064E+00  0.307662E+00
  0.267076E+00  0.238960E+00  0.223408E+00  0.218616E+00  0.223408E+00  0.238960E+00
  0.267076E+00  0.307662E+00  0.359064E+00  0.420053E+00  0.489174E+00  0.562314E+00
  0.633445E+00  0.697879E+00  0.753494E+00  0.799744E+00  0.836827E+00  0.865564E+00
  0.887273E+00  0.903380E+00  0.915058E+00  0.923065E+00  0.927781E+00  0.929344E+00
  0.927781E+00  0.934999E+00  0.928973E+00  0.919719E+00  0.906756E+00  0.889167E+00
  0.865564E+00  0.834291E+00  0.793862E+00  0.743384E+00  0.682634E+00  0.612350E+00
  0.535488E+00  0.457975E+00  0.386346E+00  0.324419E+00  0.273790E+00  0.236029E+00
  0.212083E+00  0.200956E+00  0.200956E+00  0.212083E+00  0.236029E+00  0.273790E+00
  0.324419E+00  0.386346E+00  0.457975E+00  0.535488E+00  0.612350E+00  0.682634E+00
  0.743384E+00  0.793862E+00  0.834291E+00  0.865564E+00  0.889167E+00  0.906756E+00
  0.919719E+00  0.928973E+00  0.934999E+00  0.937986E+00  0.937986E+00  0.934999E+00
  0.939195E+00  0.931846E+00  0.921238E+00  0.906756E+00  0.887273E+00  0.861147E+00
  0.826500E+00  0.781758E+00  0.726014E+00  0.659087E+00  0.582218E+00  0.499732E+00
  0.418915E+00  0.346390E+00  0.285526E+00  0.237996E+00  0.205038E+00  0.186427E+00
  0.180547E+00  0.186427E+00  0.205038E+00  0.237996E+00  0.285526E+00  0.346390E+00
  0.418915E+00  0.499732E+00  0.582218E+00  0.659087E+00  0.726014E+00  0.781758E+00
  0.826500E+00  0.861147E+00  0.887273E+00  0.906756E+00  0.921238E+00  0.931846E+00
  0.939195E+00  0.943552E+00  0.944999E+00  0.943552E+00  0.939195E+00  0.940576E+00
  0.931846E+00  0.919719E+00  0.903380E+00  0.881429E+00  0.851943E+00  0.812902E+00
  0.762750E+00  0.700629E+00  0.626565E+00  0.542854E+00  0.455695E+00  0.373444E+00
  0.302226E+00  0.244835E+00  0.202672E+00  0.175980E+00  0.163427E+00  0.163427E+00
  0.175980E+00  0.202672E+00  0.244835E+00  0.302226E+00  0.373444E+00  0.455695E+00
  0.542854E+00  0.626565E+00  0.700629E+00  0.762750E+00  0.812902E+00  0.851943E+00
  0.881429E+00  0.903380E+00  0.919719E+00  0.931846E+00  0.940576E+00  0.946290E+00
  0.949128E+00  0.949128E+00  0.946290E+00  0.940576E+00  0.939195E+00  0.928973E+00
  0.915058E+00  0.896349E+00  0.871116E+00  0.837206E+00  0.792597E+00  0.735872E+00
  0.666304E+00  0.584524E+00  0.494630E+00  0.404853E+00  0.323795E+00  0.256494E+00
  0.205038E+00  0.170012E+00  0.150368E+00  0.144150E+00  0.150368E+00  0.170012E+00
  0.205038E+00  0.256494E+00  0.323795E+00  0.404853E+00  0.494630E+00  0.584524E+00
  0.666304E+00  0.735872E+00  0.792597E+00  0.837206E+00  0.871116E+00  0.896349E+00
  0.915058E+00  0.928973E+00  0.939195E+00  0.946290E+00  0.950494E+00  0.951890E+00
  0.950494E+00  0.946290E+00  0.939195E+00  0.934999E+00  0.923065E+00  0.906902E+00
  0.885046E+00  0.855442E+00  0.815850E+00  0.764434E+00  0.700005E+00  0.622169E+00
  0.532914E+00  0.438824E+00  0.349566E+00  0.272786E+00  0.212083E+00  0.168606E+00
  0.141671E+00  0.129151E+00  0.129151E+00  0.141671E+00  0.168606E+00  0.212083E+00
  0.272786E+00  0.349566E+00  0.438824E+00  0.532914E+00  0.622169E+00  0.700005E+00
  0.764434E+00  0.815850E+00  0.855442E+00  0.885046E+00  0.906902E+00  0.923065E+00
  0.934999E+00  0.943552E+00  0.949128E+00  0.951890E+00  0.951890E+00  0.949128E+00
  0.943552E+00  0.934999E+00  0.927781E+00  0.913714E+00  0.894561E+00  0.868463E+00
  0.833164E+00  0.786564E+00  0.727158E+00  0.654046E+00  0.567736E+00  0.472615E+00
  0.377786E+00  0.292839E+00  0.223408E+00  0.171589E+00  0.137289E+00  0.118495E+00
  0.112620E+00  0.118495E+00  0.137289E+00  0.171589E+00  0.223408E+00  0.292839E+00
  0.377786E+00  0.472615E+00  0.567736E+00  0.654046E+00  0.727158E+00  0.786564E+00
  0.833164E+00  0.868463E+00  0.894561E+00  0.913714E+00  0.927781E+00  0.937986E+00
  0.944999E+00  0.949128E+00  0.950494E+00  0.949128E+00  0.944999E+00  0.937986E+00
  0.927781E+00  0.917075E+00  0.900145E+00  0.876906E+00  0.845200E+00  0.802802E+00
  0.747958E+00  0.679514E+00  0.597177E+00  0.503461E+00  0.405907E+00  0.314851E+00
  0.237903E+00  0.178353E+00  0.136850E+00  0.111875E+00  0.100519E+00  0.100519E+00
  0.111875E+00  0.136850E+00  0.178353E+00  0.237903E+00  0.314851E+00  0.405907E+00
  0.503461E+00  0.597177E+00  0.679514E+00  0.747958E+00  0.802802E+00  0.845200E+00
  0.876906E+00  0.900145E+00  0.917075E+00  0.929344E+00  0.937986E+00  0.943552E+00
  0.946290E+00  0.946290E+00  0.943552E+00  0.937986E+00  0.929344E+00  0.917075E+00
  0.901992E+00  0.881083E+00  0.852350E+00  0.813565E+00  0.762783E+00  0.698642E+00
  0.620460E+00  0.529505E+00  0.431556E+00  0.336644E+00  0.253862E+00  0.187755E+00
  0.139645E+00  0.108730E+00  0.922641E-01  0.872067E-01  0.922641E-01  0.108730E+00
  0.139645E+00  0.187755E+00  0.253862E+00  0.336644E+00  0.431556E+00  0.529505E+00
  0.620460E+00  0.698642E+00  0.762783E+00  0.813565E+00  0.852350E+00  0.881083E+00
  0.901992E+00  0.917075E+00  0.927781E+00  0.934999E+00  0.939195E+00  0.940576E+00
  0.939195E+00  0.934999E+00  0.927781E+00  0.917075E+00  0.901992E+00  0.890710E+00
  0.862883E+00  0.825316E+00  0.775934E+00  0.712770E+00  0.634458E+00  0.542026E+00
  0.441462E+00  0.343291E+00  0.257171E+00  0.187755E+00  0.136077E+00  0.101444E+00
  0.813843E-01  0.725201E-01  0.725201E-01  0.813843E-01  0.101444E+00  0.136077E+00
  0.187755E+00  0.257171E+00  0.343291E+00  0.441462E+00  0.542026E+00  0.634458E+00
  0.712770E+00  0.775934E+00  0.825316E+00  0.862883E+00  0.890710E+00  0.910820E+00
  0.924990E+00  0.934591E+00  0.940551E+00  0.943411E+00  0.943411E+00  0.940551E+00
  0.934591E+00  0.924990E+00  0.910820E+00  0.890710E+00  0.862883E+00  0.828254E+00
  0.782550E+00  0.723719E+00  0.650093E+00  0.561858E+00  0.463503E+00  0.364464E+00
  0.275028E+00  0.201218E+00  0.144694E+00  0.105121E+00  0.806154E-01  0.679457E-01
  0.641174E-01  0.679457E-01  0.806154E-01  0.105121E+00  0.144694E+00  0.201218E+00
  0.275028E+00  0.364464E+00  0.463503E+00  0.561858E+00  0.650093E+00  0.723719E+00
  0.782550E+00  0.828254E+00  0.862883E+00  0.888457E+00  0.906842E+00  0.919620E+00
  0.927986E+00  0.932723E+00  0.934258E+00  0.932723E+00  0.927986E+00  0.919620E+00
  0.906842E+00  0.888457E+00  0.862883E+00  0.825316E+00  0.782550E+00  0.727405E+00
  0.658070E+00  0.574204E+00  0.479172E+00  0.381155E+00  0.290282E+00  0.213582E+00
  0.153497E+00  0.109963E+00  0.815465E-01  0.654275E-01  0.583947E-01  0.583947E-01
  0.654275E-01  0.815465E-01  0.109963E+00  0.153497E+00  0.213582E+00  0.290282E+00
  0.381155E+00  0.479172E+00  0.574204E+00  0.658070E+00  0.727405E+00  0.782550E+00
  0.825316E+00  0.857711E+00  0.881601E+00  0.898654E+00  0.910262E+00  0.917460E+00
  0.920905E+00  0.920905E+00  0.917460E+00  0.910262E+00  0.898654E+00  0.881601E+00
  0.857711E+00  0.825316E+00  0.775934E+00  0.723719E+00  0.658070E+00  0.578414E+00
  0.487377E+00  0.391990E+00  0.301652E+00  0.223749E+00  0.161478E+00  0.115149E+00
  0.836237E-01  0.645142E-01  0.547408E-01  0.517974E-01  0.547408E-01  0.645142E-01
  0.836237E-01  0.115149E+00  0.161478E+00  0.223749E+00  0.301652E+00  0.391990E+00
  0.487377E+00  0.578414E+00  0.658070E+00  0.723719E+00  0.775934E+00  0.816484E+00
  0.847223E+00  0.869821E+00  0.885756E+00  0.896254E+00  0.902206E+00  0.904133E+00
  0.902206E+00  0.896254E+00  0.885756E+00  0.869821E+00  0.847223E+00  0.816484E+00
  0.775934E+00  0.712770E+00  0.650093E+00  0.574204E+00  0.487377E+00  0.395767E+00
  0.307796E+00  0.230540E+00  0.167611E+00  0.119777E+00  0.861746E-01  0.647418E-01
  0.526775E-01  0.473963E-01  0.473963E-01  0.526775E-01  0.647418E-01  0.861746E-01
  0.119777E+00  0.167611E+00  0.230540E+00  0.307796E+00  0.395767E+00  0.487377E+00
  0.574204E+00  0.650093E+00  0.712770E+00  0.762759E+00  0.801637E+00  0.831057E+00
  0.852525E+00  0.867364E+00  0.876646E+00  0.881105E+00  0.881105E+00  0.876646E+00
  0.867364E+00  0.852525E+00  0.831057E+00  0.801637E+00  0.762759E+00  0.712770E+00
  0.634458E+00  0.561858E+00  0.479172E+00  0.391990E+00  0.307796E+00  0.232940E+00
  0.170962E+00  0.122979E+00  0.884513E-01  0.655683E-01  0.517834E-01  0.446415E-01
  0.424576E-01  0.446415E-01  0.517834E-01  0.655683E-01  0.884513E-01  0.122979E+00
  0.170962E+00  0.232940E+00  0.307796E+00  0.391990E+00  0.479172E+00  0.561858E+00
  0.634458E+00  0.694728E+00  0.742938E+00  0.780395E+00  0.808579E+00  0.828875E+00
  0.842470E+00  0.850264E+00  0.852801E+00  0.850264E+00  0.842470E+00  0.828875E+00
  0.808579E+00  0.780395E+00  0.742938E+00  0.694728E+00  0.634458E+00  0.542026E+00
  0.463503E+00  0.381155E+00  0.301652E+00  0.230540E+00  0.170962E+00  0.124123E+00
  0.897868E-01  0.663992E-01  0.516051E-01  0.431068E-01  0.392650E-01  0.392650E-01
  0.431068E-01  0.516051E-01  0.663992E-01  0.897868E-01  0.124123E+00  0.170962E+00
  0.230540E+00  0.301652E+00  0.381155E+00  0.463503E+00  0.542026E+00  0.611501E+00
  0.669545E+00  0.716074E+00  0.752108E+00  0.778972E+00  0.797923E+00  0.809983E+00
  0.815843E+00  0.815843E+00  0.809983E+00  0.797923E+00  0.778972E+00  0.752108E+00
  0.716074E+00  0.669545E+00  0.611501E+00  0.542026E+00  0.441462E+00  0.364464E+00
  0.290282E+00  0.223749E+00  0.167611E+00  0.122979E+00  0.897868E-01  0.667412E-01
  0.516755E-01  0.424063E-01  0.373806E-01  0.357853E-01  0.373806E-01  0.424063E-01
  0.516755E-01  0.667412E-01  0.897868E-01  0.122979E+00  0.167611E+00  0.223749E+00
  0.290282E+00  0.364464E+00  0.441462E+00  0.515378E+00  0.581373E+00  0.636936E+00
  0.681606E+00  0.716076E+00  0.741444E+00  0.758769E+00  0.768851E+00  0.772161E+00
  0.768851E+00  0.758769E+00  0.741444E+00  0.716076E+00  0.681606E+00  0.636936E+00
  0.581373E+00  0.515378E+00  0.441462E+00  0.343291E+00  0.275028E+00  0.213582E+00
  0.161478E+00  0.119777E+00  0.884513E-01  0.663992E-01  0.516755E-01  0.422173E-01
  0.365169E-01  0.337995E-01  0.337995E-01  0.365169E-01  0.422173E-01  0.516755E-01
  0.663992E-01  0.884513E-01  0.119777E+00  0.161478E+00  0.213582E+00  0.275028E+00
  0.343291E+00  0.414163E+00  0.482614E+00  0.544365E+00  0.596880E+00  0.639315E+00
  0.671936E+00  0.695483E+00  0.710722E+00  0.718204E+00  0.718204E+00  0.710722E+00
  0.695483E+00  0.671936E+00  0.639315E+00  0.596880E+00  0.544365E+00  0.482614E+00
  0.414163E+00  0.343291E+00  0.257171E+00  0.201218E+00  0.153497E+00  0.115149E+00
  0.861746E-01  0.655683E-01  0.516051E-01  0.424063E-01  0.365169E-01  0.331495E-01
  0.320403E-01  0.331495E-01  0.365169E-01  0.424063E-01  0.516051E-01  0.655683E-01
  0.861746E-01  0.115149E+00  0.153497E+00  0.201218E+00  0.257171E+00  0.318927E+00
  0.382893E+00  0.444999E+00  0.501643E+00  0.550355E+00  0.589921E+00  0.620109E+00
  0.641220E+00  0.653677E+00  0.657793E+00  0.653677E+00  0.641220E+00  0.620109E+00
  0.589921E+00  0.550355E+00  0.501643E+00  0.444999E+00  0.382893E+00  0.318927E+00
  0.257171E+00  0.187755E+00  0.144694E+00  0.109963E+00  0.836237E-01  0.647418E-01
  0.517834E-01  0.431068E-01  0.373806E-01  0.337995E-01  0.320403E-01  0.320403E-01
  0.337995E-01  0.373806E-01  0.431068E-01  0.517834E-01  0.647418E-01  0.836237E-01
  0.109963E+00  0.144694E+00  0.187755E+00  0.237903E+00  0.292839E+00  0.349566E+00
  0.404853E+00  0.455695E+00  0.499732E+00  0.535488E+00  0.562314E+00  0.580098E+00
  0.588943E+00  0.588943E+00  0.580098E+00  0.562314E+00  0.535488E+00  0.499732E+00
  0.455695E+00  0.404853E+00  0.349566E+00  0.292839E+00  0.237903E+00  0.187755E+00
  0.136077E+00  0.105121E+00  0.815465E-01  0.645142E-01  0.526775E-01  0.446415E-01
  0.392650E-01  0.357853E-01  0.337995E-01  0.331495E-01  0.337995E-01  0.357853E-01
  0.392650E-01  0.446415E-01  0.526775E-01  0.645142E-01  0.815465E-01  0.105121E+00
  0.136077E+00  0.174309E+00  0.218616E+00  0.266935E+00  0.316720E+00  0.365248E+00
  0.409896E+00  0.448466E+00  0.479423E+00  0.501898E+00  0.515483E+00  0.520024E+00
  0.515483E+00  0.501898E+00  0.479423E+00  0.448466E+00  0.409896E+00  0.365248E+00
  0.316720E+00  0.266935E+00  0.218616E+00  0.174309E+00  0.136077E+00  0.101444E+00
  0.806154E-01  0.654275E-01  0.547408E-01  0.473963E-01  0.424576E-01  0.392650E-01
  0.373806E-01  0.365169E-01  0.365169E-01  0.373806E-01  0.392650E-01  0.424576E-01
  0.473963E-01  0.547408E-01  0.654275E-01  0.806154E-01  0.101444E+00  0.128641E+00
  0.162145E+00  0.200956E+00  0.243278E+00  0.286794E+00  0.328983E+00  0.367440E+00
  0.400179E+00  0.425770E+00  0.443280E+00  0.452164E+00  0.452164E+00  0.443280E+00
  0.425770E+00  0.400179E+00  0.367440E+00  0.328983E+00  0.286794E+00  0.243278E+00
  0.200956E+00  0.162145E+00  0.128641E+00  0.101444E+00  0.813843E-01  0.679457E-01
  0.583947E-01  0.517974E-01  0.473963E-01  0.446415E-01  0.431068E-01  0.424063E-01
  0.422173E-01  0.424063E-01  0.431068E-01  0.446415E-01  0.473963E-01  0.517974E-01
  0.583947E-01  0.679457E-01  0.813843E-01  0.996392E-01  0.123344E+00  0.152530E+00
  0.186427E+00  0.223437E+00  0.261358E+00  0.297772E+00  0.330442E+00  0.357555E+00
  0.377787E+00  0.390259E+00  0.394471E+00  0.390259E+00  0.377787E+00  0.357555E+00
  0.330442E+00  0.297772E+00  0.261358E+00  0.223437E+00  0.186427E+00  0.152530E+00
  0.123344E+00  0.996392E-01  0.813843E-01  0.725201E-01  0.641174E-01  0.583947E-01
  0.547408E-01  0.526775E-01  0.517834E-01  0.516051E-01  0.516755E-01  0.516755E-01
  0.516051E-01  0.517834E-01  0.526775E-01  0.547408E-01  0.583947E-01  0.641174E-01
  0.725201E-01  0.843371E-01  0.100311E+00  0.120985E+00  0.146428E+00  0.175980E+00
  0.208193E+00  0.241029E+00  0.272236E+00  0.299688E+00  0.321634E+00  0.336835E+00
  0.344582E+00  0.344582E+00  0.336835E+00  0.321634E+00  0.299688E+00  0.272236E+00
  0.241029E+00  0.208193E+00  0.175980E+00  0.146428E+00  0.120985E+00  0.100311E+00
  0.843371E-01  0.725201E-01  0.725201E-01  0.679457E-01  0.654275E-01  0.645142E-01
  0.647418E-01  0.655683E-01  0.663992E-01  0.667412E-01  0.663992E-01  0.655683E-01
  0.647418E-01  0.645142E-01  0.654275E-01  0.679457E-01  0.725201E-01  0.796607E-01
  0.899499E-01  0.103967E+00  0.122110E+00  0.144346E+00  0.170012E+00  0.197805E+00
  0.225939E+00  0.252355E+00  0.274993E+00  0.292140E+00  0.302721E+00  0.306280E+00
  0.302721E+00  0.292140E+00  0.274993E+00  0.252355E+00  0.225939E+00  0.197805E+00
  0.170012E+00  0.144346E+00  0.122110E+00  0.103967E+00  0.899499E-01  0.796607E-01
  0.725201E-01  0.813843E-01  0.806154E-01  0.815465E-01  0.836237E-01  0.861746E-01
  0.884513E-01  0.897868E-01  0.897868E-01  0.884513E-01  0.861746E-01  0.836237E-01
  0.815465E-01  0.806154E-01  0.813843E-01  0.843371E-01  0.899499E-01  0.986993E-01
  0.110986E+00  0.126977E+00  0.146428E+00  0.168606E+00  0.192336E+00  0.216060E+00
  0.237906E+00  0.255937E+00  0.268613E+00  0.275088E+00  0.275088E+00  0.268613E+00
  0.255937E+00  0.237906E+00  0.216060E+00  0.192336E+00  0.168606E+00  0.146428E+00
  0.126977E+00  0.110986E+00  0.986993E-01  0.899499E-01  0.843371E-01  0.813843E-01
  0.101444E+00  0.105121E+00  0.109963E+00  0.115149E+00  0.119777E+00  0.122979E+00
  0.124123E+00  0.122979E+00  0.119777E+00  0.115149E+00  0.109963E+00  0.105121E+00
  0.101444E+00  0.996392E-01  0.100311E+00  0.103967E+00  0.110986E+00  0.121557E+00
  0.135569E+00  0.152530E+00  0.171589E+00  0.191606E+00  0.211179E+00  0.228664E+00
  0.242401E+00  0.251103E+00  0.254071E+00  0.251103E+00  0.242401E+00  0.228664E+00
  0.211179E+00  0.191606E+00  0.171589E+00  0.152530E+00  0.135569E+00  0.121557E+00
  0.110986E+00  0.103967E+00  0.100311E+00  0.996392E-01  0.101444E+00  0.136077E+00
  0.144694E+00  0.153497E+00  0.161478E+00  0.167611E+00  0.170962E+00  0.170962E+00
  0.167611E+00  0.161478E+00  0.153497E+00  0.144694E+00  0.136077E+00  0.128641E+00
  0.123344E+00  0.120985E+00  0.122110E+00  0.126977E+00  0.135569E+00  0.147535E+00
  0.162145E+00  0.178353E+00  0.194964E+00  0.210714E+00  0.224264E+00  0.234262E+00
  0.239578E+00  0.239578E+00  0.234262E+00  0.224264E+00  0.210714E+00  0.194964E+00
  0.178353E+00  0.162145E+00  0.147535E+00  0.135569E+00  0.126977E+00  0.122110E+00
  0.120985E+00  0.123344E+00  0.128641E+00  0.136077E+00  0.187755E+00  0.201218E+00
  0.213582E+00  0.223749E+00  0.230540E+00  0.232940E+00  0.230540E+00  0.223749E+00
  0.213582E+00  0.201218E+00  0.187755E+00  0.174309E+00  0.162145E+00  0.152530E+00
  0.146428E+00  0.144346E+00  0.146428E+00  0.152530E+00  0.162145E+00  0.174309E+00
  0.187755E+00  0.201218E+00  0.213582E+00  0.223749E+00  0.230540E+00  0.232940E+00
  0.230540E+00  0.223749E+00  0.213582E+00  0.201218E+00  0.187755E+00  0.174309E+00
  0.162145E+00  0.152530E+00  0.146428E+00  0.144346E+00  0.146428E+00  0.152530E+00
  0.162145E+00  0.174309E+00  0.187755E+00  0.257171E+00  0.275028E+00  0.290282E+00
  0.301652E+00  0.307796E+00  0.307796E+00  0.301652E+00  0.290282E+00  0.275028E+00
  0.257171E+00  0.237903E+00  0.218616E+00  0.200956E+00  0.186427E+00  0.175980E+00
  0.170012E+00  0.168606E+00  0.171589E+00  0.178353E+00  0.187755E+00  0.198370E+00
  0.208888E+00  0.218222E+00  0.225346E+00  0.229252E+00  0.229252E+00  0.225346E+00
  0.218222E+00  0.208888E+00  0.198370E+00  0.187755E+00  0.178353E+00  0.171589E+00
  0.168606E+00  0.170012E+00  0.175980E+00  0.186427E+00  0.200956E+00  0.218616E+00
  0.237903E+00  0.257171E+00  0.343291E+00  0.364464E+00  0.381155E+00  0.391990E+00
  0.395767E+00  0.391990E+00  0.381155E+00  0.364464E+00  0.343291E+00  0.318927E+00
  0.292839E+00  0.266935E+00  0.243278E+00  0.223437E+00  0.208193E+00  0.197805E+00
  0.192336E+00  0.191606E+00  0.194964E+00  0.201218E+00  0.208888E+00  0.216525E+00
  0.222906E+00  0.227113E+00  0.228580E+00  0.227113E+00  0.222906E+00  0.216525E+00
  0.208888E+00  0.201218E+00  0.194964E+00  0.191606E+00  0.192336E+00  0.197805E+00
  0.208193E+00  0.223437E+00  0.243278E+00  0.266935E+00  0.292839E+00  0.318927E+00
  0.343291E+00  0.441462E+00  0.463503E+00  0.479172E+00  0.487377E+00  0.487377E+00
  0.479172E+00  0.463503E+00  0.441462E+00  0.414163E+00  0.382893E+00  0.349566E+00
  0.316720E+00  0.286794E+00  0.261358E+00  0.241029E+00  0.225939E+00  0.216060E+00
  0.211179E+00  0.210714E+00  0.213582E+00  0.218222E+00  0.222906E+00  0.226340E+00
  0.228041E+00  0.228041E+00  0.226340E+00  0.222906E+00  0.218222E+00  0.213582E+00
  0.210714E+00  0.211179E+00  0.216060E+00  0.225939E+00  0.241029E+00  0.261358E+00
  0.286794E+00  0.316720E+00  0.349566E+00  0.382893E+00  0.414163E+00  0.441462E+00
  0.542026E+00  0.561858E+00  0.574204E+00  0.578414E+00  0.574204E+00  0.561858E+00
  0.542026E+00  0.515378E+00  0.482614E+00  0.444999E+00  0.404853E+00  0.365248E+00
  0.328983E+00  0.297772E+00  0.272236E+00  0.252355E+00  0.237906E+00  0.228664E+00
  0.224264E+00  0.223749E+00  0.225346E+00  0.227113E+00  0.228041E+00  0.228259E+00
  0.228041E+00  0.227113E+00  0.225346E+00  0.223749E+00  0.224264E+00  0.228664E+00
  0.237906E+00  0.252355E+00  0.272236E+00  0.297772E+00  0.328983E+00  0.365248E+00
  0.404853E+00  0.444999E+00  0.482614E+00  0.515378E+00  0.542026E+00  0.634458E+00
  0.650093E+00  0.658070E+00  0.658070E+00  0.650093E+00  0.634458E+00  0.611501E+00
  0.581373E+00  0.544365E+00  0.501643E+00  0.455695E+00  0.409896E+00  0.367440E+00
  0.330442E+00  0.299688E+00  0.274993E+00  0.255937E+00  0.242401E+00  0.234262E+00
  0.230540E+00  0.229252E+00  0.228580E+00  0.228041E+00  0.228041E+00  0.228580E+00
  0.229252E+00  0.230540E+00  0.234262E+00  0.242401E+00  0.255937E+00  0.274993E+00
  0.299688E+00  0.330442E+00  0.367440E+00  0.409896E+00  0.455695E+00  0.501643E+00
  0.544365E+00  0.581373E+00  0.611501E+00  0.634458E+00  0.712770E+00  0.723719E+00
  0.727405E+00  0.723719E+00  0.712770E+00  0.694728E+00  0.669545E+00  0.636936E+00
  0.596880E+00  0.550355E+00  0.499732E+00  0.448466E+00  0.400179E+00  0.357555E+00
  0.321634E+00  0.292140E+00  0.268613E+00  0.251103E+00  0.239578E+00  0.232940E+00
  0.229252E+00  0.227113E+00  0.226340E+00  0.227113E+00  0.229252E+00  0.232940E+00
  0.239578E+00  0.251103E+00  0.268613E+00  0.292140E+00  0.321634E+00  0.357555E+00
  0.400179E+00  0.448466E+00  0.499732E+00  0.550355E+00  0.596880E+00  0.636936E+00
  0.669545E+00  0.694728E+00  0.712770E+00  0.775934E+00  0.782550E+00  0.782550E+00
  0.775934E+00  0.762759E+00  0.742938E+00  0.716074E+00  0.681606E+00  0.639315E+00
  0.589921E+00  0.535488E+00  0.479423E+00  0.425770E+00  0.377787E+00  0.336835E+00
  0.302721E+00  0.275088E+00  0.254071E+00  0.239578E+00  0.230540E+00  0.225346E+00
  0.222906E+00  0.222906E+00  0.225346E+00  0.230540E+00  0.239578E+00  0.254071E+00
  0.275088E+00  0.302721E+00  0.336835E+00  0.377787E+00  0.425770E+00  0.479423E+00
  0.535488E+00  0.589921E+00  0.639315E+00  0.681606E+00  0.716074E+00  0.742938E+00
  0.762759E+00  0.775934E+00  0.825316E+00  0.828254E+00  0.825316E+00  0.816484E+00
  0.801637E+00  0.780395E+00  0.752108E+00  0.716076E+00  0.671936E+00  0.620109E+00
  0.562314E+00  0.501898E+00  0.443280E+00  0.390259E+00  0.344582E+00  0.306280E+00
  0.275088E+00  0.251103E+00  0.234262E+00  0.223749E+00  0.218222E+00  0.216525E+00
  0.218222E+00  0.223749E+00  0.234262E+00  0.251103E+00  0.275088E+00  0.306280E+00
  0.344582E+00  0.390259E+00  0.443280E+00  0.501898E+00  0.562314E+00  0.620109E+00
  0.671936E+00  0.716076E+00  0.752108E+00  0.780395E+00  0.801637E+00  0.816484E+00
  0.825316E+00  0.862883E+00  0.862883E+00  0.857711E+00  0.847223E+00  0.831057E+00
  0.808579E+00  0.778972E+00  0.741444E+00  0.695483E+00  0.641220E+00  0.580098E+00
  0.515483E+00  0.452164E+00  0.394471E+00  0.344582E+00  0.302721E+00  0.268613E+00
  0.242401E+00  0.224264E+00  0.213582E+00  0.208888E+00  0.208888E+00  0.213582E+00
  0.224264E+00  0.242401E+00  0.268613E+00  0.302721E+00  0.344582E+00  0.394471E+00
  0.452164E+00  0.515483E+00  0.580098E+00  0.641220E+00  0.695483E+00  0.741444E+00
  0.778972E+00  0.808579E+00  0.831057E+00  0.847223E+00  0.857711E+00  0.862883E+00
  0.890710E+00  0.888457E+00  0.881601E+00  0.869821E+00  0.852525E+00  0.828875E+00
  0.797923E+00  0.758769E+00  0.710722E+00  0.653677E+00  0.588943E+00  0.520024E+00
  0.452164E+00  0.390259E+00  0.336835E+00  0.292140E+00  0.255937E+00  0.228664E+00
  0.210714E+00  0.201218E+00  0.198370E+00  0.201218E+00  0.210714E+00  0.228664E+00
  0.255937E+00  0.292140E+00  0.336835E+00  0.390259E+00  0.452164E+00  0.520024E+00
  0.588943E+00  0.653677E+00  0.710722E+00  0.758769E+00  0.797923E+00  0.828875E+00
  0.852525E+00  0.869821E+00  0.881601E+00  0.888457E+00  0.890710E+00  0.910820E+00
  0.906842E+00  0.898654E+00  0.885756E+00  0.867364E+00  0.842470E+00  0.809983E+00
  0.768851E+00  0.718204E+00  0.657793E+00  0.588943E+00  0.515483E+00  0.443280E+00
  0.377787E+00  0.321634E+00  0.274993E+00  0.237906E+00  0.211179E+00  0.194964E+00
  0.187755E+00  0.187755E+00  0.194964E+00  0.211179E+00  0.237906E+00  0.274993E+00
  0.321634E+00  0.377787E+00  0.443280E+00  0.515483E+00  0.588943E+00  0.657793E+00
  0.718204E+00  0.768851E+00  0.809983E+00  0.842470E+00  0.867364E+00  0.885756E+00
  0.898654E+00  0.906842E+00  0.910820E+00  0.910820E+00  0.924990E+00  0.919620E+00
  0.910262E+00  0.896254E+00  0.876646E+00  0.850264E+00  0.815843E+00  0.772161E+00
  0.718204E+00  0.653677E+00  0.580098E+00  0.501898E+00  0.425770E+00  0.357555E+00
  0.299688E+00  0.252355E+00  0.216060E+00  0.191606E+00  0.178353E+00  0.174309E+00
  0.178353E+00  0.191606E+00  0.216060E+00  0.252355E+00  0.299688E+00  0.357555E+00
  0.425770E+00  0.501898E+00  0.580098E+00  0.653677E+00  0.718204E+00  0.772161E+00
  0.815843E+00  0.850264E+00  0.876646E+00  0.896254E+00  0.910262E+00  0.919620E+00
  0.924990E+00  0.926741E+00  0.924990E+00  0.934591E+00  0.927986E+00  0.917460E+00
  0.902206E+00  0.881105E+00  0.852801E+00  0.815843E+00  0.768851E+00  0.710722E+00
  0.641220E+00  0.562314E+00  0.479423E+00  0.400179E+00  0.330442E+00  0.272236E+00
  0.225939E+00  0.192336E+00  0.171589E+00  0.162145E+00  0.162145E+00  0.171589E+00
  0.192336E+00  0.225939E+00  0.272236E+00  0.330442E+00  0.400179E+00  0.479423E+00
  0.562314E+00  0.641220E+00  0.710722E+00  0.768851E+00  0.815843E+00  0.852801E+00
  0.881105E+00  0.902206E+00  0.917460E+00  0.927986E+00  0.934591E+00  0.937777E+00
  0.937777E+00  0.934591E+00  0.940551E+00  0.932723E+00  0.920905E+00  0.904133E+00
  0.881105E+00  0.850264E+00  0.809983E+00  0.758769E+00  0.695483E+00  0.620109E+00
  0.535488E+00  0.448466E+00  0.367440E+00  0.297772E+00  0.241029E+00  0.197805E+00
  0.168606E+00  0.152530E+00  0.147535E+00  0.152530E+00  0.168606E+00  0.197805E+00
  0.241029E+00  0.297772E+00  0.367440E+00  0.448466E+00  0.535488E+00  0.620109E+00
  0.695483E+00  0.758769E+00  0.809983E+00  0.850264E+00  0.881105E+00  0.904133E+00
  0.920905E+00  0.932723E+00  0.940551E+00  0.945019E+00  0.946471E+00  0.945019E+00
  0.940551E+00  0.943411E+00  0.934258E+00  0.920905E+00  0.902206E+00  0.876646E+00
  0.842470E+00  0.797923E+00  0.741444E+00  0.671936E+00  0.589921E+00  0.499732E+00
  0.409896E+00  0.328983E+00  0.261358E+00  0.208193E+00  0.170012E+00  0.146428E+00
  0.135569E+00  0.135569E+00  0.146428E+00  0.170012E+00  0.208193E+00  0.261358E+00
  0.328983E+00  0.409896E+00  0.499732E+00  0.589921E+00  0.671936E+00  0.741444E+00
  0.797923E+00  0.842470E+00  0.876646E+00  0.902206E+00  0.920905E+00  0.934258E+00
  0.943411E+00  0.949135E+00  0.951891E+00  0.951891E+00  0.949135E+00  0.943411E+00
  0.943411E+00  0.932723E+00  0.917460E+00  0.896254E+00  0.867364E+00  0.828875E+00
  0.778972E+00  0.716076E+00  0.639315E+00  0.550355E+00  0.455695E+00  0.365248E+00
  0.286794E+00  0.223437E+00  0.175980E+00  0.144346E+00  0.126977E+00  0.121557E+00
  0.126977E+00  0.144346E+00  0.175980E+00  0.223437E+00  0.286794E+00  0.365248E+00
  0.455695E+00  0.550355E+00  0.639315E+00  0.716076E+00  0.778972E+00  0.828875E+00
  0.867364E+00  0.896254E+00  0.917460E+00  0.932723E+00  0.943411E+00  0.950472E+00
  0.954499E+00  0.955808E+00  0.954499E+00  0.950472E+00  0.943411E+00  0.940551E+00
  0.927986E+00  0.910262E+00  0.885756E+00  0.852525E+00  0.808579E+00  0.752108E+00
  0.681606E+00  0.596880E+00  0.501643E+00  0.404853E+00  0.316720E+00  0.243278E+00
  0.186427E+00  0.146428E+00  0.122110E+00  0.110986E+00  0.110986E+00  0.122110E+00
  0.146428E+00  0.186427E+00  0.243278E+00  0.316720E+00  0.404853E+00  0.501643E+00
  0.596880E+00  0.681606E+00  0.752108E+00  0.808579E+00  0.852525E+00  0.885756E+00
  0.910262E+00  0.927986E+00  0.940551E+00  0.949135E+00  0.954499E+00  0.957082E+00
  0.957082E+00  0.954499E+00  0.949135E+00  0.940551E+00  0.934591E+00  0.919620E+00
  0.898654E+00  0.869821E+00  0.831057E+00  0.780395E+00  0.716074E+00  0.636936E+00
  0.544365E+00  0.444999E+00  0.349566E+00  0.266935E+00  0.200956E+00  0.152530E+00
  0.120985E+00  0.103967E+00  0.986993E-01  0.103967E+00  0.120985E+00  0.152530E+00
  0.200956E+00  0.266935E+00  0.349566E+00  0.444999E+00  0.544365E+00  0.636936E+00
  0.716074E+00  0.780395E+00  0.831057E+00  0.869821E+00  0.898654E+00  0.919620E+00
  0.934591E+00  0.945019E+00  0.951891E+00  0.955808E+00  0.957082E+00  0.955808E+00
  0.951891E+00  0.945019E+00  0.934591E+00  0.924990E+00  0.906842E+00  0.881601E+00
  0.847223E+00  0.801637E+00  0.742938E+00  0.669545E+00  0.581373E+00  0.482614E+00
  0.382893E+00  0.292839E+00  0.218616E+00  0.162145E+00  0.123344E+00  0.100311E+00
  0.899499E-01  0.899499E-01  0.100311E+00  0.123344E+00  0.162145E+00  0.218616E+00
  0.292839E+00  0.382893E+00  0.482614E+00  0.581373E+00  0.669545E+00  0.742938E+00
  0.801637E+00  0.847223E+00  0.881601E+00  0.906842E+00  0.924990E+00  0.937777E+00
  0.946471E+00  0.951891E+00  0.954499E+00  0.954499E+00  0.951891E+00  0.946471E+00
  0.937777E+00  0.924990E+00  0.910820E+00  0.888457E+00  0.857711E+00  0.816484E+00
  0.762759E+00  0.694728E+00  0.611501E+00  0.515378E+00  0.414163E+00  0.318927E+00
  0.237903E+00  0.174309E+00  0.128641E+00  0.996392E-01  0.843371E-01  0.796607E-01
  0.843371E-01  0.996392E-01  0.128641E+00  0.174309E+00  0.237903E+00  0.318927E+00
  0.414163E+00  0.515378E+00  0.611501E+00  0.694728E+00  0.762759E+00  0.816484E+00
  0.857711E+00  0.888457E+00  0.910820E+00  0.926741E+00  0.937777E+00  0.945019E+00
  0.949135E+00  0.950472E+00  0.949135E+00  0.945019E+00  0.937777E+00  0.926741E+00
  0.910820E+00  0.890710E+00  0.862883E+00  0.825316E+00  0.775934E+00  0.712770E+00
  0.634458E+00  0.542026E+00  0.441462E+00  0.343291E+00  0.257171E+00  0.187755E+00
  0.136077E+00  0.101444E+00  0.813843E-01  0.725201E-01  0.725201E-01  0.813843E-01
  0.101444E+00  0.136077E+00  0.187755E+00  0.257171E+00  0.343291E+00  0.441462E+00
  0.542026E+00  0.634458E+00  0.712770E+00  0.775934E+00  0.825316E+00  0.862883E+00
  0.890710E+00  0.910820E+00  0.924990E+00  0.934591E+00  0.940551E+00  0.943411E+00
  0.943411E+00  0.940551E+00  0.934591E+00  0.924990E+00  0.910820E+00  0.890710E+00
  0.871845E+00  0.836424E+00  0.789479E+00  0.728674E+00  0.652157E+00  0.560514E+00
  0.459218E+00  0.358416E+00  0.268374E+00  0.194964E+00  0.139645E+00  0.101444E+00
  0.778605E-01  0.655740E-01  0.618261E-01  0.655740E-01  0.778605E-01  0.101444E+00
  0.139645E+00  0.194964E+00  0.268374E+00  0.358416E+00  0.459218E+00  0.560514E+00
  0.652157E+00  0.728674E+00  0.789479E+00  0.836424E+00  0.871845E+00  0.897899E+00
  0.916503E+00  0.929303E+00  0.937586E+00  0.942229E+00  0.943725E+00  0.942229E+00
  0.937586E+00  0.929303E+00  0.916503E+00  0.897899E+00  0.871845E+00  0.836424E+00
  0.792887E+00  0.736349E+00  0.664777E+00  0.577993E+00  0.480079E+00  0.379937E+00
  0.287831E+00  0.210714E+00  0.151029E+00  0.108348E+00  0.806154E-01  0.647546E-01
  0.577323E-01  0.577323E-01  0.647546E-01  0.806154E-01  0.108348E+00  0.151029E+00
  0.210714E+00  0.287831E+00  0.379937E+00  0.480079E+00  0.577993E+00  0.664777E+00
  0.736349E+00  0.792887E+00  0.836424E+00  0.869220E+00  0.893280E+00  0.910350E+00
  0.921888E+00  0.928995E+00  0.932379E+00  0.932379E+00  0.928995E+00  0.921888E+00
  0.910350E+00  0.893280E+00  0.869220E+00  0.836424E+00  0.789479E+00  0.736349E+00
  0.668999E+00  0.586874E+00  0.493075E+00  0.395294E+00  0.303224E+00  0.224264E+00
  0.161678E+00  0.115623E+00  0.844566E-01  0.654275E-01  0.555232E-01  0.524936E-01
  0.555232E-01  0.654275E-01  0.844566E-01  0.115623E+00  0.161678E+00  0.224264E+00
  0.303224E+00  0.395294E+00  0.493075E+00  0.586874E+00  0.668999E+00  0.736349E+00
  0.789479E+00  0.830395E+00  0.861197E+00  0.883720E+00  0.899533E+00  0.909914E+00
  0.915783E+00  0.917681E+00  0.915783E+00  0.909914E+00  0.899533E+00  0.883720E+00
  0.861197E+00  0.830395E+00  0.789479E+00  0.728674E+00  0.664777E+00  0.586874E+00
  0.497490E+00  0.403295E+00  0.313132E+00  0.234262E+00  0.170405E+00  0.122273E+00
  0.886433E-01  0.670839E-01  0.547408E-01  0.492274E-01  0.492274E-01  0.547408E-01
  0.670839E-01  0.886433E-01  0.122273E+00  0.170405E+00  0.234262E+00  0.313132E+00
  0.403295E+00  0.497490E+00  0.586874E+00  0.664777E+00  0.728674E+00  0.779172E+00
  0.818094E+00  0.847340E+00  0.868584E+00  0.883233E+00  0.892386E+00  0.896781E+00
  0.896781E+00  0.892386E+00  0.883233E+00  0.868584E+00  0.847340E+00  0.818094E+00
  0.779172E+00  0.728674E+00  0.652157E+00  0.577993E+00  0.493075E+00  0.403295E+00
  0.316554E+00  0.239578E+00  0.176133E+00  0.127318E+00  0.923386E-01  0.690849E-01
  0.548912E-01  0.473963E-01  0.450718E-01  0.473963E-01  0.548912E-01  0.690849E-01
  0.923386E-01  0.127318E+00  0.176133E+00  0.239578E+00  0.316554E+00  0.403295E+00
  0.493075E+00  0.577993E+00  0.652157E+00  0.713258E+00  0.761703E+00  0.799032E+00
  0.826949E+00  0.846985E+00  0.860388E+00  0.868069E+00  0.870569E+00  0.868069E+00
  0.860388E+00  0.846985E+00  0.826949E+00  0.799032E+00  0.761703E+00  0.713258E+00
  0.652157E+00  0.560514E+00  0.480079E+00  0.395294E+00  0.313132E+00  0.239578E+00
  0.178127E+00  0.130025E+00  0.948361E-01  0.707981E-01  0.554598E-01  0.465371E-01
  0.424576E-01  0.424576E-01  0.465371E-01  0.554598E-01  0.707981E-01  0.948361E-01
  0.130025E+00  0.178127E+00  0.239578E+00  0.313132E+00  0.395294E+00  0.480079E+00
  0.560514E+00  0.631253E+00  0.689934E+00  0.736608E+00  0.772502E+00  0.799131E+00
  0.817871E+00  0.829785E+00  0.835572E+00  0.835572E+00  0.829785E+00  0.817871E+00
  0.799131E+00  0.772502E+00  0.736608E+00  0.689934E+00  0.631253E+00  0.560514E+00
  0.459218E+00  0.379937E+00  0.303224E+00  0.234262E+00  0.176133E+00  0.130025E+00
  0.957126E-01  0.717654E-01  0.559970E-01  0.462436E-01  0.409461E-01  0.392650E-01
  0.409461E-01  0.462436E-01  0.559970E-01  0.717654E-01  0.957126E-01  0.130025E+00
  0.176133E+00  0.234262E+00  0.303224E+00  0.379937E+00  0.459218E+00  0.534954E+00
  0.602198E+00  0.658420E+00  0.703281E+00  0.737684E+00  0.762906E+00  0.780106E+00
  0.790112E+00  0.793397E+00  0.790112E+00  0.780106E+00  0.762906E+00  0.737684E+00
  0.703281E+00  0.658420E+00  0.602198E+00  0.534954E+00  0.459218E+00  0.358416E+00
  0.287831E+00  0.224264E+00  0.170405E+00  0.127318E+00  0.948361E-01  0.717654E-01
  0.562090E-01  0.461896E-01  0.402011E-01  0.373806E-01  0.373806E-01  0.402011E-01
  0.461896E-01  0.562090E-01  0.717654E-01  0.948361E-01  0.127318E+00  0.170405E+00
  0.224264E+00  0.287831E+00  0.358416E+00  0.431585E+00  0.502036E+00  0.565225E+00
  0.618521E+00  0.661224E+00  0.693853E+00  0.717344E+00  0.732543E+00  0.740010E+00
  0.740010E+00  0.732543E+00  0.717344E+00  0.693853E+00  0.661224E+00  0.618521E+00
  0.565225E+00  0.502036E+00  0.431585E+00  0.358416E+00  0.268374E+00  0.210714E+00
  0.161678E+00  0.122273E+00  0.923386E-01  0.707981E-01  0.559970E-01  0.461896E-01
  0.399832E-01  0.365169E-01  0.353952E-01  0.365169E-01  0.399832E-01  0.461896E-01
  0.559970E-01  0.707981E-01  0.923386E-01  0.122273E+00  0.161678E+00  0.210714E+00
  0.268374E+00  0.332251E+00  0.398564E+00  0.462829E+00  0.521037E+00  0.570593E+00
  0.610475E+00  0.640735E+00  0.661859E+00  0.674329E+00  0.678452E+00  0.674329E+00
  0.661859E+00  0.640735E+00  0.610475E+00  0.570593E+00  0.521037E+00  0.462829E+00
  0.398564E+00  0.332251E+00  0.268374E+00  0.194964E+00  0.151029E+00  0.115623E+00
  0.886433E-01  0.690849E-01  0.554598E-01  0.462436E-01  0.402011E-01  0.365169E-01
  0.347576E-01  0.347576E-01  0.365169E-01  0.402011E-01  0.462436E-01  0.554598E-01
  0.690849E-01  0.886433E-01  0.115623E+00  0.151029E+00  0.194964E+00  0.246393E+00
  0.303102E+00  0.361893E+00  0.419092E+00  0.471310E+00  0.516110E+00  0.552194E+00
  0.579136E+00  0.596964E+00  0.605827E+00  0.605827E+00  0.596964E+00  0.579136E+00
  0.552194E+00  0.516110E+00  0.471310E+00  0.419092E+00  0.361893E+00  0.303102E+00
  0.246393E+00  0.194964E+00  0.139645E+00  0.108348E+00  0.844566E-01  0.670839E-01
  0.548912E-01  0.465371E-01  0.409461E-01  0.373806E-01  0.353952E-01  0.347576E-01
  0.353952E-01  0.373806E-01  0.409461E-01  0.465371E-01  0.548912E-01  0.670839E-01
  0.844566E-01  0.108348E+00  0.139645E+00  0.178353E+00  0.223408E+00  0.272786E+00
  0.323795E+00  0.373444E+00  0.418915E+00  0.457975E+00  0.489174E+00  0.511744E+00
  0.525357E+00  0.529902E+00  0.525357E+00  0.511744E+00  0.489174E+00  0.457975E+00
  0.418915E+00  0.373444E+00  0.323795E+00  0.272786E+00  0.223408E+00  0.178353E+00
  0.139645E+00  0.101444E+00  0.806154E-01  0.654275E-01  0.547408E-01  0.473963E-01
  0.424576E-01  0.392650E-01  0.373806E-01  0.365169E-01  0.365169E-01  0.373806E-01
  0.392650E-01  0.424576E-01  0.473963E-01  0.547408E-01  0.654275E-01  0.806154E-01
  0.101444E+00  0.128641E+00  0.162145E+00  0.200956E+00  0.243278E+00  0.286794E+00
  0.328983E+00  0.367440E+00  0.400179E+00  0.425770E+00  0.443280E+00  0.452164E+00
  0.452164E+00  0.443280E+00  0.425770E+00  0.400179E+00  0.367440E+00  0.328983E+00
  0.286794E+00  0.243278E+00  0.200956E+00  0.162145E+00  0.128641E+00  0.101444E+00
  0.778605E-01  0.647546E-01  0.555232E-01  0.492274E-01  0.450718E-01  0.424576E-01
  0.409461E-01  0.402011E-01  0.399832E-01  0.402011E-01  0.409461E-01  0.424576E-01
  0.450718E-01  0.492274E-01  0.555232E-01  0.647546E-01  0.778605E-01  0.957451E-01
  0.118987E+00  0.147535E+00  0.180547E+00  0.216448E+00  0.253167E+00  0.288456E+00
  0.320222E+00  0.346732E+00  0.366662E+00  0.379039E+00  0.383239E+00  0.379039E+00
  0.366662E+00  0.346732E+00  0.320222E+00  0.288456E+00  0.253167E+00  0.216448E+00
  0.180547E+00  0.147535E+00  0.118987E+00  0.957451E-01  0.778605E-01  0.655740E-01
  0.577323E-01  0.524936E-01  0.492274E-01  0.473963E-01  0.465371E-01  0.462436E-01
  0.461896E-01  0.461896E-01  0.462436E-01  0.465371E-01  0.473963E-01  0.492274E-01
  0.524936E-01  0.577323E-01  0.655740E-01  0.767256E-01  0.918742E-01  0.111490E+00
  0.135569E+00  0.163427E+00  0.193676E+00  0.224427E+00  0.253648E+00  0.279474E+00
  0.300356E+00  0.315061E+00  0.322672E+00  0.322672E+00  0.315061E+00  0.300356E+00
  0.279474E+00  0.253648E+00  0.224427E+00  0.193676E+00  0.163427E+00  0.135569E+00
  0.111490E+00  0.918742E-01  0.767256E-01  0.655740E-01  0.618261E-01  0.577323E-01
  0.555232E-01  0.547408E-01  0.548912E-01  0.554598E-01  0.559970E-01  0.562090E-01
  0.559970E-01  0.554598E-01  0.548912E-01  0.547408E-01  0.555232E-01  0.577323E-01
  0.618261E-01  0.682727E-01  0.775859E-01  0.902865E-01  0.106752E+00  0.126977E+00
  0.150368E+00  0.175696E+00  0.201282E+00  0.225285E+00  0.245980E+00  0.261909E+00
  0.271949E+00  0.275379E+00  0.271949E+00  0.261909E+00  0.245980E+00  0.225285E+00
  0.201282E+00  0.175696E+00  0.150368E+00  0.126977E+00  0.106752E+00  0.902865E-01
  0.775859E-01  0.682727E-01  0.618261E-01  0.655740E-01  0.647546E-01  0.654275E-01
  0.670839E-01  0.690849E-01  0.707981E-01  0.717654E-01  0.717654E-01  0.707981E-01
  0.690849E-01  0.670839E-01  0.654275E-01  0.647546E-01  0.655740E-01  0.682727E-01
  0.732051E-01  0.807574E-01  0.913178E-01  0.105133E+00  0.122110E+00  0.141671E+00
  0.162744E+00  0.183852E+00  0.203313E+00  0.219479E+00  0.230999E+00  0.236971E+00
  0.236971E+00  0.230999E+00  0.219479E+00  0.203313E+00  0.183852E+00  0.162744E+00
  0.141671E+00  0.122110E+00  0.105133E+00  0.913178E-01  0.807574E-01  0.732051E-01
  0.682727E-01  0.655740E-01  0.778605E-01  0.806154E-01  0.844566E-01  0.886433E-01
  0.923386E-01  0.948361E-01  0.957126E-01  0.948361E-01  0.923386E-01  0.886433E-01
  0.844566E-01  0.806154E-01  0.778605E-01  0.767256E-01  0.775859E-01  0.807574E-01
  0.865446E-01  0.951903E-01  0.106752E+00  0.120985E+00  0.137289E+00  0.154692E+00
  0.171875E+00  0.187277E+00  0.199384E+00  0.207057E+00  0.209676E+00  0.207057E+00
  0.199384E+00  0.187277E+00  0.171875E+00  0.154692E+00  0.137289E+00  0.120985E+00
  0.106752E+00  0.951903E-01  0.865446E-01  0.807574E-01  0.775859E-01  0.767256E-01
  0.778605E-01  0.101444E+00  0.108348E+00  0.115623E+00  0.122273E+00  0.127318E+00
  0.130025E+00  0.130025E+00  0.127318E+00  0.122273E+00  0.115623E+00  0.108348E+00
  0.101444E+00  0.957451E-01  0.918742E-01  0.902865E-01  0.913178E-01  0.951903E-01
  0.101967E+00  0.111490E+00  0.123344E+00  0.136850E+00  0.151066E+00  0.164771E+00
  0.176571E+00  0.185174E+00  0.189685E+00  0.189685E+00  0.185174E+00  0.176571E+00
  0.164771E+00  0.151066E+00  0.136850E+00  0.123344E+00  0.111490E+00  0.101967E+00
  0.951903E-01  0.913178E-01  0.902865E-01  0.918742E-01  0.957451E-01  0.101444E+00
  0.139645E+00  0.151029E+00  0.161678E+00  0.170405E+00  0.176133E+00  0.178127E+00
  0.176133E+00  0.170405E+00  0.161678E+00  0.151029E+00  0.139645E+00  0.128641E+00
  0.118987E+00  0.111490E+00  0.106752E+00  0.105133E+00  0.106752E+00  0.111490E+00
  0.118987E+00  0.128641E+00  0.139645E+00  0.151029E+00  0.161678E+00  0.170405E+00
  0.176133E+00  0.178127E+00  0.176133E+00  0.170405E+00  0.161678E+00  0.151029E+00
  0.139645E+00  0.128641E+00  0.118987E+00  0.111490E+00  0.106752E+00  0.105133E+00
  0.106752E+00  0.111490E+00  0.118987E+00  0.128641E+00  0.139645E+00  0.194964E+00
  0.210714E+00  0.224264E+00  0.234262E+00  0.239578E+00  0.239578E+00  0.234262E+00
  0.224264E+00  0.210714E+00  0.194964E+00  0.178353E+00  0.162145E+00  0.147535E+00
  0.135569E+00  0.126977E+00  0.122110E+00  0.120985E+00  0.123344E+00  0.128641E+00
  0.136077E+00  0.144694E+00  0.153497E+00  0.161478E+00  0.167611E+00  0.170962E+00
  0.170962E+00  0.167611E+00  0.161478E+00  0.153497E+00  0.144694E+00  0.136077E+00
  0.128641E+00  0.123344E+00  0.120985E+00  0.122110E+00  0.126977E+00  0.135569E+00
  0.147535E+00  0.162145E+00  0.178353E+00  0.194964E+00  0.268374E+00  0.287831E+00
  0.303224E+00  0.313132E+00  0.316554E+00  0.313132E+00  0.303224E+00  0.287831E+00
  0.268374E+00  0.246393E+00  0.223408E+00  0.200956E+00  0.180547E+00  0.163427E+00
  0.150368E+00  0.141671E+00  0.137289E+00  0.136850E+00  0.139645E+00  0.144694E+00
  0.150922E+00  0.157302E+00  0.162867E+00  0.166701E+00  0.168074E+00  0.166701E+00
  0.162867E+00  0.157302E+00  0.150922E+00  0.144694E+00  0.139645E+00  0.136850E+00
  0.137289E+00  0.141671E+00  0.150368E+00  0.163427E+00  0.180547E+00  0.200956E+00
  0.223408E+00  0.246393E+00  0.268374E+00  0.358416E+00  0.379937E+00  0.395294E+00
  0.403295E+00  0.403295E+00  0.395294E+00  0.379937E+00  0.358416E+00  0.332251E+00
  0.303102E+00  0.272786E+00  0.243278E+00  0.216448E+00  0.193676E+00  0.175696E+00
  0.162744E+00  0.154692E+00  0.151066E+00  0.151029E+00  0.153497E+00  0.157302E+00
  0.161323E+00  0.164596E+00  0.166420E+00  0.166420E+00  0.164596E+00  0.161323E+00
  0.157302E+00  0.153497E+00  0.151029E+00  0.151066E+00  0.154692E+00  0.162744E+00
  0.175696E+00  0.193676E+00  0.216448E+00  0.243278E+00  0.272786E+00  0.303102E+00
  0.332251E+00  0.358416E+00  0.459218E+00  0.480079E+00  0.493075E+00  0.497490E+00
  0.493075E+00  0.480079E+00  0.459218E+00  0.431585E+00  0.398564E+00  0.361893E+00
  0.323795E+00  0.286794E+00  0.253167E+00  0.224427E+00  0.201282E+00  0.183852E+00
  0.171875E+00  0.164771E+00  0.161678E+00  0.161478E+00  0.162867E+00  0.164596E+00
  0.165832E+00  0.166259E+00  0.165832E+00  0.164596E+00  0.162867E+00  0.161478E+00
  0.161678E+00  0.164771E+00  0.171875E+00  0.183852E+00  0.201282E+00  0.224427E+00
  0.253167E+00  0.286794E+00  0.323795E+00  0.361893E+00  0.398564E+00  0.431585E+00
  0.459218E+00  0.560514E+00  0.577993E+00  0.586874E+00  0.586874E+00  0.577993E+00
  0.560514E+00  0.534954E+00  0.502036E+00  0.462829E+00  0.419092E+00  0.373444E+00
  0.328983E+00  0.288456E+00  0.253648E+00  0.225285E+00  0.203313E+00  0.187277E+00
  0.176571E+00  0.170405E+00  0.167611E+00  0.166701E+00  0.166420E+00  0.166259E+00
  0.166259E+00  0.166420E+00  0.166701E+00  0.167611E+00  0.170405E+00  0.176571E+00
  0.187277E+00  0.203313E+00  0.225285E+00  0.253648E+00  0.288456E+00  0.328983E+00
  0.373444E+00  0.419092E+00  0.462829E+00  0.502036E+00  0.534954E+00  0.560514E+00
  0.652157E+00  0.664777E+00  0.668999E+00  0.664777E+00  0.652157E+00  0.631253E+00
  0.602198E+00  0.565225E+00  0.521037E+00  0.471310E+00  0.418915E+00  0.367440E+00
  0.320222E+00  0.279474E+00  0.245980E+00  0.219479E+00  0.199384E+00  0.185174E+00
  0.176133E+00  0.170962E+00  0.168074E+00  0.166420E+00  0.165832E+00  0.166420E+00
  0.168074E+00  0.170962E+00  0.176133E+00  0.185174E+00  0.199384E+00  0.219479E+00
  0.245980E+00  0.279474E+00  0.320222E+00  0.367440E+00  0.418915E+00  0.471310E+00
  0.521037E+00  0.565225E+00  0.602198E+00  0.631253E+00  0.652157E+00  0.728674E+00
  0.736349E+00  0.736349E+00  0.728674E+00  0.713258E+00  0.689934E+00  0.658420E+00
  0.618521E+00  0.570593E+00  0.516110E+00  0.457975E+00  0.400179E+00  0.346732E+00
  0.300356E+00  0.261909E+00  0.230999E+00  0.207057E+00  0.189685E+00  0.178127E+00
  0.170962E+00  0.166701E+00  0.164596E+00  0.164596E+00  0.166701E+00  0.170962E+00
  0.178127E+00  0.189685E+00  0.207057E+00  0.230999E+00  0.261909E+00  0.300356E+00
  0.346732E+00  0.400179E+00  0.457975E+00  0.516110E+00  0.570593E+00  0.618521E+00
  0.658420E+00  0.689934E+00  0.713258E+00  0.728674E+00  0.789479E+00  0.792887E+00
  0.789479E+00  0.779172E+00  0.761703E+00  0.736608E+00  0.703281E+00  0.661224E+00
  0.610475E+00  0.552194E+00  0.489174E+00  0.425770E+00  0.366662E+00  0.315061E+00
  0.271949E+00  0.236971E+00  0.209676E+00  0.189685E+00  0.176133E+00  0.167611E+00
  0.162867E+00  0.161323E+00  0.162867E+00  0.167611E+00  0.176133E+00  0.189685E+00
  0.209676E+00  0.236971E+00  0.271949E+00  0.315061E+00  0.366662E+00  0.425770E+00
  0.489174E+00  0.552194E+00  0.610475E+00  0.661224E+00  0.703281E+00  0.736608E+00
  0.761703E+00  0.779172E+00  0.789479E+00  0.836424E+00  0.836424E+00  0.830395E+00
  0.818094E+00  0.799032E+00  0.772502E+00  0.737684E+00  0.693853E+00  0.640735E+00
  0.579136E+00  0.511744E+00  0.443280E+00  0.379039E+00  0.322672E+00  0.275379E+00
  0.236971E+00  0.207057E+00  0.185174E+00  0.170405E+00  0.161478E+00  0.157302E+00
  0.157302E+00  0.161478E+00  0.170405E+00  0.185174E+00  0.207057E+00  0.236971E+00
  0.275379E+00  0.322672E+00  0.379039E+00  0.443280E+00  0.511744E+00  0.579136E+00
  0.640735E+00  0.693853E+00  0.737684E+00  0.772502E+00  0.799032E+00  0.818094E+00
  0.830395E+00  0.836424E+00  0.871845E+00  0.869220E+00  0.861197E+00  0.847340E+00
  0.826949E+00  0.799131E+00  0.762906E+00  0.717344E+00  0.661859E+00  0.596964E+00
  0.525357E+00  0.452164E+00  0.383239E+00  0.322672E+00  0.271949E+00  0.230999E+00
  0.199384E+00  0.176571E+00  0.161678E+00  0.153497E+00  0.150922E+00  0.153497E+00
  0.161678E+00  0.176571E+00  0.199384E+00  0.230999E+00  0.271949E+00  0.322672E+00
  0.383239E+00  0.452164E+00  0.525357E+00  0.596964E+00  0.661859E+00  0.717344E+00
  0.762906E+00  0.799131E+00  0.826949E+00  0.847340E+00  0.861197E+00  0.869220E+00
  0.871845E+00  0.897899E+00  0.893280E+00  0.883720E+00  0.868584E+00  0.846985E+00
  0.817871E+00  0.780106E+00  0.732543E+00  0.674329E+00  0.605827E+00  0.529902E+00
  0.452164E+00  0.379039E+00  0.315061E+00  0.261909E+00  0.219479E+00  0.187277E+00
  0.164771E+00  0.151029E+00  0.144694E+00  0.144694E+00  0.151029E+00  0.164771E+00
  0.187277E+00  0.219479E+00  0.261909E+00  0.315061E+00  0.379039E+00  0.452164E+00
  0.529902E+00  0.605827E+00  0.674329E+00  0.732543E+00  0.780106E+00  0.817871E+00
  0.846985E+00  0.868584E+00  0.883720E+00  0.893280E+00  0.897899E+00  0.897899E+00
  0.916503E+00  0.910350E+00  0.899533E+00  0.883233E+00  0.860388E+00  0.829785E+00
  0.790112E+00  0.740010E+00  0.678452E+00  0.605827E+00  0.525357E+00  0.443280E+00
  0.366662E+00  0.300356E+00  0.245980E+00  0.203313E+00  0.171875E+00  0.151066E+00
  0.139645E+00  0.136077E+00  0.139645E+00  0.151066E+00  0.171875E+00  0.203313E+00
  0.245980E+00  0.300356E+00  0.366662E+00  0.443280E+00  0.525357E+00  0.605827E+00
  0.678452E+00  0.740010E+00  0.790112E+00  0.829785E+00  0.860388E+00  0.883233E+00
  0.899533E+00  0.910350E+00  0.916503E+00  0.918498E+00  0.916503E+00  0.929303E+00
  0.921888E+00  0.909914E+00  0.892386E+00  0.868069E+00  0.835572E+00  0.793397E+00
  0.740010E+00  0.674329E+00  0.596964E+00  0.511744E+00  0.425770E+00  0.346732E+00
  0.279474E+00  0.225285E+00  0.183852E+00  0.154692E+00  0.136850E+00  0.128641E+00
  0.128641E+00  0.136850E+00  0.154692E+00  0.183852E+00  0.225285E+00  0.279474E+00
  0.346732E+00  0.425770E+00  0.511744E+00  0.596964E+00  0.674329E+00  0.740010E+00
  0.793397E+00  0.835572E+00  0.868069E+00  0.892386E+00  0.909914E+00  0.921888E+00
  0.929303E+00  0.932840E+00  0.932840E+00  0.929303E+00  0.937586E+00  0.928995E+00
  0.915783E+00  0.896781E+00  0.870569E+00  0.835572E+00  0.790112E+00  0.732543E+00
  0.661859E+00  0.579136E+00  0.489174E+00  0.400179E+00  0.320222E+00  0.253648E+00
  0.201282E+00  0.162744E+00  0.137289E+00  0.123344E+00  0.118987E+00  0.123344E+00
  0.137289E+00  0.162744E+00  0.201282E+00  0.253648E+00  0.320222E+00  0.400179E+00
  0.489174E+00  0.579136E+00  0.661859E+00  0.732543E+00  0.790112E+00  0.835572E+00
  0.870569E+00  0.896781E+00  0.915783E+00  0.928995E+00  0.937586E+00  0.942406E+00
  0.943957E+00  0.942406E+00  0.937586E+00  0.942229E+00  0.932379E+00  0.917681E+00
  0.896781E+00  0.868069E+00  0.829785E+00  0.780106E+00  0.717344E+00  0.640735E+00
  0.552194E+00  0.457975E+00  0.367440E+00  0.288456E+00  0.224427E+00  0.175696E+00
  0.141671E+00  0.120985E+00  0.111490E+00  0.111490E+00  0.120985E+00  0.141671E+00
  0.175696E+00  0.224427E+00  0.288456E+00  0.367440E+00  0.457975E+00  0.552194E+00
  0.640735E+00  0.717344E+00  0.780106E+00  0.829785E+00  0.868069E+00  0.896781E+00
  0.917681E+00  0.932379E+00  0.942229E+00  0.948250E+00  0.951102E+00  0.951102E+00
  0.948250E+00  0.942229E+00  0.943725E+00  0.932379E+00  0.915783E+00  0.892386E+00
  0.860388E+00  0.817871E+00  0.762906E+00  0.693853E+00  0.610475E+00  0.516110E+00
  0.418915E+00  0.328983E+00  0.253167E+00  0.193676E+00  0.150368E+00  0.122110E+00
  0.106752E+00  0.101967E+00  0.106752E+00  0.122110E+00  0.150368E+00  0.193676E+00
  0.253167E+00  0.328983E+00  0.418915E+00  0.516110E+00  0.610475E+00  0.693853E+00
  0.762906E+00  0.817871E+00  0.860388E+00  0.892386E+00  0.915783E+00  0.932379E+00
  0.943725E+00  0.951023E+00  0.955093E+00  0.956400E+00  0.955093E+00  0.951023E+00
  0.943725E+00  0.942229E+00  0.928995E+00  0.909914E+00  0.883233E+00  0.846985E+00
  0.799131E+00  0.737684E+00  0.661224E+00  0.570593E+00  0.471310E+00  0.373444E+00
  0.286794E+00  0.216448E+00  0.163427E+00  0.126977E+00  0.105133E+00  0.951903E-01
  0.951903E-01  0.105133E+00  0.126977E+00  0.163427E+00  0.216448E+00  0.286794E+00
  0.373444E+00  0.471310E+00  0.570593E+00  0.661224E+00  0.737684E+00  0.799131E+00
  0.846985E+00  0.883233E+00  0.909914E+00  0.928995E+00  0.942229E+00  0.951023E+00
  0.956378E+00  0.958910E+00  0.958910E+00  0.956378E+00  0.951023E+00  0.942229E+00
  0.937586E+00  0.921888E+00  0.899533E+00  0.868584E+00  0.826949E+00  0.772502E+00
  0.703281E+00  0.618521E+00  0.521037E+00  0.419092E+00  0.323795E+00  0.243278E+00
  0.180547E+00  0.135569E+00  0.106752E+00  0.913178E-01  0.865446E-01  0.913178E-01
  0.106752E+00  0.135569E+00  0.180547E+00  0.243278E+00  0.323795E+00  0.419092E+00
  0.521037E+00  0.618521E+00  0.703281E+00  0.772502E+00  0.826949E+00  0.868584E+00
  0.899533E+00  0.921888E+00  0.937586E+00  0.948250E+00  0.955093E+00  0.958910E+00
  0.960136E+00  0.958910E+00  0.955093E+00  0.948250E+00  0.937586E+00  0.929303E+00
  0.910350E+00  0.883720E+00  0.847340E+00  0.799032E+00  0.736608E+00  0.658420E+00
  0.565225E+00  0.462829E+00  0.361893E+00  0.272786E+00  0.200956E+00  0.147535E+00
  0.111490E+00  0.902865E-01  0.807574E-01  0.807574E-01  0.902865E-01  0.111490E+00
  0.147535E+00  0.200956E+00  0.272786E+00  0.361893E+00  0.462829E+00  0.565225E+00
  0.658420E+00  0.736608E+00  0.799032E+00  0.847340E+00  0.883720E+00  0.910350E+00
  0.929303E+00  0.942406E+00  0.951102E+00  0.956400E+00  0.958910E+00  0.958910E+00
  0.956400E+00  0.951102E+00  0.942406E+00  0.929303E+00  0.916503E+00  0.893280E+00
  0.861197E+00  0.818094E+00  0.761703E+00  0.689934E+00  0.602198E+00  0.502036E+00
  0.398564E+00  0.303102E+00  0.223408E+00  0.162145E+00  0.118987E+00  0.918742E-01
  0.775859E-01  0.732051E-01  0.775859E-01  0.918742E-01  0.118987E+00  0.162145E+00
  0.223408E+00  0.303102E+00  0.398564E+00  0.502036E+00  0.602198E+00  0.689934E+00
  0.761703E+00  0.818094E+00  0.861197E+00  0.893280E+00  0.916503E+00  0.932840E+00
  0.943957E+00  0.951102E+00  0.955093E+00  0.956378E+00  0.955093E+00  0.951102E+00
  0.943957E+00  0.932840E+00  0.916503E+00  0.897899E+00  0.869220E+00  0.830395E+00
  0.779172E+00  0.713258E+00  0.631253E+00  0.534954E+00  0.431585E+00  0.332251E+00
  0.246393E+00  0.178353E+00  0.128641E+00  0.957451E-01  0.767256E-01  0.682727E-01
  0.682727E-01  0.767256E-01  0.957451E-01  0.128641E+00  0.178353E+00  0.246393E+00
  0.332251E+00  0.431585E+00  0.534954E+00  0.631253E+00  0.713258E+00  0.779172E+00
  0.830395E+00  0.869220E+00  0.897899E+00  0.918498E+00  0.932840E+00  0.942406E+00
  0.948250E+00  0.951023E+00  0.951023E+00  0.948250E+00  0.942406E+00  0.932840E+00
  0.918498E+00  0.897899E+00  0.871845E+00  0.836424E+00  0.789479E+00  0.728674E+00
  0.652157E+00  0.560514E+00  0.459218E+00  0.358416E+00  0.268374E+00  0.194964E+00
  0.139645E+00  0.101444E+00  0.778605E-01  0.655740E-01  0.618261E-01  0.655740E-01
  0.778605E-01  0.101444E+00  0.139645E+00  0.194964E+00  0.268374E+00  0.358416E+00
  0.459218E+00  0.560514E+00  0.652157E+00  0.728674E+00  0.789479E+00  0.836424E+00
  0.871845E+00  0.897899E+00  0.916503E+00  0.929303E+00  0.937586E+00  0.942229E+00
  0.943725E+00  0.942229E+00  0.937586E+00  0.929303E+00  0.916503E+00  0.897899E+00
  0.871845E+00  0.847178E+00  0.803188E+00  0.745330E+00  0.671757E+00  0.583011E+00
  0.483816E+00  0.382801E+00  0.289519E+00  0.211179E+00  0.151066E+00  0.108730E+00
  0.813843E-01  0.655740E-01  0.584434E-01  0.584434E-01  0.655740E-01  0.813843E-01
  0.108730E+00  0.151066E+00  0.211179E+00  0.289519E+00  0.382801E+00  0.483816E+00
  0.583011E+00  0.671757E+00  0.745330E+00  0.803188E+00  0.847178E+00  0.879791E+00
  0.903363E+00  0.919885E+00  0.930951E+00  0.937725E+00  0.940938E+00  0.940938E+00
  0.937725E+00  0.930951E+00  0.919885E+00  0.903363E+00  0.879791E+00  0.847178E+00
  0.803188E+00  0.749190E+00  0.680319E+00  0.596559E+00  0.501562E+00  0.402850E+00
  0.309412E+00  0.228664E+00  0.164771E+00  0.118317E+00  0.871398E-01  0.679457E-01
  0.577323E-01  0.545480E-01  0.577323E-01  0.679457E-01  0.871398E-01  0.118317E+00
  0.164771E+00  0.228664E+00  0.309412E+00  0.402850E+00  0.501562E+00  0.596559E+00
  0.680319E+00  0.749190E+00  0.803188E+00  0.844211E+00  0.874590E+00  0.896472E+00
  0.911660E+00  0.921554E+00  0.927124E+00  0.928921E+00  0.927124E+00  0.921554E+00
  0.911660E+00  0.896472E+00  0.874590E+00  0.844211E+00  0.803188E+00  0.745330E+00
  0.680319E+00  0.601064E+00  0.510505E+00  0.415208E+00  0.323448E+00  0.242401E+00
  0.176571E+00  0.127329E+00  0.932255E-01  0.712556E-01  0.583947E-01  0.524936E-01
  0.524936E-01  0.583947E-01  0.712556E-01  0.932255E-01  0.127329E+00  0.176571E+00
  0.242401E+00  0.323448E+00  0.415208E+00  0.510505E+00  0.601064E+00  0.680319E+00
  0.745330E+00  0.796329E+00  0.835101E+00  0.863779E+00  0.884327E+00  0.898358E+00
  0.907074E+00  0.911247E+00  0.911247E+00  0.907074E+00  0.898358E+00  0.884327E+00
  0.863779E+00  0.835101E+00  0.796329E+00  0.745330E+00  0.671757E+00  0.596559E+00
  0.510505E+00  0.419363E+00  0.330651E+00  0.251103E+00  0.185174E+00  0.134650E+00
  0.987199E-01  0.747895E-01  0.598989E-01  0.517974E-01  0.492274E-01  0.517974E-01
  0.598989E-01  0.747895E-01  0.987199E-01  0.134650E+00  0.185174E+00  0.251103E+00
  0.330651E+00  0.419363E+00  0.510505E+00  0.596559E+00  0.671757E+00  0.733578E+00
  0.782219E+00  0.819245E+00  0.846574E+00  0.865971E+00  0.878847E+00  0.886192E+00
  0.888578E+00  0.886192E+00  0.878847E+00  0.865971E+00  0.846574E+00  0.819245E+00
  0.782219E+00  0.733578E+00  0.671757E+00  0.583011E+00  0.501562E+00  0.415208E+00
  0.330651E+00  0.254071E+00  0.189685E+00  0.139386E+00  0.102802E+00  0.778040E-01
  0.616181E-01  0.519413E-01  0.473963E-01  0.473963E-01  0.519413E-01  0.616181E-01
  0.778040E-01  0.102802E+00  0.139386E+00  0.189685E+00  0.254071E+00  0.330651E+00
  0.415208E+00  0.501562E+00  0.583011E+00  0.654443E+00  0.713501E+00  0.760179E+00
  0.795758E+00  0.821904E+00  0.840153E+00  0.851685E+00  0.857267E+00  0.857267E+00
  0.851685E+00  0.840153E+00  0.821904E+00  0.795758E+00  0.760179E+00  0.713501E+00
  0.654443E+00  0.583011E+00  0.483816E+00  0.402850E+00  0.323448E+00  0.251103E+00
  0.189685E+00  0.141018E+00  0.104952E+00  0.797680E-01  0.630070E-01  0.524217E-01
  0.465371E-01  0.446415E-01  0.465371E-01  0.524217E-01  0.630070E-01  0.797680E-01
  0.104952E+00  0.141018E+00  0.189685E+00  0.251103E+00  0.323448E+00  0.402850E+00
  0.483816E+00  0.560470E+00  0.628195E+00  0.684617E+00  0.729441E+00  0.763623E+00
  0.788535E+00  0.805428E+00  0.815211E+00  0.818415E+00  0.815211E+00  0.805428E+00
  0.788535E+00  0.763623E+00  0.729441E+00  0.684617E+00  0.628195E+00  0.560470E+00
  0.483816E+00  0.382801E+00  0.309412E+00  0.242401E+00  0.185174E+00  0.139386E+00
  0.104952E+00  0.804409E-01  0.637526E-01  0.528488E-01  0.462436E-01  0.431068E-01
  0.431068E-01  0.462436E-01  0.528488E-01  0.637526E-01  0.804409E-01  0.104952E+00
  0.139386E+00  0.185174E+00  0.242401E+00  0.309412E+00  0.382801E+00  0.457827E+00
  0.529349E+00  0.593101E+00  0.646636E+00  0.689370E+00  0.721908E+00  0.745250E+00
  0.760302E+00  0.767678E+00  0.767678E+00  0.760302E+00  0.745250E+00  0.721908E+00
  0.689370E+00  0.646636E+00  0.593101E+00  0.529349E+00  0.457827E+00  0.382801E+00
  0.289519E+00  0.228664E+00  0.176571E+00  0.134650E+00  0.102802E+00  0.797680E-01
  0.637526E-01  0.530109E-01  0.461896E-01  0.424063E-01  0.411925E-01  0.424063E-01
  0.461896E-01  0.530109E-01  0.637526E-01  0.797680E-01  0.102802E+00  0.134650E+00
  0.176571E+00  0.228664E+00  0.289519E+00  0.356242E+00  0.424778E+00  0.490587E+00
  0.549718E+00  0.599719E+00  0.639758E+00  0.670036E+00  0.691126E+00  0.703554E+00
  0.707659E+00  0.703554E+00  0.691126E+00  0.670036E+00  0.639758E+00  0.599719E+00
  0.549718E+00  0.490587E+00  0.424778E+00  0.356242E+00  0.289519E+00  0.211179E+00
  0.164771E+00  0.127329E+00  0.987199E-01  0.778040E-01  0.630070E-01  0.528488E-01
  0.461896E-01  0.422173E-01  0.403780E-01  0.403780E-01  0.422173E-01  0.461896E-01
  0.528488E-01  0.630070E-01  0.778040E-01  0.987199E-01  0.127329E+00  0.164771E+00
  0.211179E+00  0.265392E+00  0.324964E+00  0.386391E+00  0.445675E+00  0.499257E+00
  0.544784E+00  0.581188E+00  0.608249E+00  0.626109E+00  0.634974E+00  0.634974E+00
  0.626109E+00  0.608249E+00  0.581188E+00  0.544784E+00  0.499257E+00  0.445675E+00
  0.386391E+00  0.324964E+00  0.265392E+00  0.211179E+00  0.151066E+00  0.118317E+00
  0.932255E-01  0.747895E-01  0.616181E-01  0.524217E-01  0.462436E-01  0.424063E-01
  0.403780E-01  0.397553E-01  0.403780E-01  0.424063E-01  0.462436E-01  0.524217E-01
  0.616181E-01  0.747895E-01  0.932255E-01  0.118317E+00  0.151066E+00  0.191606E+00
  0.238960E+00  0.291019E+00  0.344747E+00  0.396706E+00  0.443801E+00  0.483824E+00
  0.515507E+00  0.538271E+00  0.551933E+00  0.556482E+00  0.551933E+00  0.538271E+00
  0.515507E+00  0.483824E+00  0.443801E+00  0.396706E+00  0.344747E+00  0.291019E+00
  0.238960E+00  0.191606E+00  0.151066E+00  0.108730E+00  0.871398E-01  0.712556E-01
  0.598989E-01  0.519413E-01  0.465371E-01  0.431068E-01  0.411925E-01  0.403780E-01
  0.403780E-01  0.411925E-01  0.431068E-01  0.465371E-01  0.519413E-01  0.598989E-01
  0.712556E-01  0.871398E-01  0.108730E+00  0.136850E+00  0.171589E+00  0.212083E+00
  0.256494E+00  0.302226E+00  0.346390E+00  0.386346E+00  0.420053E+00  0.446147E+00
  0.463843E+00  0.472759E+00  0.472759E+00  0.463843E+00  0.446147E+00  0.420053E+00
  0.386346E+00  0.346390E+00  0.302226E+00  0.256494E+00  0.212083E+00  0.171589E+00
  0.136850E+00  0.108730E+00  0.813843E-01  0.679457E-01  0.583947E-01  0.517974E-01
  0.473963E-01  0.446415E-01  0.431068E-01  0.424063E-01  0.422173E-01  0.424063E-01
  0.431068E-01  0.446415E-01  0.473963E-01  0.517974E-01  0.583947E-01  0.679457E-01
  0.813843E-01  0.996392E-01  0.123344E+00  0.152530E+00  0.186427E+00  0.223437E+00
  0.261358E+00  0.297772E+00  0.330442E+00  0.357555E+00  0.377787E+00  0.390259E+00
  0.394471E+00  0.390259E+00  0.377787E+00  0.357555E+00  0.330442E+00  0.297772E+00
  0.261358E+00  0.223437E+00  0.186427E+00  0.152530E+00  0.123344E+00  0.996392E-01
  0.813843E-01  0.655740E-01  0.577323E-01  0.524936E-01  0.492274E-01  0.473963E-01
  0.465371E-01  0.462436E-01  0.461896E-01  0.461896E-01  0.462436E-01  0.465371E-01
  0.473963E-01  0.492274E-01  0.524936E-01  0.577323E-01  0.655740E-01  0.767256E-01
  0.918742E-01  0.111490E+00  0.135569E+00  0.163427E+00  0.193676E+00  0.224427E+00
  0.253648E+00  0.279474E+00  0.300356E+00  0.315061E+00  0.322672E+00  0.322672E+00
  0.315061E+00  0.300356E+00  0.279474E+00  0.253648E+00  0.224427E+00  0.193676E+00
  0.163427E+00  0.135569E+00  0.111490E+00  0.918742E-01  0.767256E-01  0.655740E-01
  0.584434E-01  0.545480E-01  0.524936E-01  0.517974E-01  0.519413E-01  0.524217E-01
  0.528488E-01  0.530109E-01  0.528488E-01  0.524217E-01  0.519413E-01  0.517974E-01
  0.524936E-01  0.545480E-01  0.584434E-01  0.646514E-01  0.736695E-01  0.859928E-01
  0.101967E+00  0.121557E+00  0.144150E+00  0.168522E+00  0.193044E+00  0.216009E+00
  0.235866E+00  0.251278E+00  0.261101E+00  0.264484E+00  0.261101E+00  0.251278E+00
  0.235866E+00  0.216009E+00  0.193044E+00  0.168522E+00  0.144150E+00  0.121557E+00
  0.101967E+00  0.859928E-01  0.736695E-01  0.646514E-01  0.584434E-01  0.584434E-01
  0.577323E-01  0.583947E-01  0.598989E-01  0.616181E-01  0.630070E-01  0.637526E-01
  0.637526E-01  0.630070E-01  0.616181E-01  0.598989E-01  0.583947E-01  0.577323E-01
  0.584434E-01  0.609224E-01  0.654989E-01  0.725193E-01  0.823387E-01  0.951903E-01
  0.110986E+00  0.129151E+00  0.148609E+00  0.167962E+00  0.185748E+00  0.200622E+00
  0.211393E+00  0.217075E+00  0.217075E+00  0.211393E+00  0.200622E+00  0.185748E+00
  0.167962E+00  0.148609E+00  0.129151E+00  0.110986E+00  0.951903E-01  0.823387E-01
  0.725193E-01  0.654989E-01  0.609224E-01  0.584434E-01  0.655740E-01  0.679457E-01
  0.712556E-01  0.747895E-01  0.778040E-01  0.797680E-01  0.804409E-01  0.797680E-01
  0.778040E-01  0.747895E-01  0.712556E-01  0.679457E-01  0.655740E-01  0.646514E-01
  0.654989E-01  0.683597E-01  0.734825E-01  0.811002E-01  0.913178E-01  0.103967E+00
  0.118495E+00  0.133960E+00  0.149139E+00  0.162718E+00  0.173474E+00  0.180393E+00
  0.182783E+00  0.180393E+00  0.173474E+00  0.162718E+00  0.149139E+00  0.133960E+00
  0.118495E+00  0.103967E+00  0.913178E-01  0.811002E-01  0.734825E-01  0.683597E-01
  0.654989E-01  0.646514E-01  0.655740E-01  0.813843E-01  0.871398E-01  0.932255E-01
  0.987199E-01  0.102802E+00  0.104952E+00  0.104952E+00  0.102802E+00  0.987199E-01
  0.932255E-01  0.871398E-01  0.813843E-01  0.767256E-01  0.736695E-01  0.725193E-01
  0.734825E-01  0.767236E-01  0.823387E-01  0.902865E-01  0.100311E+00  0.111875E+00
  0.124122E+00  0.135927E+00  0.146065E+00  0.153454E+00  0.157337E+00  0.157337E+00
  0.153454E+00  0.146065E+00  0.135927E+00  0.124122E+00  0.111875E+00  0.100311E+00
  0.902865E-01  0.823387E-01  0.767236E-01  0.734825E-01  0.725193E-01  0.736695E-01
  0.767256E-01  0.813843E-01  0.108730E+00  0.118317E+00  0.127329E+00  0.134650E+00
  0.139386E+00  0.141018E+00  0.139386E+00  0.134650E+00  0.127329E+00  0.118317E+00
  0.108730E+00  0.996392E-01  0.918742E-01  0.859928E-01  0.823387E-01  0.811002E-01
  0.823387E-01  0.859928E-01  0.918742E-01  0.996392E-01  0.108730E+00  0.118317E+00
  0.127329E+00  0.134650E+00  0.139386E+00  0.141018E+00  0.139386E+00  0.134650E+00
  0.127329E+00  0.118317E+00  0.108730E+00  0.996392E-01  0.918742E-01  0.859928E-01
  0.823387E-01  0.811002E-01  0.823387E-01  0.859928E-01  0.918742E-01  0.996392E-01
  0.108730E+00  0.151066E+00  0.164771E+00  0.176571E+00  0.185174E+00  0.189685E+00
  0.189685E+00  0.185174E+00  0.176571E+00  0.164771E+00  0.151066E+00  0.136850E+00
  0.123344E+00  0.111490E+00  0.101967E+00  0.951903E-01  0.913178E-01  0.902865E-01
  0.918742E-01  0.957451E-01  0.101444E+00  0.108348E+00  0.115623E+00  0.122273E+00
  0.127318E+00  0.130025E+00  0.130025E+00  0.127318E+00  0.122273E+00  0.115623E+00
  0.108348E+00  0.101444E+00  0.957451E-01  0.918742E-01  0.902865E-01  0.913178E-01
  0.951903E-01  0.101967E+00  0.111490E+00  0.123344E+00  0.136850E+00  0.151066E+00
  0.211179E+00  0.228664E+00  0.242401E+00  0.251103E+00  0.254071E+00  0.251103E+00
  0.242401E+00  0.228664E+00  0.211179E+00  0.191606E+00  0.171589E+00  0.152530E+00
  0.135569E+00  0.121557E+00  0.110986E+00  0.103967E+00  0.100311E+00  0.996392E-01
  0.101444E+00  0.105121E+00  0.109963E+00  0.115149E+00  0.119777E+00  0.122979E+00
  0.124123E+00  0.122979E+00  0.119777E+00  0.115149E+00  0.109963E+00  0.105121E+00
  0.101444E+00  0.996392E-01  0.100311E+00  0.103967E+00  0.110986E+00  0.121557E+00
  0.135569E+00  0.152530E+00  0.171589E+00  0.191606E+00  0.211179E+00  0.289519E+00
  0.309412E+00  0.323448E+00  0.330651E+00  0.330651E+00  0.323448E+00  0.309412E+00
  0.289519E+00  0.265392E+00  0.238960E+00  0.212083E+00  0.186427E+00  0.163427E+00
  0.144150E+00  0.129151E+00  0.118495E+00  0.111875E+00  0.108730E+00  0.108348E+00
  0.109963E+00  0.112804E+00  0.116081E+00  0.118956E+00  0.120643E+00  0.120643E+00
  0.118956E+00  0.116081E+00  0.112804E+00  0.109963E+00  0.108348E+00  0.108730E+00
  0.111875E+00  0.118495E+00  0.129151E+00  0.144150E+00  0.163427E+00  0.186427E+00
  0.212083E+00  0.238960E+00  0.265392E+00  0.289519E+00  0.382801E+00  0.402850E+00
  0.415208E+00  0.419363E+00  0.415208E+00  0.402850E+00  0.382801E+00  0.356242E+00
  0.324964E+00  0.291019E+00  0.256494E+00  0.223437E+00  0.193676E+00  0.168522E+00
  0.148609E+00  0.133960E+00  0.124122E+00  0.118317E+00  0.115623E+00  0.115149E+00
  0.116081E+00  0.117626E+00  0.118992E+00  0.119534E+00  0.118992E+00  0.117626E+00
  0.116081E+00  0.115149E+00  0.115623E+00  0.118317E+00  0.124122E+00  0.133960E+00
  0.148609E+00  0.168522E+00  0.193676E+00  0.223437E+00  0.256494E+00  0.291019E+00
  0.324964E+00  0.356242E+00  0.382801E+00  0.483816E+00  0.501562E+00  0.510505E+00
  0.510505E+00  0.501562E+00  0.483816E+00  0.457827E+00  0.424778E+00  0.386391E+00
  0.344747E+00  0.302226E+00  0.261358E+00  0.224427E+00  0.193044E+00  0.167962E+00
  0.149139E+00  0.135927E+00  0.127329E+00  0.122273E+00  0.119777E+00  0.118956E+00
  0.118992E+00  0.119207E+00  0.119207E+00  0.118992E+00  0.118956E+00  0.119777E+00
  0.122273E+00  0.127329E+00  0.135927E+00  0.149139E+00  0.167962E+00  0.193044E+00
  0.224427E+00  0.261358E+00  0.302226E+00  0.344747E+00  0.386391E+00  0.424778E+00
  0.457827E+00  0.483816E+00  0.583011E+00  0.596559E+00  0.601064E+00  0.596559E+00
  0.583011E+00  0.560470E+00  0.529349E+00  0.490587E+00  0.445675E+00  0.396706E+00
  0.346390E+00  0.297772E+00  0.253648E+00  0.216009E+00  0.185748E+00  0.162718E+00
  0.146065E+00  0.134650E+00  0.127318E+00  0.122979E+00  0.120643E+00  0.119534E+00
  0.119207E+00  0.119534E+00  0.120643E+00  0.122979E+00  0.127318E+00  0.134650E+00
  0.146065E+00  0.162718E+00  0.185748E+00  0.216009E+00  0.253648E+00  0.297772E+00
  0.346390E+00  0.396706E+00  0.445675E+00  0.490587E+00  0.529349E+00  0.560470E+00
  0.583011E+00  0.671757E+00  0.680319E+00  0.680319E+00  0.671757E+00  0.654443E+00
  0.628195E+00  0.593101E+00  0.549718E+00  0.499257E+00  0.443801E+00  0.386346E+00
  0.330442E+00  0.279474E+00  0.235866E+00  0.200622E+00  0.173474E+00  0.153454E+00
  0.139386E+00  0.130025E+00  0.124123E+00  0.120643E+00  0.118992E+00  0.118992E+00
  0.120643E+00  0.124123E+00  0.130025E+00  0.139386E+00  0.153454E+00  0.173474E+00
  0.200622E+00  0.235866E+00  0.279474E+00  0.330442E+00  0.386346E+00  0.443801E+00
  0.499257E+00  0.549718E+00  0.593101E+00  0.628195E+00  0.654443E+00  0.671757E+00
  0.745330E+00  0.749190E+00  0.745330E+00  0.733578E+00  0.713501E+00  0.684617E+00
  0.646636E+00  0.599719E+00  0.544784E+00  0.483824E+00  0.420053E+00  0.357555E+00
  0.300356E+00  0.251278E+00  0.211393E+00  0.180393E+00  0.157337E+00  0.141018E+00
  0.130025E+00  0.122979E+00  0.118956E+00  0.117626E+00  0.118956E+00  0.122979E+00
  0.130025E+00  0.141018E+00  0.157337E+00  0.180393E+00  0.211393E+00  0.251278E+00
  0.300356E+00  0.357555E+00  0.420053E+00  0.483824E+00  0.544784E+00  0.599719E+00
  0.646636E+00  0.684617E+00  0.713501E+00  0.733578E+00  0.745330E+00  0.803188E+00
  0.803188E+00  0.796329E+00  0.782219E+00  0.760179E+00  0.729441E+00  0.689370E+00
  0.639758E+00  0.581188E+00  0.515507E+00  0.446147E+00  0.377787E+00  0.315061E+00
  0.261101E+00  0.217075E+00  0.182783E+00  0.157337E+00  0.139386E+00  0.127318E+00
  0.119777E+00  0.116081E+00  0.116081E+00  0.119777E+00  0.127318E+00  0.139386E+00
  0.157337E+00  0.182783E+00  0.217075E+00  0.261101E+00  0.315061E+00  0.377787E+00
  0.446147E+00  0.515507E+00  0.581188E+00  0.639758E+00  0.689370E+00  0.729441E+00
  0.760179E+00  0.782219E+00  0.796329E+00  0.803188E+00  0.847178E+00  0.844211E+00
  0.835101E+00  0.819245E+00  0.795758E+00  0.763623E+00  0.721908E+00  0.670036E+00
  0.608249E+00  0.538271E+00  0.463843E+00  0.390259E+00  0.322672E+00  0.264484E+00
  0.217075E+00  0.180393E+00  0.153454E+00  0.134650E+00  0.122273E+00  0.115149E+00
  0.112804E+00  0.115149E+00  0.122273E+00  0.134650E+00  0.153454E+00  0.180393E+00
  0.217075E+00  0.264484E+00  0.322672E+00  0.390259E+00  0.463843E+00  0.538271E+00
  0.608249E+00  0.670036E+00  0.721908E+00  0.763623E+00  0.795758E+00  0.819245E+00
  0.835101E+00  0.844211E+00  0.847178E+00  0.879791E+00  0.874590E+00  0.863779E+00
  0.846574E+00  0.821904E+00  0.788535E+00  0.745250E+00  0.691126E+00  0.626109E+00
  0.551933E+00  0.472759E+00  0.394471E+00  0.322672E+00  0.261101E+00  0.211393E+00
  0.173474E+00  0.146065E+00  0.127329E+00  0.115623E+00  0.109963E+00  0.109963E+00
  0.115623E+00  0.127329E+00  0.146065E+00  0.173474E+00  0.211393E+00  0.261101E+00
  0.322672E+00  0.394471E+00  0.472759E+00  0.551933E+00  0.626109E+00  0.691126E+00
  0.745250E+00  0.788535E+00  0.821904E+00  0.846574E+00  0.863779E+00  0.874590E+00
  0.879791E+00  0.879791E+00  0.903363E+00  0.896472E+00  0.884327E+00  0.865971E+00
  0.840153E+00  0.805428E+00  0.760302E+00  0.703554E+00  0.634974E+00  0.556482E+00
  0.472759E+00  0.390259E+00  0.315061E+00  0.251278E+00  0.200622E+00  0.162718E+00
  0.135927E+00  0.118317E+00  0.108348E+00  0.105121E+00  0.108348E+00  0.118317E+00
  0.135927E+00  0.162718E+00  0.200622E+00  0.251278E+00  0.315061E+00  0.390259E+00
  0.472759E+00  0.556482E+00  0.634974E+00  0.703554E+00  0.760302E+00  0.805428E+00
  0.840153E+00  0.865971E+00  0.884327E+00  0.896472E+00  0.903363E+00  0.905593E+00
  0.903363E+00  0.919885E+00  0.911660E+00  0.898358E+00  0.878847E+00  0.851685E+00
  0.815211E+00  0.767678E+00  0.707659E+00  0.634974E+00  0.551933E+00  0.463843E+00
  0.377787E+00  0.300356E+00  0.235866E+00  0.185748E+00  0.149139E+00  0.124122E+00
  0.108730E+00  0.101444E+00  0.101444E+00  0.108730E+00  0.124122E+00  0.149139E+00
  0.185748E+00  0.235866E+00  0.300356E+00  0.377787E+00  0.463843E+00  0.551933E+00
  0.634974E+00  0.707659E+00  0.767678E+00  0.815211E+00  0.851685E+00  0.878847E+00
  0.898358E+00  0.911660E+00  0.919885E+00  0.923804E+00  0.923804E+00  0.919885E+00
  0.930951E+00  0.921554E+00  0.907074E+00  0.886192E+00  0.857267E+00  0.818415E+00
  0.767678E+00  0.703554E+00  0.626109E+00  0.538271E+00  0.446147E+00  0.357555E+00
  0.279474E+00  0.216009E+00  0.167962E+00  0.133960E+00  0.111875E+00  0.996392E-01
  0.957451E-01  0.996392E-01  0.111875E+00  0.133960E+00  0.167962E+00  0.216009E+00
  0.279474E+00  0.357555E+00  0.446147E+00  0.538271E+00  0.626109E+00  0.703554E+00
  0.767678E+00  0.818415E+00  0.857267E+00  0.886192E+00  0.907074E+00  0.921554E+00
  0.930951E+00  0.936214E+00  0.937907E+00  0.936214E+00  0.930951E+00  0.937725E+00
  0.927124E+00  0.911247E+00  0.888578E+00  0.857267E+00  0.815211E+00  0.760302E+00
  0.691126E+00  0.608249E+00  0.515507E+00  0.420053E+00  0.330442E+00  0.253648E+00
  0.193044E+00  0.148609E+00  0.118495E+00  0.100311E+00  0.918742E-01  0.918742E-01
  0.100311E+00  0.118495E+00  0.148609E+00  0.193044E+00  0.253648E+00  0.330442E+00
  0.420053E+00  0.515507E+00  0.608249E+00  0.691126E+00  0.760302E+00  0.815211E+00
  0.857267E+00  0.888578E+00  0.911247E+00  0.927124E+00  0.937725E+00  0.944183E+00
  0.947233E+00  0.947233E+00  0.944183E+00  0.937725E+00  0.940938E+00  0.928921E+00
  0.911247E+00  0.886192E+00  0.851685E+00  0.805428E+00  0.745250E+00  0.670036E+00
  0.581188E+00  0.483824E+00  0.386346E+00  0.297772E+00  0.224427E+00  0.168522E+00
  0.129151E+00  0.103967E+00  0.902865E-01  0.859928E-01  0.902865E-01  0.103967E+00
  0.129151E+00  0.168522E+00  0.224427E+00  0.297772E+00  0.386346E+00  0.483824E+00
  0.581188E+00  0.670036E+00  0.745250E+00  0.805428E+00  0.851685E+00  0.886192E+00
  0.911247E+00  0.928921E+00  0.940938E+00  0.948624E+00  0.952890E+00  0.954256E+00
  0.952890E+00  0.948624E+00  0.940938E+00  0.940938E+00  0.927124E+00  0.907074E+00
  0.878847E+00  0.840153E+00  0.788535E+00  0.721908E+00  0.639758E+00  0.544784E+00
  0.443801E+00  0.346390E+00  0.261358E+00  0.193676E+00  0.144150E+00  0.110986E+00
  0.913178E-01  0.823387E-01  0.823387E-01  0.913178E-01  0.110986E+00  0.144150E+00
  0.193676E+00  0.261358E+00  0.346390E+00  0.443801E+00  0.544784E+00  0.639758E+00
  0.721908E+00  0.788535E+00  0.840153E+00  0.878847E+00  0.907074E+00  0.927124E+00
  0.940938E+00  0.950051E+00  0.955560E+00  0.958153E+00  0.958153E+00  0.955560E+00
  0.950051E+00  0.940938E+00  0.937725E+00  0.921554E+00  0.898358E+00  0.865971E+00
  0.821904E+00  0.763623E+00  0.689370E+00  0.599719E+00  0.499257E+00  0.396706E+00
  0.302226E+00  0.223437E+00  0.163427E+00  0.121557E+00  0.951903E-01  0.811002E-01
  0.767236E-01  0.811002E-01  0.951903E-01  0.121557E+00  0.163427E+00  0.223437E+00
  0.302226E+00  0.396706E+00  0.499257E+00  0.599719E+00  0.689370E+00  0.763623E+00
  0.821904E+00  0.865971E+00  0.898358E+00  0.921554E+00  0.937725E+00  0.948624E+00
  0.955560E+00  0.959402E+00  0.960631E+00  0.959402E+00  0.955560E+00  0.948624E+00
  0.937725E+00  0.930951E+00  0.911660E+00  0.884327E+00  0.846574E+00  0.795758E+00
  0.729441E+00  0.646636E+00  0.549718E+00  0.445675E+00  0.344747E+00  0.256494E+00
  0.186427E+00  0.135569E+00  0.101967E+00  0.823387E-01  0.734825E-01  0.734825E-01
  0.823387E-01  0.101967E+00  0.135569E+00  0.186427E+00  0.256494E+00  0.344747E+00
  0.445675E+00  0.549718E+00  0.646636E+00  0.729441E+00  0.795758E+00  0.846574E+00
  0.884327E+00  0.911660E+00  0.930951E+00  0.944183E+00  0.952890E+00  0.958153E+00
  0.960631E+00  0.960631E+00  0.958153E+00  0.952890E+00  0.944183E+00  0.930951E+00
  0.919885E+00  0.896472E+00  0.863779E+00  0.819245E+00  0.760179E+00  0.684617E+00
  0.593101E+00  0.490587E+00  0.386391E+00  0.291019E+00  0.212083E+00  0.152530E+00
  0.111490E+00  0.859928E-01  0.725193E-01  0.683597E-01  0.725193E-01  0.859928E-01
  0.111490E+00  0.152530E+00  0.212083E+00  0.291019E+00  0.386391E+00  0.490587E+00
  0.593101E+00  0.684617E+00  0.760179E+00  0.819245E+00  0.863779E+00  0.896472E+00
  0.919885E+00  0.936214E+00  0.947233E+00  0.954256E+00  0.958153E+00  0.959402E+00
  0.958153E+00  0.954256E+00  0.947233E+00  0.936214E+00  0.919885E+00  0.903363E+00
  0.874590E+00  0.835101E+00  0.782219E+00  0.713501E+00  0.628195E+00  0.529349E+00
  0.424778E+00  0.324964E+00  0.238960E+00  0.171589E+00  0.123344E+00  0.918742E-01
  0.736695E-01  0.654989E-01  0.654989E-01  0.736695E-01  0.918742E-01  0.123344E+00
  0.171589E+00  0.238960E+00  0.324964E+00  0.424778E+00  0.529349E+00  0.628195E+00
  0.713501E+00  0.782219E+00  0.835101E+00  0.874590E+00  0.903363E+00  0.923804E+00
  0.937907E+00  0.947233E+00  0.952890E+00  0.955560E+00  0.955560E+00  0.952890E+00
  0.947233E+00  0.937907E+00  0.923804E+00  0.903363E+00  0.879791E+00  0.844211E+00
  0.796329E+00  0.733578E+00  0.654443E+00  0.560470E+00  0.457827E+00  0.356242E+00
  0.265392E+00  0.191606E+00  0.136850E+00  0.996392E-01  0.767256E-01  0.646514E-01
  0.609224E-01  0.646514E-01  0.767256E-01  0.996392E-01  0.136850E+00  0.191606E+00
  0.265392E+00  0.356242E+00  0.457827E+00  0.560470E+00  0.654443E+00  0.733578E+00
  0.796329E+00  0.844211E+00  0.879791E+00  0.905593E+00  0.923804E+00  0.936214E+00
  0.944183E+00  0.948624E+00  0.950051E+00  0.948624E+00  0.944183E+00  0.936214E+00
  0.923804E+00  0.905593E+00  0.879791E+00  0.847178E+00  0.803188E+00  0.745330E+00
  0.671757E+00  0.583011E+00  0.483816E+00  0.382801E+00  0.289519E+00  0.211179E+00
  0.151066E+00  0.108730E+00  0.813843E-01  0.655740E-01  0.584434E-01  0.584434E-01
  0.655740E-01  0.813843E-01  0.108730E+00  0.151066E+00  0.211179E+00  0.289519E+00
  0.382801E+00  0.483816E+00  0.583011E+00  0.671757E+00  0.745330E+00  0.803188E+00
  0.847178E+00  0.879791E+00  0.903363E+00  0.919885E+00  0.930951E+00  0.937725E+00
  0.940938E+00  0.940938E+00  0.937725E+00  0.930951E+00  0.919885E+00  0.903363E+00
  0.879791E+00  0.847178E+00  0.817138E+00  0.763046E+00  0.693413E+00  0.608913E+00
  0.513817E+00  0.415170E+00  0.320781E+00  0.237906E+00  0.171875E+00  0.124122E+00
  0.922641E-01  0.725201E-01  0.618261E-01  0.584434E-01  0.618261E-01  0.725201E-01
  0.922641E-01  0.124122E+00  0.171875E+00  0.237906E+00  0.320781E+00  0.415170E+00
  0.513817E+00  0.608913E+00  0.693413E+00  0.763046E+00  0.817138E+00  0.857485E+00
  0.886743E+00  0.907443E+00  0.921634E+00  0.930811E+00  0.935958E+00  0.937617E+00
  0.935958E+00  0.930811E+00  0.921634E+00  0.907443E+00  0.886743E+00  0.857485E+00
  0.817138E+00  0.763046E+00  0.697670E+00  0.617943E+00  0.527332E+00  0.432080E+00
  0.339367E+00  0.255937E+00  0.187277E+00  0.135927E+00  0.100578E+00  0.777345E-01
  0.641174E-01  0.577323E-01  0.577323E-01  0.641174E-01  0.777345E-01  0.100578E+00
  0.135927E+00  0.187277E+00  0.255937E+00  0.339367E+00  0.432080E+00  0.527332E+00
  0.617943E+00  0.697670E+00  0.763046E+00  0.813794E+00  0.851675E+00  0.879131E+00
  0.898465E+00  0.911506E+00  0.919548E+00  0.923383E+00  0.923383E+00  0.919548E+00
  0.911506E+00  0.898465E+00  0.879131E+00  0.851675E+00  0.813794E+00  0.763046E+00
  0.693413E+00  0.617943E+00  0.531810E+00  0.440537E+00  0.350727E+00  0.268613E+00
  0.199384E+00  0.146065E+00  0.108313E+00  0.831669E-01  0.672720E-01  0.583947E-01
  0.555232E-01  0.583947E-01  0.672720E-01  0.831669E-01  0.108313E+00  0.146065E+00
  0.199384E+00  0.268613E+00  0.350727E+00  0.440537E+00  0.531810E+00  0.617943E+00
  0.693413E+00  0.755313E+00  0.803499E+00  0.839561E+00  0.865690E+00  0.883940E+00
  0.895915E+00  0.902697E+00  0.904893E+00  0.902697E+00  0.895915E+00  0.883940E+00
  0.865690E+00  0.839561E+00  0.803499E+00  0.755313E+00  0.693413E+00  0.608913E+00
  0.527332E+00  0.440537E+00  0.354522E+00  0.275088E+00  0.207057E+00  0.153454E+00
  0.114535E+00  0.879811E-01  0.705824E-01  0.598989E-01  0.547408E-01  0.547408E-01
  0.598989E-01  0.705824E-01  0.879811E-01  0.114535E+00  0.153454E+00  0.207057E+00
  0.275088E+00  0.354522E+00  0.440537E+00  0.527332E+00  0.608913E+00  0.680442E+00
  0.739381E+00  0.785531E+00  0.820212E+00  0.845300E+00  0.862563E+00  0.873354E+00
  0.878541E+00  0.878541E+00  0.873354E+00  0.862563E+00  0.845300E+00  0.820212E+00
  0.785531E+00  0.739381E+00  0.680442E+00  0.608913E+00  0.513817E+00  0.432080E+00
  0.350727E+00  0.275088E+00  0.209676E+00  0.157337E+00  0.118539E+00  0.914953E-01
  0.733511E-01  0.616181E-01  0.548912E-01  0.526775E-01  0.548912E-01  0.616181E-01
  0.733511E-01  0.914953E-01  0.118539E+00  0.157337E+00  0.209676E+00  0.275088E+00
  0.350727E+00  0.432080E+00  0.513817E+00  0.590640E+00  0.658326E+00  0.714537E+00
  0.758897E+00  0.792375E+00  0.816466E+00  0.832599E+00  0.841850E+00  0.844862E+00
  0.841850E+00  0.832599E+00  0.816466E+00  0.792375E+00  0.758897E+00  0.714537E+00
  0.658326E+00  0.590640E+00  0.513817E+00  0.415170E+00  0.339367E+00  0.268613E+00
  0.207057E+00  0.157337E+00  0.119917E+00  0.933217E-01  0.751196E-01  0.630070E-01
  0.554598E-01  0.517834E-01  0.517834E-01  0.554598E-01  0.630070E-01  0.751196E-01
  0.933217E-01  0.119917E+00  0.157337E+00  0.207057E+00  0.268613E+00  0.339367E+00
  0.415170E+00  0.491273E+00  0.563063E+00  0.626776E+00  0.680158E+00  0.722610E+00
  0.754705E+00  0.777506E+00  0.792055E+00  0.799126E+00  0.799126E+00  0.792055E+00
  0.777506E+00  0.754705E+00  0.722610E+00  0.680158E+00  0.626776E+00  0.563063E+00
  0.491273E+00  0.415170E+00  0.320781E+00  0.255937E+00  0.199384E+00  0.153454E+00
  0.118539E+00  0.933217E-01  0.757171E-01  0.637526E-01  0.559970E-01  0.516051E-01
  0.501780E-01  0.516051E-01  0.559970E-01  0.637526E-01  0.757171E-01  0.933217E-01
  0.118539E+00  0.153454E+00  0.199384E+00  0.255937E+00  0.320781E+00  0.390274E+00
  0.460270E+00  0.526663E+00  0.585990E+00  0.636052E+00  0.676045E+00  0.706145E+00
  0.726956E+00  0.739124E+00  0.743123E+00  0.739124E+00  0.726956E+00  0.706145E+00
  0.676045E+00  0.636052E+00  0.585990E+00  0.526663E+00  0.460270E+00  0.390274E+00
  0.320781E+00  0.237906E+00  0.187277E+00  0.146065E+00  0.114535E+00  0.914953E-01
  0.751196E-01  0.637526E-01  0.562090E-01  0.516755E-01  0.495751E-01  0.495751E-01
  0.516755E-01  0.562090E-01  0.637526E-01  0.751196E-01  0.914953E-01  0.114535E+00
  0.146065E+00  0.187277E+00  0.237906E+00  0.296061E+00  0.358688E+00  0.422125E+00
  0.482585E+00  0.536835E+00  0.582755E+00  0.619366E+00  0.646469E+00  0.664254E+00
  0.673034E+00  0.673034E+00  0.664254E+00  0.646469E+00  0.619366E+00  0.582755E+00
  0.536835E+00  0.482585E+00  0.422125E+00  0.358688E+00  0.296061E+00  0.237906E+00
  0.171875E+00  0.135927E+00  0.108313E+00  0.879811E-01  0.733511E-01  0.630070E-01
  0.559970E-01  0.516755E-01  0.494527E-01  0.487902E-01  0.494527E-01  0.516755E-01
  0.559970E-01  0.630070E-01  0.733511E-01  0.879811E-01  0.108313E+00  0.135927E+00
  0.171875E+00  0.216060E+00  0.267076E+00  0.322397E+00  0.378727E+00  0.432565E+00
  0.480923E+00  0.521752E+00  0.553899E+00  0.576863E+00  0.590561E+00  0.595102E+00
  0.590561E+00  0.576863E+00  0.553899E+00  0.521752E+00  0.480923E+00  0.432565E+00
  0.378727E+00  0.322397E+00  0.267076E+00  0.216060E+00  0.171875E+00  0.124122E+00
  0.100578E+00  0.831669E-01  0.705824E-01  0.616181E-01  0.554598E-01  0.516051E-01
  0.495751E-01  0.487902E-01  0.487902E-01  0.495751E-01  0.516051E-01  0.554598E-01
  0.616181E-01  0.705824E-01  0.831669E-01  0.100578E+00  0.124122E+00  0.154692E+00
  0.192336E+00  0.236029E+00  0.283667E+00  0.332334E+00  0.378901E+00  0.420642E+00
  0.455541E+00  0.482304E+00  0.500266E+00  0.509237E+00  0.509237E+00  0.500266E+00
  0.482304E+00  0.455541E+00  0.420642E+00  0.378901E+00  0.332334E+00  0.283667E+00
  0.236029E+00  0.192336E+00  0.154692E+00  0.124122E+00  0.922641E-01  0.777345E-01
  0.672720E-01  0.598989E-01  0.548912E-01  0.517834E-01  0.501780E-01  0.495751E-01
  0.494527E-01  0.495751E-01  0.501780E-01  0.517834E-01  0.548912E-01  0.598989E-01
  0.672720E-01  0.777345E-01  0.922641E-01  0.111875E+00  0.137289E+00  0.168606E+00
  0.205038E+00  0.244835E+00  0.285526E+00  0.324419E+00  0.359064E+00  0.387510E+00
  0.408431E+00  0.421131E+00  0.425375E+00  0.421131E+00  0.408431E+00  0.387510E+00
  0.359064E+00  0.324419E+00  0.285526E+00  0.244835E+00  0.205038E+00  0.168606E+00
  0.137289E+00  0.111875E+00  0.922641E-01  0.725201E-01  0.641174E-01  0.583947E-01
  0.547408E-01  0.526775E-01  0.517834E-01  0.516051E-01  0.516755E-01  0.516755E-01
  0.516051E-01  0.517834E-01  0.526775E-01  0.547408E-01  0.583947E-01  0.641174E-01
  0.725201E-01  0.843371E-01  0.100311E+00  0.120985E+00  0.146428E+00  0.175980E+00
  0.208193E+00  0.241029E+00  0.272236E+00  0.299688E+00  0.321634E+00  0.336835E+00
  0.344582E+00  0.344582E+00  0.336835E+00  0.321634E+00  0.299688E+00  0.272236E+00
  0.241029E+00  0.208193E+00  0.175980E+00  0.146428E+00  0.120985E+00  0.100311E+00
  0.843371E-01  0.725201E-01  0.618261E-01  0.577323E-01  0.555232E-01  0.547408E-01
  0.548912E-01  0.554598E-01  0.559970E-01  0.562090E-01  0.559970E-01  0.554598E-01
  0.548912E-01  0.547408E-01  0.555232E-01  0.577323E-01  0.618261E-01  0.682727E-01
  0.775859E-01  0.902865E-01  0.106752E+00  0.126977E+00  0.150368E+00  0.175696E+00
  0.201282E+00  0.225285E+00  0.245980E+00  0.261909E+00  0.271949E+00  0.275379E+00
  0.271949E+00  0.261909E+00  0.245980E+00  0.225285E+00  0.201282E+00  0.175696E+00
  0.150368E+00  0.126977E+00  0.106752E+00  0.902865E-01  0.775859E-01  0.682727E-01
  0.618261E-01  0.584434E-01  0.577323E-01  0.583947E-01  0.598989E-01  0.616181E-01
  0.630070E-01  0.637526E-01  0.637526E-01  0.630070E-01  0.616181E-01  0.598989E-01
  0.583947E-01  0.577323E-01  0.584434E-01  0.609224E-01  0.654989E-01  0.725193E-01
  0.823387E-01  0.951903E-01  0.110986E+00  0.129151E+00  0.148609E+00  0.167962E+00
  0.185748E+00  0.200622E+00  0.211393E+00  0.217075E+00  0.217075E+00  0.211393E+00
  0.200622E+00  0.185748E+00  0.167962E+00  0.148609E+00  0.129151E+00  0.110986E+00
  0.951903E-01  0.823387E-01  0.725193E-01  0.654989E-01  0.609224E-01  0.584434E-01
  0.618261E-01  0.641174E-01  0.672720E-01  0.705824E-01  0.733511E-01  0.751196E-01
  0.757171E-01  0.751196E-01  0.733511E-01  0.705824E-01  0.672720E-01  0.641174E-01
  0.618261E-01  0.609224E-01  0.617303E-01  0.644806E-01  0.694044E-01  0.767236E-01
  0.865446E-01  0.986993E-01  0.112620E+00  0.127353E+00  0.141725E+00  0.154555E+00
  0.164763E+00  0.171389E+00  0.173694E+00  0.171389E+00  0.164763E+00  0.154555E+00
  0.141725E+00  0.127353E+00  0.112620E+00  0.986993E-01  0.865446E-01  0.767236E-01
  0.694044E-01  0.644806E-01  0.617303E-01  0.609224E-01  0.618261E-01  0.725201E-01
  0.777345E-01  0.831669E-01  0.879811E-01  0.914953E-01  0.933217E-01  0.933217E-01
  0.914953E-01  0.879811E-01  0.831669E-01  0.777345E-01  0.725201E-01  0.682727E-01
  0.654989E-01  0.644806E-01  0.653879E-01  0.683560E-01  0.734825E-01  0.807574E-01
  0.899499E-01  0.100519E+00  0.111615E+00  0.122207E+00  0.131269E+00  0.137906E+00
  0.141423E+00  0.141423E+00  0.137906E+00  0.131269E+00  0.122207E+00  0.111615E+00
  0.100519E+00  0.899499E-01  0.807574E-01  0.734825E-01  0.683560E-01  0.653879E-01
  0.644806E-01  0.654989E-01  0.682727E-01  0.725201E-01  0.922641E-01  0.100578E+00
  0.108313E+00  0.114535E+00  0.118539E+00  0.119917E+00  0.118539E+00  0.114535E+00
  0.108313E+00  0.100578E+00  0.922641E-01  0.843371E-01  0.775859E-01  0.725193E-01
  0.694044E-01  0.683560E-01  0.694044E-01  0.725193E-01  0.775859E-01  0.843371E-01
  0.922641E-01  0.100578E+00  0.108313E+00  0.114535E+00  0.118539E+00  0.119917E+00
  0.118539E+00  0.114535E+00  0.108313E+00  0.100578E+00  0.922641E-01  0.843371E-01
  0.775859E-01  0.725193E-01  0.694044E-01  0.683560E-01  0.694044E-01  0.725193E-01
  0.775859E-01  0.843371E-01  0.922641E-01  0.124122E+00  0.135927E+00  0.146065E+00
  0.153454E+00  0.157337E+00  0.157337E+00  0.153454E+00  0.146065E+00  0.135927E+00
  0.124122E+00  0.111875E+00  0.100311E+00  0.902865E-01  0.823387E-01  0.767236E-01
  0.734825E-01  0.725193E-01  0.736695E-01  0.767256E-01  0.813843E-01  0.871398E-01
  0.932255E-01  0.987199E-01  0.102802E+00  0.104952E+00  0.104952E+00  0.102802E+00
  0.987199E-01  0.932255E-01  0.871398E-01  0.813843E-01  0.767256E-01  0.736695E-01
  0.725193E-01  0.734825E-01  0.767236E-01  0.823387E-01  0.902865E-01  0.100311E+00
  0.111875E+00  0.124122E+00  0.171875E+00  0.187277E+00  0.199384E+00  0.207057E+00
  0.209676E+00  0.207057E+00  0.199384E+00  0.187277E+00  0.171875E+00  0.154692E+00
  0.137289E+00  0.120985E+00  0.106752E+00  0.951903E-01  0.865446E-01  0.807574E-01
  0.775859E-01  0.767256E-01  0.778605E-01  0.806154E-01  0.844566E-01  0.886433E-01
  0.923386E-01  0.948361E-01  0.957126E-01  0.948361E-01  0.923386E-01  0.886433E-01
  0.844566E-01  0.806154E-01  0.778605E-01  0.767256E-01  0.775859E-01  0.807574E-01
  0.865446E-01  0.951903E-01  0.106752E+00  0.120985E+00  0.137289E+00  0.154692E+00
  0.171875E+00  0.237906E+00  0.255937E+00  0.268613E+00  0.275088E+00  0.275088E+00
  0.268613E+00  0.255937E+00  0.237906E+00  0.216060E+00  0.192336E+00  0.168606E+00
  0.146428E+00  0.126977E+00  0.110986E+00  0.986993E-01  0.899499E-01  0.843371E-01
  0.813843E-01  0.806154E-01  0.815465E-01  0.836237E-01  0.861746E-01  0.884513E-01
  0.897868E-01  0.897868E-01  0.884513E-01  0.861746E-01  0.836237E-01  0.815465E-01
  0.806154E-01  0.813843E-01  0.843371E-01  0.899499E-01  0.986993E-01  0.110986E+00
  0.126977E+00  0.146428E+00  0.168606E+00  0.192336E+00  0.216060E+00  0.237906E+00
  0.320781E+00  0.339367E+00  0.350727E+00  0.354522E+00  0.350727E+00  0.339367E+00
  0.320781E+00  0.296061E+00  0.267076E+00  0.236029E+00  0.205038E+00  0.175980E+00
  0.150368E+00  0.129151E+00  0.112620E+00  0.100519E+00  0.922641E-01  0.871398E-01
  0.844566E-01  0.836237E-01  0.841093E-01  0.853094E-01  0.864908E-01  0.869786E-01
  0.864908E-01  0.853094E-01  0.841093E-01  0.836237E-01  0.844566E-01  0.871398E-01
  0.922641E-01  0.100519E+00  0.112620E+00  0.129151E+00  0.150368E+00  0.175980E+00
  0.205038E+00  0.236029E+00  0.267076E+00  0.296061E+00  0.320781E+00  0.415170E+00
  0.432080E+00  0.440537E+00  0.440537E+00  0.432080E+00  0.415170E+00  0.390274E+00
  0.358688E+00  0.322397E+00  0.283667E+00  0.244835E+00  0.208193E+00  0.175696E+00
  0.148609E+00  0.127353E+00  0.111615E+00  0.100578E+00  0.932255E-01  0.886433E-01
  0.861746E-01  0.853094E-01  0.854345E-01  0.857884E-01  0.857884E-01  0.854345E-01
  0.853094E-01  0.861746E-01  0.886433E-01  0.932255E-01  0.100578E+00  0.111615E+00
  0.127353E+00  0.148609E+00  0.175696E+00  0.208193E+00  0.244835E+00  0.283667E+00
  0.322397E+00  0.358688E+00  0.390274E+00  0.415170E+00  0.513817E+00  0.527332E+00
  0.531810E+00  0.527332E+00  0.513817E+00  0.491273E+00  0.460270E+00  0.422125E+00
  0.378727E+00  0.332334E+00  0.285526E+00  0.241029E+00  0.201282E+00  0.167962E+00
  0.141725E+00  0.122207E+00  0.108313E+00  0.987199E-01  0.923386E-01  0.884513E-01
  0.864908E-01  0.857884E-01  0.856575E-01  0.857884E-01  0.864908E-01  0.884513E-01
  0.923386E-01  0.987199E-01  0.108313E+00  0.122207E+00  0.141725E+00  0.167962E+00
  0.201282E+00  0.241029E+00  0.285526E+00  0.332334E+00  0.378727E+00  0.422125E+00
  0.460270E+00  0.491273E+00  0.513817E+00  0.608913E+00  0.617943E+00  0.617943E+00
  0.608913E+00  0.590640E+00  0.563063E+00  0.526663E+00  0.482585E+00  0.432565E+00
  0.378901E+00  0.324419E+00  0.272236E+00  0.225285E+00  0.185748E+00  0.154555E+00
  0.131269E+00  0.114535E+00  0.102802E+00  0.948361E-01  0.897868E-01  0.869786E-01
  0.857884E-01  0.857884E-01  0.869786E-01  0.897868E-01  0.948361E-01  0.102802E+00
  0.114535E+00  0.131269E+00  0.154555E+00  0.185748E+00  0.225285E+00  0.272236E+00
  0.324419E+00  0.378901E+00  0.432565E+00  0.482585E+00  0.526663E+00  0.563063E+00
  0.590640E+00  0.608913E+00  0.693413E+00  0.697670E+00  0.693413E+00  0.680442E+00
  0.658326E+00  0.626776E+00  0.585990E+00  0.536835E+00  0.480923E+00  0.420642E+00
  0.359064E+00  0.299688E+00  0.245980E+00  0.200622E+00  0.164763E+00  0.137906E+00
  0.118539E+00  0.104952E+00  0.957126E-01  0.897868E-01  0.864908E-01  0.854345E-01
  0.864908E-01  0.897868E-01  0.957126E-01  0.104952E+00  0.118539E+00  0.137906E+00
  0.164763E+00  0.200622E+00  0.245980E+00  0.299688E+00  0.359064E+00  0.420642E+00
  0.480923E+00  0.536835E+00  0.585990E+00  0.626776E+00  0.658326E+00  0.680442E+00
  0.693413E+00  0.763046E+00  0.763046E+00  0.755313E+00  0.739381E+00  0.714537E+00
  0.680158E+00  0.636052E+00  0.582755E+00  0.521752E+00  0.455541E+00  0.387510E+00
  0.321634E+00  0.261909E+00  0.211393E+00  0.171389E+00  0.141423E+00  0.119917E+00
  0.104952E+00  0.948361E-01  0.884513E-01  0.853094E-01  0.853094E-01  0.884513E-01
  0.948361E-01  0.104952E+00  0.119917E+00  0.141423E+00  0.171389E+00  0.211393E+00
  0.261909E+00  0.321634E+00  0.387510E+00  0.455541E+00  0.521752E+00  0.582755E+00
  0.636052E+00  0.680158E+00  0.714537E+00  0.739381E+00  0.755313E+00  0.763046E+00
  0.817138E+00  0.813794E+00  0.803499E+00  0.785531E+00  0.758897E+00  0.722610E+00
  0.676045E+00  0.619366E+00  0.553899E+00  0.482304E+00  0.408431E+00  0.336835E+00
  0.271949E+00  0.217075E+00  0.173694E+00  0.141423E+00  0.118539E+00  0.102802E+00
  0.923386E-01  0.861746E-01  0.841093E-01  0.861746E-01  0.923386E-01  0.102802E+00
  0.118539E+00  0.141423E+00  0.173694E+00  0.217075E+00  0.271949E+00  0.336835E+00
  0.408431E+00  0.482304E+00  0.553899E+00  0.619366E+00  0.676045E+00  0.722610E+00
  0.758897E+00  0.785531E+00  0.803499E+00  0.813794E+00  0.817138E+00  0.857485E+00
  0.851675E+00  0.839561E+00  0.820212E+00  0.792375E+00  0.754705E+00  0.706145E+00
  0.646469E+00  0.576863E+00  0.500266E+00  0.421131E+00  0.344582E+00  0.275379E+00
  0.217075E+00  0.171389E+00  0.137906E+00  0.114535E+00  0.987199E-01  0.886433E-01
  0.836237E-01  0.836237E-01  0.886433E-01  0.987199E-01  0.114535E+00  0.137906E+00
  0.171389E+00  0.217075E+00  0.275379E+00  0.344582E+00  0.421131E+00  0.500266E+00
  0.576863E+00  0.646469E+00  0.706145E+00  0.754705E+00  0.792375E+00  0.820212E+00
  0.839561E+00  0.851675E+00  0.857485E+00  0.857485E+00  0.886743E+00  0.879131E+00
  0.865690E+00  0.845300E+00  0.816466E+00  0.777506E+00  0.726956E+00  0.664254E+00
  0.590561E+00  0.509237E+00  0.425375E+00  0.344582E+00  0.271949E+00  0.211393E+00
  0.164763E+00  0.131269E+00  0.108313E+00  0.932255E-01  0.844566E-01  0.815465E-01
  0.844566E-01  0.932255E-01  0.108313E+00  0.131269E+00  0.164763E+00  0.211393E+00
  0.271949E+00  0.344582E+00  0.425375E+00  0.509237E+00  0.590561E+00  0.664254E+00
  0.726956E+00  0.777506E+00  0.816466E+00  0.845300E+00  0.865690E+00  0.879131E+00
  0.886743E+00  0.889205E+00  0.886743E+00  0.907443E+00  0.898465E+00  0.883940E+00
  0.862563E+00  0.832599E+00  0.792055E+00  0.739124E+00  0.673034E+00  0.595102E+00
  0.509237E+00  0.421131E+00  0.336835E+00  0.261909E+00  0.200622E+00  0.154555E+00
  0.122207E+00  0.100578E+00  0.871398E-01  0.806154E-01  0.806154E-01  0.871398E-01
  0.100578E+00  0.122207E+00  0.154555E+00  0.200622E+00  0.261909E+00  0.336835E+00
  0.421131E+00  0.509237E+00  0.595102E+00  0.673034E+00  0.739124E+00  0.792055E+00
  0.832599E+00  0.862563E+00  0.883940E+00  0.898465E+00  0.907443E+00  0.911726E+00
  0.911726E+00  0.907443E+00  0.921634E+00  0.911506E+00  0.895915E+00  0.873354E+00
  0.841850E+00  0.799126E+00  0.743123E+00  0.673034E+00  0.590561E+00  0.500266E+00
  0.408431E+00  0.321634E+00  0.245980E+00  0.185748E+00  0.141725E+00  0.111615E+00
  0.922641E-01  0.813843E-01  0.778605E-01  0.813843E-01  0.922641E-01  0.111615E+00
  0.141725E+00  0.185748E+00  0.245980E+00  0.321634E+00  0.408431E+00  0.500266E+00
  0.590561E+00  0.673034E+00  0.743123E+00  0.799126E+00  0.841850E+00  0.873354E+00
  0.895915E+00  0.911506E+00  0.921634E+00  0.927322E+00  0.929155E+00  0.927322E+00
  0.921634E+00  0.930811E+00  0.919548E+00  0.902697E+00  0.878541E+00  0.844862E+00
  0.799126E+00  0.739124E+00  0.664254E+00  0.576863E+00  0.482304E+00  0.387510E+00
  0.299688E+00  0.225285E+00  0.167962E+00  0.127353E+00  0.100519E+00  0.843371E-01
  0.767256E-01  0.767256E-01  0.843371E-01  0.100519E+00  0.127353E+00  0.167962E+00
  0.225285E+00  0.299688E+00  0.387510E+00  0.482304E+00  0.576863E+00  0.664254E+00
  0.739124E+00  0.799126E+00  0.844862E+00  0.878541E+00  0.902697E+00  0.919548E+00
  0.930811E+00  0.937698E+00  0.940962E+00  0.940962E+00  0.937698E+00  0.930811E+00
  0.935958E+00  0.923383E+00  0.904893E+00  0.878541E+00  0.841850E+00  0.792055E+00
  0.726956E+00  0.646469E+00  0.553899E+00  0.455541E+00  0.359064E+00  0.272236E+00
  0.201282E+00  0.148609E+00  0.112620E+00  0.899499E-01  0.775859E-01  0.736695E-01
  0.775859E-01  0.899499E-01  0.112620E+00  0.148609E+00  0.201282E+00  0.272236E+00
  0.359064E+00  0.455541E+00  0.553899E+00  0.646469E+00  0.726956E+00  0.792055E+00
  0.841850E+00  0.878541E+00  0.904893E+00  0.923383E+00  0.935958E+00  0.944028E+00
  0.948525E+00  0.949969E+00  0.948525E+00  0.944028E+00  0.935958E+00  0.937617E+00
  0.923383E+00  0.902697E+00  0.873354E+00  0.832599E+00  0.777506E+00  0.706145E+00
  0.619366E+00  0.521752E+00  0.420642E+00  0.324419E+00  0.241029E+00  0.175696E+00
  0.129151E+00  0.986993E-01  0.807574E-01  0.725193E-01  0.725193E-01  0.807574E-01
  0.986993E-01  0.129151E+00  0.175696E+00  0.241029E+00  0.324419E+00  0.420642E+00
  0.521752E+00  0.619366E+00  0.706145E+00  0.777506E+00  0.832599E+00  0.873354E+00
  0.902697E+00  0.923383E+00  0.937617E+00  0.947028E+00  0.952738E+00  0.955432E+00
  0.955432E+00  0.952738E+00  0.947028E+00  0.937617E+00  0.935958E+00  0.919548E+00
  0.895915E+00  0.862563E+00  0.816466E+00  0.754705E+00  0.676045E+00  0.582755E+00
  0.480923E+00  0.378901E+00  0.285526E+00  0.208193E+00  0.150368E+00  0.110986E+00
  0.865446E-01  0.734825E-01  0.694044E-01  0.734825E-01  0.865446E-01  0.110986E+00
  0.150368E+00  0.208193E+00  0.285526E+00  0.378901E+00  0.480923E+00  0.582755E+00
  0.676045E+00  0.754705E+00  0.816466E+00  0.862563E+00  0.895915E+00  0.919548E+00
  0.935958E+00  0.947028E+00  0.954090E+00  0.958011E+00  0.959268E+00  0.958011E+00
  0.954090E+00  0.947028E+00  0.935958E+00  0.930811E+00  0.911506E+00  0.883940E+00
  0.845300E+00  0.792375E+00  0.722610E+00  0.636052E+00  0.536835E+00  0.432565E+00
  0.332334E+00  0.244835E+00  0.175980E+00  0.126977E+00  0.951903E-01  0.767236E-01
  0.683560E-01  0.683560E-01  0.767236E-01  0.951903E-01  0.126977E+00  0.175980E+00
  0.244835E+00  0.332334E+00  0.432565E+00  0.536835E+00  0.636052E+00  0.722610E+00
  0.792375E+00  0.845300E+00  0.883940E+00  0.911506E+00  0.930811E+00  0.944028E+00
  0.952738E+00  0.958011E+00  0.960498E+00  0.960498E+00  0.958011E+00  0.952738E+00
  0.944028E+00  0.930811E+00  0.921634E+00  0.898465E+00  0.865690E+00  0.820212E+00
  0.758897E+00  0.680158E+00  0.585990E+00  0.482585E+00  0.378727E+00  0.283667E+00
  0.205038E+00  0.146428E+00  0.106752E+00  0.823387E-01  0.694044E-01  0.653879E-01
  0.694044E-01  0.823387E-01  0.106752E+00  0.146428E+00  0.205038E+00  0.283667E+00
  0.378727E+00  0.482585E+00  0.585990E+00  0.680158E+00  0.758897E+00  0.820212E+00
  0.865690E+00  0.898465E+00  0.921634E+00  0.937698E+00  0.948525E+00  0.955432E+00
  0.959268E+00  0.960498E+00  0.959268E+00  0.955432E+00  0.948525E+00  0.937698E+00
  0.921634E+00  0.907443E+00  0.879131E+00  0.839561E+00  0.785531E+00  0.714537E+00
  0.626776E+00  0.526663E+00  0.422125E+00  0.322397E+00  0.236029E+00  0.168606E+00
  0.120985E+00  0.902865E-01  0.725193E-01  0.644806E-01  0.644806E-01  0.725193E-01
  0.902865E-01  0.120985E+00  0.168606E+00  0.236029E+00  0.322397E+00  0.422125E+00
  0.526663E+00  0.626776E+00  0.714537E+00  0.785531E+00  0.839561E+00  0.879131E+00
  0.907443E+00  0.927322E+00  0.940962E+00  0.949969E+00  0.955432E+00  0.958011E+00
  0.958011E+00  0.955432E+00  0.949969E+00  0.940962E+00  0.927322E+00  0.907443E+00
  0.886743E+00  0.851675E+00  0.803499E+00  0.739381E+00  0.658326E+00  0.563063E+00
  0.460270E+00  0.358688E+00  0.267076E+00  0.192336E+00  0.137289E+00  0.100311E+00
  0.775859E-01  0.654989E-01  0.617303E-01  0.654989E-01  0.775859E-01  0.100311E+00
  0.137289E+00  0.192336E+00  0.267076E+00  0.358688E+00  0.460270E+00  0.563063E+00
  0.658326E+00  0.739381E+00  0.803499E+00  0.851675E+00  0.886743E+00  0.911726E+00
  0.929155E+00  0.940962E+00  0.948525E+00  0.952738E+00  0.954090E+00  0.952738E+00
  0.948525E+00  0.940962E+00  0.929155E+00  0.911726E+00  0.886743E+00  0.857485E+00
  0.813794E+00  0.755313E+00  0.680442E+00  0.590640E+00  0.491273E+00  0.390274E+00
  0.296061E+00  0.216060E+00  0.154692E+00  0.111875E+00  0.843371E-01  0.682727E-01
  0.609224E-01  0.609224E-01  0.682727E-01  0.843371E-01  0.111875E+00  0.154692E+00
  0.216060E+00  0.296061E+00  0.390274E+00  0.491273E+00  0.590640E+00  0.680442E+00
  0.755313E+00  0.813794E+00  0.857485E+00  0.889205E+00  0.911726E+00  0.927322E+00
  0.937698E+00  0.944028E+00  0.947028E+00  0.947028E+00  0.944028E+00  0.937698E+00
  0.927322E+00  0.911726E+00  0.889205E+00  0.857485E+00  0.817138E+00  0.763046E+00
  0.693413E+00  0.608913E+00  0.513817E+00  0.415170E+00  0.320781E+00  0.237906E+00
  0.171875E+00  0.124122E+00  0.922641E-01  0.725201E-01  0.618261E-01  0.584434E-01
  0.618261E-01  0.725201E-01  0.922641E-01  0.124122E+00  0.171875E+00  0.237906E+00
  0.320781E+00  0.415170E+00  0.513817E+00  0.608913E+00  0.693413E+00  0.763046E+00
  0.817138E+00  0.857485E+00  0.886743E+00  0.907443E+00  0.921634E+00  0.930811E+00
  0.935958E+00  0.937617E+00  0.935958E+00  0.930811E+00  0.921634E+00  0.907443E+00
  0.886743E+00  0.857485E+00  0.817138E+00  0.781454E+00  0.717638E+00  0.639113E+00
  0.549350E+00  0.454340E+00  0.360708E+00  0.274993E+00  0.203313E+00  0.149139E+00
  0.111615E+00  0.872067E-01  0.725201E-01  0.655740E-01  0.655740E-01  0.725201E-01
  0.872067E-01  0.111615E+00  0.149139E+00  0.203313E+00  0.274993E+00  0.360708E+00
  0.454340E+00  0.549350E+00  0.639113E+00  0.717638E+00  0.781454E+00  0.830375E+00
  0.866391E+00  0.892167E+00  0.910135E+00  0.922167E+00  0.929550E+00  0.933061E+00
  0.933061E+00  0.929550E+00  0.922167E+00  0.910135E+00  0.892167E+00  0.866391E+00
  0.830375E+00  0.781454E+00  0.717638E+00  0.643594E+00  0.558414E+00  0.467400E+00
  0.376666E+00  0.292140E+00  0.219479E+00  0.162718E+00  0.122207E+00  0.950581E-01
  0.777345E-01  0.679457E-01  0.647546E-01  0.679457E-01  0.777345E-01  0.950581E-01
  0.122207E+00  0.162718E+00  0.219479E+00  0.292140E+00  0.376666E+00  0.467400E+00
  0.558414E+00  0.643594E+00  0.717638E+00  0.777724E+00  0.823882E+00  0.857951E+00
  0.882324E+00  0.899170E+00  0.910135E+00  0.916312E+00  0.918307E+00  0.916312E+00
  0.910135E+00  0.899170E+00  0.882324E+00  0.857951E+00  0.823882E+00  0.777724E+00
  0.717638E+00  0.639113E+00  0.558414E+00  0.471731E+00  0.384671E+00  0.302721E+00
  0.230999E+00  0.173474E+00  0.131269E+00  0.102303E+00  0.831669E-01  0.712556E-01
  0.654275E-01  0.654275E-01  0.712556E-01  0.831669E-01  0.102303E+00  0.131269E+00
  0.173474E+00  0.230999E+00  0.302721E+00  0.384671E+00  0.471731E+00  0.558414E+00
  0.639113E+00  0.709199E+00  0.766286E+00  0.810395E+00  0.843091E+00  0.866439E+00
  0.882324E+00  0.892167E+00  0.896872E+00  0.896872E+00  0.892167E+00  0.882324E+00
  0.866439E+00  0.843091E+00  0.810395E+00  0.766286E+00  0.709199E+00  0.639113E+00
  0.549350E+00  0.467400E+00  0.384671E+00  0.306280E+00  0.236971E+00  0.180393E+00
  0.137906E+00  0.108104E+00  0.879811E-01  0.747895E-01  0.670839E-01  0.645142E-01
  0.670839E-01  0.747895E-01  0.879811E-01  0.108104E+00  0.137906E+00  0.180393E+00
  0.236971E+00  0.306280E+00  0.384671E+00  0.467400E+00  0.549350E+00  0.625527E+00
  0.691944E+00  0.746479E+00  0.788979E+00  0.820625E+00  0.843091E+00  0.857951E+00
  0.866391E+00  0.869125E+00  0.866391E+00  0.857951E+00  0.843091E+00  0.820625E+00
  0.788979E+00  0.746479E+00  0.691944E+00  0.625527E+00  0.549350E+00  0.454340E+00
  0.376666E+00  0.302721E+00  0.236971E+00  0.182783E+00  0.141423E+00  0.111834E+00
  0.914953E-01  0.778040E-01  0.690849E-01  0.647418E-01  0.647418E-01  0.690849E-01
  0.778040E-01  0.914953E-01  0.111834E+00  0.141423E+00  0.182783E+00  0.236971E+00
  0.302721E+00  0.376666E+00  0.454340E+00  0.531078E+00  0.602559E+00  0.665346E+00
  0.717435E+00  0.758404E+00  0.788979E+00  0.810395E+00  0.823882E+00  0.830375E+00
  0.830375E+00  0.823882E+00  0.810395E+00  0.788979E+00  0.758404E+00  0.717435E+00
  0.665346E+00  0.602559E+00  0.531078E+00  0.454340E+00  0.360708E+00  0.292140E+00
  0.230999E+00  0.180393E+00  0.141423E+00  0.113118E+00  0.933217E-01  0.797680E-01
  0.707981E-01  0.655683E-01  0.638323E-01  0.655683E-01  0.707981E-01  0.797680E-01
  0.933217E-01  0.113118E+00  0.141423E+00  0.180393E+00  0.230999E+00  0.292140E+00
  0.360708E+00  0.432594E+00  0.503663E+00  0.570169E+00  0.629060E+00  0.678384E+00
  0.717435E+00  0.746479E+00  0.766286E+00  0.777724E+00  0.781454E+00  0.777724E+00
  0.766286E+00  0.746479E+00  0.717435E+00  0.678384E+00  0.629060E+00  0.570169E+00
  0.503663E+00  0.432594E+00  0.360708E+00  0.274993E+00  0.219479E+00  0.173474E+00
  0.137906E+00  0.111834E+00  0.933217E-01  0.804409E-01  0.717654E-01  0.663992E-01
  0.638341E-01  0.638341E-01  0.663992E-01  0.717654E-01  0.804409E-01  0.933217E-01
  0.111834E+00  0.137906E+00  0.173474E+00  0.219479E+00  0.274993E+00  0.337287E+00
  0.402757E+00  0.467733E+00  0.528830E+00  0.583241E+00  0.629060E+00  0.665346E+00
  0.691944E+00  0.709199E+00  0.717638E+00  0.717638E+00  0.709199E+00  0.691944E+00
  0.665346E+00  0.629060E+00  0.583241E+00  0.528830E+00  0.467733E+00  0.402757E+00
  0.337287E+00  0.274993E+00  0.203313E+00  0.162718E+00  0.131269E+00  0.108104E+00
  0.914953E-01  0.797680E-01  0.717654E-01  0.667412E-01  0.640868E-01  0.632778E-01
  0.640868E-01  0.667412E-01  0.717654E-01  0.797680E-01  0.914953E-01  0.108104E+00
  0.131269E+00  0.162718E+00  0.203313E+00  0.252355E+00  0.307662E+00  0.366183E+00
  0.424581E+00  0.479674E+00  0.528830E+00  0.570169E+00  0.602559E+00  0.625527E+00
  0.639113E+00  0.643594E+00  0.639113E+00  0.625527E+00  0.602559E+00  0.570169E+00
  0.528830E+00  0.479674E+00  0.424581E+00  0.366183E+00  0.307662E+00  0.252355E+00
  0.203313E+00  0.149139E+00  0.122207E+00  0.102303E+00  0.879811E-01  0.778040E-01
  0.707981E-01  0.663992E-01  0.640868E-01  0.632015E-01  0.632015E-01  0.640868E-01
  0.663992E-01  0.707981E-01  0.778040E-01  0.879811E-01  0.102303E+00  0.122207E+00
  0.149139E+00  0.183852E+00  0.225939E+00  0.273790E+00  0.324864E+00  0.376120E+00
  0.424581E+00  0.467733E+00  0.503663E+00  0.531078E+00  0.549350E+00  0.558414E+00
  0.558414E+00  0.549350E+00  0.531078E+00  0.503663E+00  0.467733E+00  0.424581E+00
  0.376120E+00  0.324864E+00  0.273790E+00  0.225939E+00  0.183852E+00  0.149139E+00
  0.111615E+00  0.950581E-01  0.831669E-01  0.747895E-01  0.690849E-01  0.655683E-01
  0.638341E-01  0.632778E-01  0.632015E-01  0.632778E-01  0.638341E-01  0.655683E-01
  0.690849E-01  0.747895E-01  0.831669E-01  0.950581E-01  0.111615E+00  0.133960E+00
  0.162744E+00  0.197805E+00  0.237996E+00  0.281231E+00  0.324864E+00  0.366183E+00
  0.402757E+00  0.432594E+00  0.454340E+00  0.467400E+00  0.471731E+00  0.467400E+00
  0.454340E+00  0.432594E+00  0.402757E+00  0.366183E+00  0.324864E+00  0.281231E+00
  0.237996E+00  0.197805E+00  0.162744E+00  0.133960E+00  0.111615E+00  0.872067E-01
  0.777345E-01  0.712556E-01  0.670839E-01  0.647418E-01  0.638323E-01  0.638341E-01
  0.640868E-01  0.640868E-01  0.638341E-01  0.638323E-01  0.647418E-01  0.670839E-01
  0.712556E-01  0.777345E-01  0.872067E-01  0.100519E+00  0.118495E+00  0.141671E+00
  0.170012E+00  0.202672E+00  0.237996E+00  0.273790E+00  0.307662E+00  0.337287E+00
  0.360708E+00  0.376666E+00  0.384671E+00  0.384671E+00  0.376666E+00  0.360708E+00
  0.337287E+00  0.307662E+00  0.273790E+00  0.237996E+00  0.202672E+00  0.170012E+00
  0.141671E+00  0.118495E+00  0.100519E+00  0.872067E-01  0.725201E-01  0.679457E-01
  0.654275E-01  0.645142E-01  0.647418E-01  0.655683E-01  0.663992E-01  0.667412E-01
  0.663992E-01  0.655683E-01  0.647418E-01  0.645142E-01  0.654275E-01  0.679457E-01
  0.725201E-01  0.796607E-01  0.899499E-01  0.103967E+00  0.122110E+00  0.144346E+00
  0.170012E+00  0.197805E+00  0.225939E+00  0.252355E+00  0.274993E+00  0.292140E+00
  0.302721E+00  0.306280E+00  0.302721E+00  0.292140E+00  0.274993E+00  0.252355E+00
  0.225939E+00  0.197805E+00  0.170012E+00  0.144346E+00  0.122110E+00  0.103967E+00
  0.899499E-01  0.796607E-01  0.725201E-01  0.655740E-01  0.647546E-01  0.654275E-01
  0.670839E-01  0.690849E-01  0.707981E-01  0.717654E-01  0.717654E-01  0.707981E-01
  0.690849E-01  0.670839E-01  0.654275E-01  0.647546E-01  0.655740E-01  0.682727E-01
  0.732051E-01  0.807574E-01  0.913178E-01  0.105133E+00  0.122110E+00  0.141671E+00
  0.162744E+00  0.183852E+00  0.203313E+00  0.219479E+00  0.230999E+00  0.236971E+00
  0.236971E+00  0.230999E+00  0.219479E+00  0.203313E+00  0.183852E+00  0.162744E+00
  0.141671E+00  0.122110E+00  0.105133E+00  0.913178E-01  0.807574E-01  0.732051E-01
  0.682727E-01  0.655740E-01  0.655740E-01  0.679457E-01  0.712556E-01  0.747895E-01
  0.778040E-01  0.797680E-01  0.804409E-01  0.797680E-01  0.778040E-01  0.747895E-01
  0.712556E-01  0.679457E-01  0.655740E-01  0.646514E-01  0.654989E-01  0.683597E-01
  0.734825E-01  0.811002E-01  0.913178E-01  0.103967E+00  0.118495E+00  0.133960E+00
  0.149139E+00  0.162718E+00  0.173474E+00  0.180393E+00  0.182783E+00  0.180393E+00
  0.173474E+00  0.162718E+00  0.149139E+00  0.133960E+00  0.118495E+00  0.103967E+00
  0.913178E-01  0.811002E-01  0.734825E-01  0.683597E-01  0.654989E-01  0.646514E-01
  0.655740E-01  0.725201E-01  0.777345E-01  0.831669E-01  0.879811E-01  0.914953E-01
  0.933217E-01  0.933217E-01  0.914953E-01  0.879811E-01  0.831669E-01  0.777345E-01
  0.725201E-01  0.682727E-01  0.654989E-01  0.644806E-01  0.653879E-01  0.683560E-01
  0.734825E-01  0.807574E-01  0.899499E-01  0.100519E+00  0.111615E+00  0.122207E+00
  0.131269E+00  0.137906E+00  0.141423E+00  0.141423E+00  0.137906E+00  0.131269E+00
  0.122207E+00  0.111615E+00  0.100519E+00  0.899499E-01  0.807574E-01  0.734825E-01
  0.683560E-01  0.653879E-01  0.644806E-01  0.654989E-01  0.682727E-01  0.725201E-01
  0.872067E-01  0.950581E-01  0.102303E+00  0.108104E+00  0.111834E+00  0.113118E+00
  0.111834E+00  0.108104E+00  0.102303E+00  0.950581E-01  0.872067E-01  0.796607E-01
  0.732051E-01  0.683597E-01  0.653879E-01  0.643901E-01  0.653879E-01  0.683597E-01
  0.732051E-01  0.796607E-01  0.872067E-01  0.950581E-01  0.102303E+00  0.108104E+00
  0.111834E+00  0.113118E+00  0.111834E+00  0.108104E+00  0.102303E+00  0.950581E-01
  0.872067E-01  0.796607E-01  0.732051E-01  0.683597E-01  0.653879E-01  0.643901E-01
  0.653879E-01  0.683597E-01  0.732051E-01  0.796607E-01  0.872067E-01  0.111615E+00
  0.122207E+00  0.131269E+00  0.137906E+00  0.141423E+00  0.141423E+00  0.137906E+00
  0.131269E+00  0.122207E+00  0.111615E+00  0.100519E+00  0.899499E-01  0.807574E-01
  0.734825E-01  0.683560E-01  0.653879E-01  0.644806E-01  0.654989E-01  0.682727E-01
  0.725201E-01  0.777345E-01  0.831669E-01  0.879811E-01  0.914953E-01  0.933217E-01
  0.933217E-01  0.914953E-01  0.879811E-01  0.831669E-01  0.777345E-01  0.725201E-01
  0.682727E-01  0.654989E-01  0.644806E-01  0.653879E-01  0.683560E-01  0.734825E-01
  0.807574E-01  0.899499E-01  0.100519E+00  0.111615E+00  0.149139E+00  0.162718E+00
  0.173474E+00  0.180393E+00  0.182783E+00  0.180393E+00  0.173474E+00  0.162718E+00
  0.149139E+00  0.133960E+00  0.118495E+00  0.103967E+00  0.913178E-01  0.811002E-01
  0.734825E-01  0.683597E-01  0.654989E-01  0.646514E-01  0.655740E-01  0.679457E-01
  0.712556E-01  0.747895E-01  0.778040E-01  0.797680E-01  0.804409E-01  0.797680E-01
  0.778040E-01  0.747895E-01  0.712556E-01  0.679457E-01  0.655740E-01  0.646514E-01
  0.654989E-01  0.683597E-01  0.734825E-01  0.811002E-01  0.913178E-01  0.103967E+00
  0.118495E+00  0.133960E+00  0.149139E+00  0.203313E+00  0.219479E+00  0.230999E+00
  0.236971E+00  0.236971E+00  0.230999E+00  0.219479E+00  0.203313E+00  0.183852E+00
  0.162744E+00  0.141671E+00  0.122110E+00  0.105133E+00  0.913178E-01  0.807574E-01
  0.732051E-01  0.682727E-01  0.655740E-01  0.647546E-01  0.654275E-01  0.670839E-01
  0.690849E-01  0.707981E-01  0.717654E-01  0.717654E-01  0.707981E-01  0.690849E-01
  0.670839E-01  0.654275E-01  0.647546E-01  0.655740E-01  0.682727E-01  0.732051E-01
  0.807574E-01  0.913178E-01  0.105133E+00  0.122110E+00  0.141671E+00  0.162744E+00
  0.183852E+00  0.203313E+00  0.274993E+00  0.292140E+00  0.302721E+00  0.306280E+00
  0.302721E+00  0.292140E+00  0.274993E+00  0.252355E+00  0.225939E+00  0.197805E+00
  0.170012E+00  0.144346E+00  0.122110E+00  0.103967E+00  0.899499E-01  0.796607E-01
  0.725201E-01  0.679457E-01  0.654275E-01  0.645142E-01  0.647418E-01  0.655683E-01
  0.663992E-01  0.667412E-01  0.663992E-01  0.655683E-01  0.647418E-01  0.645142E-01
  0.654275E-01  0.679457E-01  0.725201E-01  0.796607E-01  0.899499E-01  0.103967E+00
  0.122110E+00  0.144346E+00  0.170012E+00  0.197805E+00  0.225939E+00  0.252355E+00
  0.274993E+00  0.360708E+00  0.376666E+00  0.384671E+00  0.384671E+00  0.376666E+00
  0.360708E+00  0.337287E+00  0.307662E+00  0.273790E+00  0.237996E+00  0.202672E+00
  0.170012E+00  0.141671E+00  0.118495E+00  0.100519E+00  0.872067E-01  0.777345E-01
  0.712556E-01  0.670839E-01  0.647418E-01  0.638323E-01  0.638341E-01  0.640868E-01
  0.640868E-01  0.638341E-01  0.638323E-01  0.647418E-01  0.670839E-01  0.712556E-01
  0.777345E-01  0.872067E-01  0.100519E+00  0.118495E+00  0.141671E+00  0.170012E+00
  0.202672E+00  0.237996E+00  0.273790E+00  0.307662E+00  0.337287E+00  0.360708E+00
  0.454340E+00  0.467400E+00  0.471731E+00  0.467400E+00  0.454340E+00  0.432594E+00
  0.402757E+00  0.366183E+00  0.324864E+00  0.281231E+00  0.237996E+00  0.197805E+00
  0.162744E+00  0.133960E+00  0.111615E+00  0.950581E-01  0.831669E-01  0.747895E-01
  0.690849E-01  0.655683E-01  0.638341E-01  0.632778E-01  0.632015E-01  0.632778E-01
  0.638341E-01  0.655683E-01  0.690849E-01  0.747895E-01  0.831669E-01  0.950581E-01
  0.111615E+00  0.133960E+00  0.162744E+00  0.197805E+00  0.237996E+00  0.281231E+00
  0.324864E+00  0.366183E+00  0.402757E+00  0.432594E+00  0.454340E+00  0.549350E+00
  0.558414E+00  0.558414E+00  0.549350E+00  0.531078E+00  0.503663E+00  0.467733E+00
  0.424581E+00  0.376120E+00  0.324864E+00  0.273790E+00  0.225939E+00  0.183852E+00
  0.149139E+00  0.122207E+00  0.102303E+00  0.879811E-01  0.778040E-01  0.707981E-01
  0.663992E-01  0.640868E-01  0.632015E-01  0.632015E-01  0.640868E-01  0.663992E-01
  0.707981E-01  0.778040E-01  0.879811E-01  0.102303E+00  0.122207E+00  0.149139E+00
  0.183852E+00  0.225939E+00  0.273790E+00  0.324864E+00  0.376120E+00  0.424581E+00
  0.467733E+00  0.503663E+00  0.531078E+00  0.549350E+00  0.639113E+00  0.643594E+00
  0.639113E+00  0.625527E+00  0.602559E+00  0.570169E+00  0.528830E+00  0.479674E+00
  0.424581E+00  0.366183E+00  0.307662E+00  0.252355E+00  0.203313E+00  0.162718E+00
  0.131269E+00  0.108104E+00  0.914953E-01  0.797680E-01  0.717654E-01  0.667412E-01
  0.640868E-01  0.632778E-01  0.640868E-01  0.667412E-01  0.717654E-01  0.797680E-01
  0.914953E-01  0.108104E+00  0.131269E+00  0.162718E+00  0.203313E+00  0.252355E+00
  0.307662E+00  0.366183E+00  0.424581E+00  0.479674E+00  0.528830E+00  0.570169E+00
  0.602559E+00  0.625527E+00  0.639113E+00  0.717638E+00  0.717638E+00  0.709199E+00
  0.691944E+00  0.665346E+00  0.629060E+00  0.583241E+00  0.528830E+00  0.467733E+00
  0.402757E+00  0.337287E+00  0.274993E+00  0.219479E+00  0.173474E+00  0.137906E+00
  0.111834E+00  0.933217E-01  0.804409E-01  0.717654E-01  0.663992E-01  0.638341E-01
  0.638341E-01  0.663992E-01  0.717654E-01  0.804409E-01  0.933217E-01  0.111834E+00
  0.137906E+00  0.173474E+00  0.219479E+00  0.274993E+00  0.337287E+00  0.402757E+00
  0.467733E+00  0.528830E+00  0.583241E+00  0.629060E+00  0.665346E+00  0.691944E+00
  0.709199E+00  0.717638E+00  0.781454E+00  0.777724E+00  0.766286E+00  0.746479E+00
  0.717435E+00  0.678384E+00  0.629060E+00  0.570169E+00  0.503663E+00  0.432594E+00
  0.360708E+00  0.292140E+00  0.230999E+00  0.180393E+00  0.141423E+00  0.113118E+00
  0.933217E-01  0.797680E-01  0.707981E-01  0.655683E-01  0.638323E-01  0.655683E-01
  0.707981E-01  0.797680E-01  0.933217E-01  0.113118E+00  0.141423E+00  0.180393E+00
  0.230999E+00  0.292140E+00  0.360708E+00  0.432594E+00  0.503663E+00  0.570169E+00
  0.629060E+00  0.678384E+00  0.717435E+00  0.746479E+00  0.766286E+00  0.777724E+00
  0.781454E+00  0.830375E+00  0.823882E+00  0.810395E+00  0.788979E+00  0.758404E+00
  0.717435E+00  0.665346E+00  0.602559E+00  0.531078E+00  0.454340E+00  0.376666E+00
  0.302721E+00  0.236971E+00  0.182783E+00  0.141423E+00  0.111834E+00  0.914953E-01
  0.778040E-01  0.690849E-01  0.647418E-01  0.647418E-01  0.690849E-01  0.778040E-01
  0.914953E-01  0.111834E+00  0.141423E+00  0.182783E+00  0.236971E+00  0.302721E+00
  0.376666E+00  0.454340E+00  0.531078E+00  0.602559E+00  0.665346E+00  0.717435E+00
  0.758404E+00  0.788979E+00  0.810395E+00  0.823882E+00  0.830375E+00  0.830375E+00
  0.866391E+00  0.857951E+00  0.843091E+00  0.820625E+00  0.788979E+00  0.746479E+00
  0.691944E+00  0.625527E+00  0.549350E+00  0.467400E+00  0.384671E+00  0.306280E+00
  0.236971E+00  0.180393E+00  0.137906E+00  0.108104E+00  0.879811E-01  0.747895E-01
  0.670839E-01  0.645142E-01  0.670839E-01  0.747895E-01  0.879811E-01  0.108104E+00
  0.137906E+00  0.180393E+00  0.236971E+00  0.306280E+00  0.384671E+00  0.467400E+00
  0.549350E+00  0.625527E+00  0.691944E+00  0.746479E+00  0.788979E+00  0.820625E+00
  0.843091E+00  0.857951E+00  0.866391E+00  0.869125E+00  0.866391E+00  0.892167E+00
  0.882324E+00  0.866439E+00  0.843091E+00  0.810395E+00  0.766286E+00  0.709199E+00
  0.639113E+00  0.558414E+00  0.471731E+00  0.384671E+00  0.302721E+00  0.230999E+00
  0.173474E+00  0.131269E+00  0.102303E+00  0.831669E-01  0.712556E-01  0.654275E-01
  0.654275E-01  0.712556E-01  0.831669E-01  0.102303E+00  0.131269E+00  0.173474E+00
  0.230999E+00  0.302721E+00  0.384671E+00  0.471731E+00  0.558414E+00  0.639113E+00
  0.709199E+00  0.766286E+00  0.810395E+00  0.843091E+00  0.866439E+00  0.882324E+00
  0.892167E+00  0.896872E+00  0.896872E+00  0.892167E+00  0.910135E+00  0.899170E+00
  0.882324E+00  0.857951E+00  0.823882E+00  0.777724E+00  0.717638E+00  0.643594E+00
  0.558414E+00  0.467400E+00  0.376666E+00  0.292140E+00  0.219479E+00  0.162718E+00
  0.122207E+00  0.950581E-01  0.777345E-01  0.679457E-01  0.647546E-01  0.679457E-01
  0.777345E-01  0.950581E-01  0.122207E+00  0.162718E+00  0.219479E+00  0.292140E+00
  0.376666E+00  0.467400E+00  0.558414E+00  0.643594E+00  0.717638E+00  0.777724E+00
  0.823882E+00  0.857951E+00  0.882324E+00  0.899170E+00  0.910135E+00  0.916312E+00
  0.918307E+00  0.916312E+00  0.910135E+00  0.922167E+00  0.910135E+00  0.892167E+00
  0.866391E+00  0.830375E+00  0.781454E+00  0.717638E+00  0.639113E+00  0.549350E+00
  0.454340E+00  0.360708E+00  0.274993E+00  0.203313E+00  0.149139E+00  0.111615E+00
  0.872067E-01  0.725201E-01  0.655740E-01  0.655740E-01  0.725201E-01  0.872067E-01
  0.111615E+00  0.149139E+00  0.203313E+00  0.274993E+00  0.360708E+00  0.454340E+00
  0.549350E+00  0.639113E+00  0.717638E+00  0.781454E+00  0.830375E+00  0.866391E+00
  0.892167E+00  0.910135E+00  0.922167E+00  0.929550E+00  0.933061E+00  0.933061E+00
  0.929550E+00  0.922167E+00  0.929550E+00  0.916312E+00  0.896872E+00  0.869125E+00
  0.830375E+00  0.777724E+00  0.709199E+00  0.625527E+00  0.531078E+00  0.432594E+00
  0.337287E+00  0.252355E+00  0.183852E+00  0.133960E+00  0.100519E+00  0.796607E-01
  0.682727E-01  0.646514E-01  0.682727E-01  0.796607E-01  0.100519E+00  0.133960E+00
  0.183852E+00  0.252355E+00  0.337287E+00  0.432594E+00  0.531078E+00  0.625527E+00
  0.709199E+00  0.777724E+00  0.830375E+00  0.869125E+00  0.896872E+00  0.916312E+00
  0.929550E+00  0.938075E+00  0.942844E+00  0.944378E+00  0.942844E+00  0.938075E+00
  0.929550E+00  0.933061E+00  0.918307E+00  0.896872E+00  0.866391E+00  0.823882E+00
  0.766286E+00  0.691944E+00  0.602559E+00  0.503663E+00  0.402757E+00  0.307662E+00
  0.225939E+00  0.162744E+00  0.118495E+00  0.899499E-01  0.732051E-01  0.654989E-01
  0.654989E-01  0.732051E-01  0.899499E-01  0.118495E+00  0.162744E+00  0.225939E+00
  0.307662E+00  0.402757E+00  0.503663E+00  0.602559E+00  0.691944E+00  0.766286E+00
  0.823882E+00  0.866391E+00  0.896872E+00  0.918307E+00  0.933061E+00  0.942844E+00
  0.948802E+00  0.951622E+00  0.951622E+00  0.948802E+00  0.942844E+00  0.933061E+00
  0.933061E+00  0.916312E+00  0.892167E+00  0.857951E+00  0.810395E+00  0.746479E+00
  0.665346E+00  0.570169E+00  0.467733E+00  0.366183E+00  0.273790E+00  0.197805E+00
  0.141671E+00  0.103967E+00  0.807574E-01  0.683597E-01  0.644806E-01  0.683597E-01
  0.807574E-01  0.103967E+00  0.141671E+00  0.197805E+00  0.273790E+00  0.366183E+00
  0.467733E+00  0.570169E+00  0.665346E+00  0.746479E+00  0.810395E+00  0.857951E+00
  0.892167E+00  0.916312E+00  0.933061E+00  0.944378E+00  0.951622E+00  0.955656E+00
  0.956952E+00  0.955656E+00  0.951622E+00  0.944378E+00  0.933061E+00  0.929550E+00
  0.910135E+00  0.882324E+00  0.843091E+00  0.788979E+00  0.717435E+00  0.629060E+00
  0.528830E+00  0.424581E+00  0.324864E+00  0.237996E+00  0.170012E+00  0.122110E+00
  0.913178E-01  0.734825E-01  0.653879E-01  0.653879E-01  0.734825E-01  0.913178E-01
  0.122110E+00  0.170012E+00  0.237996E+00  0.324864E+00  0.424581E+00  0.528830E+00
  0.629060E+00  0.717435E+00  0.788979E+00  0.843091E+00  0.882324E+00  0.910135E+00
  0.929550E+00  0.942844E+00  0.951622E+00  0.956952E+00  0.959469E+00  0.959469E+00
  0.956952E+00  0.951622E+00  0.942844E+00  0.929550E+00  0.922167E+00  0.899170E+00
  0.866439E+00  0.820625E+00  0.758404E+00  0.678384E+00  0.583241E+00  0.479674E+00
  0.376120E+00  0.281231E+00  0.202672E+00  0.144346E+00  0.105133E+00  0.811002E-01
  0.683560E-01  0.643901E-01  0.683560E-01  0.811002E-01  0.105133E+00  0.144346E+00
  0.202672E+00  0.281231E+00  0.376120E+00  0.479674E+00  0.583241E+00  0.678384E+00
  0.758404E+00  0.820625E+00  0.866439E+00  0.899170E+00  0.922167E+00  0.938075E+00
  0.948802E+00  0.955656E+00  0.959469E+00  0.960693E+00  0.959469E+00  0.955656E+00
  0.948802E+00  0.938075E+00  0.922167E+00  0.910135E+00  0.882324E+00  0.843091E+00
  0.788979E+00  0.717435E+00  0.629060E+00  0.528830E+00  0.424581E+00  0.324864E+00
  0.237996E+00  0.170012E+00  0.122110E+00  0.913178E-01  0.734825E-01  0.653879E-01
  0.653879E-01  0.734825E-01  0.913178E-01  0.122110E+00  0.170012E+00  0.237996E+00
  0.324864E+00  0.424581E+00  0.528830E+00  0.629060E+00  0.717435E+00  0.788979E+00
  0.843091E+00  0.882324E+00  0.910135E+00  0.929550E+00  0.942844E+00  0.951622E+00
  0.956952E+00  0.959469E+00  0.959469E+00  0.956952E+00  0.951622E+00  0.942844E+00
  0.929550E+00  0.910135E+00  0.892167E+00  0.857951E+00  0.810395E+00  0.746479E+00
  0.665346E+00  0.570169E+00  0.467733E+00  0.366183E+00  0.273790E+00  0.197805E+00
  0.141671E+00  0.103967E+00  0.807574E-01  0.683597E-01  0.644806E-01  0.683597E-01
  0.807574E-01  0.103967E+00  0.141671E+00  0.197805E+00  0.273790E+00  0.366183E+00
  0.467733E+00  0.570169E+00  0.665346E+00  0.746479E+00  0.810395E+00  0.857951E+00
  0.892167E+00  0.916312E+00  0.933061E+00  0.944378E+00  0.951622E+00  0.955656E+00
  0.956952E+00  0.955656E+00  0.951622E+00  0.944378E+00  0.933061E+00  0.916312E+00
  0.892167E+00  0.866391E+00  0.823882E+00  0.766286E+00  0.691944E+00  0.602559E+00
  0.503663E+00  0.402757E+00  0.307662E+00  0.225939E+00  0.162744E+00  0.118495E+00
  0.899499E-01  0.732051E-01  0.654989E-01  0.654989E-01  0.732051E-01  0.899499E-01
  0.118495E+00  0.162744E+00  0.225939E+00  0.307662E+00  0.402757E+00  0.503663E+00
  0.602559E+00  0.691944E+00  0.766286E+00  0.823882E+00  0.866391E+00  0.896872E+00
  0.918307E+00  0.933061E+00  0.942844E+00  0.948802E+00  0.951622E+00  0.951622E+00
  0.948802E+00  0.942844E+00  0.933061E+00  0.918307E+00  0.896872E+00  0.866391E+00
  0.830375E+00  0.777724E+00  0.709199E+00  0.625527E+00  0.531078E+00  0.432594E+00
  0.337287E+00  0.252355E+00  0.183852E+00  0.133960E+00  0.100519E+00  0.796607E-01
  0.682727E-01  0.646514E-01  0.682727E-01  0.796607E-01  0.100519E+00  0.133960E+00
  0.183852E+00  0.252355E+00  0.337287E+00  0.432594E+00  0.531078E+00  0.625527E+00
  0.709199E+00  0.777724E+00  0.830375E+00  0.869125E+00  0.896872E+00  0.916312E+00
  0.929550E+00  0.938075E+00  0.942844E+00  0.944378E+00  0.942844E+00  0.938075E+00
  0.929550E+00  0.916312E+00  0.896872E+00  0.869125E+00  0.830375E+00  0.781454E+00
  0.717638E+00  0.639113E+00  0.549350E+00  0.454340E+00  0.360708E+00  0.274993E+00
  0.203313E+00  0.149139E+00  0.111615E+00  0.872067E-01  0.725201E-01  0.655740E-01
  0.655740E-01  0.725201E-01  0.872067E-01  0.111615E+00  0.149139E+00  0.203313E+00
  0.274993E+00  0.360708E+00  0.454340E+00  0.549350E+00  0.639113E+00  0.717638E+00
  0.781454E+00  0.830375E+00  0.866391E+00  0.892167E+00  0.910135E+00  0.922167E+00
  0.929550E+00  0.933061E+00  0.933061E+00  0.929550E+00  0.922167E+00  0.910135E+00
  0.892167E+00  0.866391E+00  0.830375E+00  0.781454E+00  0.743123E+00  0.673034E+00
  0.590561E+00  0.500266E+00  0.408431E+00  0.321634E+00  0.245980E+00  0.185748E+00
  0.141725E+00  0.111615E+00  0.922641E-01  0.813843E-01  0.778605E-01  0.813843E-01
  0.922641E-01  0.111615E+00  0.141725E+00  0.185748E+00  0.245980E+00  0.321634E+00
  0.408431E+00  0.500266E+00  0.590561E+00  0.673034E+00  0.743123E+00  0.799126E+00
  0.841850E+00  0.873354E+00  0.895915E+00  0.911506E+00  0.921634E+00  0.927322E+00
  0.929155E+00  0.927322E+00  0.921634E+00  0.911506E+00  0.895915E+00  0.873354E+00
  0.841850E+00  0.799126E+00  0.743123E+00  0.673034E+00  0.595102E+00  0.509237E+00
  0.421131E+00  0.336835E+00  0.261909E+00  0.200622E+00  0.154555E+00  0.122207E+00
  0.100578E+00  0.871398E-01  0.806154E-01  0.806154E-01  0.871398E-01  0.100578E+00
  0.122207E+00  0.154555E+00  0.200622E+00  0.261909E+00  0.336835E+00  0.421131E+00
  0.509237E+00  0.595102E+00  0.673034E+00  0.739124E+00  0.792055E+00  0.832599E+00
  0.862563E+00  0.883940E+00  0.898465E+00  0.907443E+00  0.911726E+00  0.911726E+00
  0.907443E+00  0.898465E+00  0.883940E+00  0.862563E+00  0.832599E+00  0.792055E+00
  0.739124E+00  0.673034E+00  0.590561E+00  0.509237E+00  0.425375E+00  0.344582E+00
  0.271949E+00  0.211393E+00  0.164763E+00  0.131269E+00  0.108313E+00  0.932255E-01
  0.844566E-01  0.815465E-01  0.844566E-01  0.932255E-01  0.108313E+00  0.131269E+00
  0.164763E+00  0.211393E+00  0.271949E+00  0.344582E+00  0.425375E+00  0.509237E+00
  0.590561E+00  0.664254E+00  0.726956E+00  0.777506E+00  0.816466E+00  0.845300E+00
  0.865690E+00  0.879131E+00  0.886743E+00  0.889205E+00  0.886743E+00  0.879131E+00
  0.865690E+00  0.845300E+00  0.816466E+00  0.777506E+00  0.726956E+00  0.664254E+00
  0.590561E+00  0.500266E+00  0.421131E+00  0.344582E+00  0.275379E+00  0.217075E+00
  0.171389E+00  0.137906E+00  0.114535E+00  0.987199E-01  0.886433E-01  0.836237E-01
  0.836237E-01  0.886433E-01  0.987199E-01  0.114535E+00  0.137906E+00  0.171389E+00
  0.217075E+00  0.275379E+00  0.344582E+00  0.421131E+00  0.500266E+00  0.576863E+00
  0.646469E+00  0.706145E+00  0.754705E+00  0.792375E+00  0.820212E+00  0.839561E+00
  0.851675E+00  0.857485E+00  0.857485E+00  0.851675E+00  0.839561E+00  0.820212E+00
  0.792375E+00  0.754705E+00  0.706145E+00  0.646469E+00  0.576863E+00  0.500266E+00
  0.408431E+00  0.336835E+00  0.271949E+00  0.217075E+00  0.173694E+00  0.141423E+00
  0.118539E+00  0.102802E+00  0.923386E-01  0.861746E-01  0.841093E-01  0.861746E-01
  0.923386E-01  0.102802E+00  0.118539E+00  0.141423E+00  0.173694E+00  0.217075E+00
  0.271949E+00  0.336835E+00  0.408431E+00  0.482304E+00  0.553899E+00  0.619366E+00
  0.676045E+00  0.722610E+00  0.758897E+00  0.785531E+00  0.803499E+00  0.813794E+00
  0.817138E+00  0.813794E+00  0.803499E+00  0.785531E+00  0.758897E+00  0.722610E+00
  0.676045E+00  0.619366E+00  0.553899E+00  0.482304E+00  0.408431E+00  0.321634E+00
  0.261909E+00  0.211393E+00  0.171389E+00  0.141423E+00  0.119917E+00  0.104952E+00
  0.948361E-01  0.884513E-01  0.853094E-01  0.853094E-01  0.884513E-01  0.948361E-01
  0.104952E+00  0.119917E+00  0.141423E+00  0.171389E+00  0.211393E+00  0.261909E+00
  0.321634E+00  0.387510E+00  0.455541E+00  0.521752E+00  0.582755E+00  0.636052E+00
  0.680158E+00  0.714537E+00  0.739381E+00  0.755313E+00  0.763046E+00  0.763046E+00
  0.755313E+00  0.739381E+00  0.714537E+00  0.680158E+00  0.636052E+00  0.582755E+00
  0.521752E+00  0.455541E+00  0.387510E+00  0.321634E+00  0.245980E+00  0.200622E+00
  0.164763E+00  0.137906E+00  0.118539E+00  0.104952E+00  0.957126E-01  0.897868E-01
  0.864908E-01  0.854345E-01  0.864908E-01  0.897868E-01  0.957126E-01  0.104952E+00
  0.118539E+00  0.137906E+00  0.164763E+00  0.200622E+00  0.245980E+00  0.299688E+00
  0.359064E+00  0.420642E+00  0.480923E+00  0.536835E+00  0.585990E+00  0.626776E+00
  0.658326E+00  0.680442E+00  0.693413E+00  0.697670E+00  0.693413E+00  0.680442E+00
  0.658326E+00  0.626776E+00  0.585990E+00  0.536835E+00  0.480923E+00  0.420642E+00
  0.359064E+00  0.299688E+00  0.245980E+00  0.185748E+00  0.154555E+00  0.131269E+00
  0.114535E+00  0.102802E+00  0.948361E-01  0.897868E-01  0.869786E-01  0.857884E-01
  0.857884E-01  0.869786E-01  0.897868E-01  0.948361E-01  0.102802E+00  0.114535E+00
  0.131269E+00  0.154555E+00  0.185748E+00  0.225285E+00  0.272236E+00  0.324419E+00
  0.378901E+00  0.432565E+00  0.482585E+00  0.526663E+00  0.563063E+00  0.590640E+00
  0.608913E+00  0.617943E+00  0.617943E+00  0.608913E+00  0.590640E+00  0.563063E+00
  0.526663E+00  0.482585E+00  0.432565E+00  0.378901E+00  0.324419E+00  0.272236E+00
  0.225285E+00  0.185748E+00  0.141725E+00  0.122207E+00  0.108313E+00  0.987199E-01
  0.923386E-01  0.884513E-01  0.864908E-01  0.857884E-01  0.856575E-01  0.857884E-01
  0.864908E-01  0.884513E-01  0.923386E-01  0.987199E-01  0.108313E+00  0.122207E+00
  0.141725E+00  0.167962E+00  0.201282E+00  0.241029E+00  0.285526E+00  0.332334E+00
  0.378727E+00  0.422125E+00  0.460270E+00  0.491273E+00  0.513817E+00  0.527332E+00
  0.531810E+00  0.527332E+00  0.513817E+00  0.491273E+00  0.460270E+00  0.422125E+00
  0.378727E+00  0.332334E+00  0.285526E+00  0.241029E+00  0.201282E+00  0.167962E+00
  0.141725E+00  0.111615E+00  0.100578E+00  0.932255E-01  0.886433E-01  0.861746E-01
  0.853094E-01  0.854345E-01  0.857884E-01  0.857884E-01  0.854345E-01  0.853094E-01
  0.861746E-01  0.886433E-01  0.932255E-01  0.100578E+00  0.111615E+00  0.127353E+00
  0.148609E+00  0.175696E+00  0.208193E+00  0.244835E+00  0.283667E+00  0.322397E+00
  0.358688E+00  0.390274E+00  0.415170E+00  0.432080E+00  0.440537E+00  0.440537E+00
  0.432080E+00  0.415170E+00  0.390274E+00  0.358688E+00  0.322397E+00  0.283667E+00
  0.244835E+00  0.208193E+00  0.175696E+00  0.148609E+00  0.127353E+00  0.111615E+00
  0.922641E-01  0.871398E-01  0.844566E-01  0.836237E-01  0.841093E-01  0.853094E-01
  0.864908E-01  0.869786E-01  0.864908E-01  0.853094E-01  0.841093E-01  0.836237E-01
  0.844566E-01  0.871398E-01  0.922641E-01  0.100519E+00  0.112620E+00  0.129151E+00
  0.150368E+00  0.175980E+00  0.205038E+00  0.236029E+00  0.267076E+00  0.296061E+00
  0.320781E+00  0.339367E+00  0.350727E+00  0.354522E+00  0.350727E+00  0.339367E+00
  0.320781E+00  0.296061E+00  0.267076E+00  0.236029E+00  0.205038E+00  0.175980E+00
  0.150368E+00  0.129151E+00  0.112620E+00  0.100519E+00  0.922641E-01  0.813843E-01
  0.806154E-01  0.815465E-01  0.836237E-01  0.861746E-01  0.884513E-01  0.897868E-01
  0.897868E-01  0.884513E-01  0.861746E-01  0.836237E-01  0.815465E-01  0.806154E-01
  0.813843E-01  0.843371E-01  0.899499E-01  0.986993E-01  0.110986E+00  0.126977E+00
  0.146428E+00  0.168606E+00  0.192336E+00  0.216060E+00  0.237906E+00  0.255937E+00
  0.268613E+00  0.275088E+00  0.275088E+00  0.268613E+00  0.255937E+00  0.237906E+00
  0.216060E+00  0.192336E+00  0.168606E+00  0.146428E+00  0.126977E+00  0.110986E+00
  0.986993E-01  0.899499E-01  0.843371E-01  0.813843E-01  0.778605E-01  0.806154E-01
  0.844566E-01  0.886433E-01  0.923386E-01  0.948361E-01  0.957126E-01  0.948361E-01
  0.923386E-01  0.886433E-01  0.844566E-01  0.806154E-01  0.778605E-01  0.767256E-01
  0.775859E-01  0.807574E-01  0.865446E-01  0.951903E-01  0.106752E+00  0.120985E+00
  0.137289E+00  0.154692E+00  0.171875E+00  0.187277E+00  0.199384E+00  0.207057E+00
  0.209676E+00  0.207057E+00  0.199384E+00  0.187277E+00  0.171875E+00  0.154692E+00
  0.137289E+00  0.120985E+00  0.106752E+00  0.951903E-01  0.865446E-01  0.807574E-01
  0.775859E-01  0.767256E-01  0.778605E-01  0.813843E-01  0.871398E-01  0.932255E-01
  0.987199E-01  0.102802E+00  0.104952E+00  0.104952E+00  0.102802E+00  0.987199E-01
  0.932255E-01  0.871398E-01  0.813843E-01  0.767256E-01  0.736695E-01  0.725193E-01
  0.734825E-01  0.767236E-01  0.823387E-01  0.902865E-01  0.100311E+00  0.111875E+00
  0.124122E+00  0.135927E+00  0.146065E+00  0.153454E+00  0.157337E+00  0.157337E+00
  0.153454E+00  0.146065E+00  0.135927E+00  0.124122E+00  0.111875E+00  0.100311E+00
  0.902865E-01  0.823387E-01  0.767236E-01  0.734825E-01  0.725193E-01  0.736695E-01
  0.767256E-01  0.813843E-01  0.922641E-01  0.100578E+00  0.108313E+00  0.114535E+00
  0.118539E+00  0.119917E+00  0.118539E+00  0.114535E+00  0.108313E+00  0.100578E+00
  0.922641E-01  0.843371E-01  0.775859E-01  0.725193E-01  0.694044E-01  0.683560E-01
  0.694044E-01  0.725193E-01  0.775859E-01  0.843371E-01  0.922641E-01  0.100578E+00
  0.108313E+00  0.114535E+00  0.118539E+00  0.119917E+00  0.118539E+00  0.114535E+00
  0.108313E+00  0.100578E+00  0.922641E-01  0.843371E-01  0.775859E-01  0.725193E-01
  0.694044E-01  0.683560E-01  0.694044E-01  0.725193E-01  0.775859E-01  0.843371E-01
  0.922641E-01  0.111615E+00  0.122207E+00  0.131269E+00  0.137906E+00  0.141423E+00
  0.141423E+00  0.137906E+00  0.131269E+00  0.122207E+00  0.111615E+00  0.100519E+00
  0.899499E-01  0.807574E-01  0.734825E-01  0.683560E-01  0.653879E-01  0.644806E-01
  0.654989E-01  0.682727E-01  0.725201E-01  0.777345E-01  0.831669E-01  0.879811E-01
  0.914953E-01  0.933217E-01  0.933217E-01  0.914953E-01  0.879811E-01  0.831669E-01
  0.777345E-01  0.725201E-01  0.682727E-01  0.654989E-01  0.644806E-01  0.653879E-01
  0.683560E-01  0.734825E-01  0.807574E-01  0.899499E-01  0.100519E+00  0.111615E+00
  0.141725E+00  0.154555E+00  0.164763E+00  0.171389E+00  0.173694E+00  0.171389E+00
  0.164763E+00  0.154555E+00  0.141725E+00  0.127353E+00  0.112620E+00  0.986993E-01
  0.865446E-01  0.767236E-01  0.694044E-01  0.644806E-01  0.617303E-01  0.609224E-01
  0.618261E-01  0.641174E-01  0.672720E-01  0.705824E-01  0.733511E-01  0.751196E-01
  0.757171E-01  0.751196E-01  0.733511E-01  0.705824E-01  0.672720E-01  0.641174E-01
  0.618261E-01  0.609224E-01  0.617303E-01  0.644806E-01  0.694044E-01  0.767236E-01
  0.865446E-01  0.986993E-01  0.112620E+00  0.127353E+00  0.141725E+00  0.185748E+00
  0.200622E+00  0.211393E+00  0.217075E+00  0.217075E+00  0.211393E+00  0.200622E+00
  0.185748E+00  0.167962E+00  0.148609E+00  0.129151E+00  0.110986E+00  0.951903E-01
  0.823387E-01  0.725193E-01  0.654989E-01  0.609224E-01  0.584434E-01  0.577323E-01
  0.583947E-01  0.598989E-01  0.616181E-01  0.630070E-01  0.637526E-01  0.637526E-01
  0.630070E-01  0.616181E-01  0.598989E-01  0.583947E-01  0.577323E-01  0.584434E-01
  0.609224E-01  0.654989E-01  0.725193E-01  0.823387E-01  0.951903E-01  0.110986E+00
  0.129151E+00  0.148609E+00  0.167962E+00  0.185748E+00  0.245980E+00  0.261909E+00
  0.271949E+00  0.275379E+00  0.271949E+00  0.261909E+00  0.245980E+00  0.225285E+00
  0.201282E+00  0.175696E+00  0.150368E+00  0.126977E+00  0.106752E+00  0.902865E-01
  0.775859E-01  0.682727E-01  0.618261E-01  0.577323E-01  0.555232E-01  0.547408E-01
  0.548912E-01  0.554598E-01  0.559970E-01  0.562090E-01  0.559970E-01  0.554598E-01
  0.548912E-01  0.547408E-01  0.555232E-01  0.577323E-01  0.618261E-01  0.682727E-01
  0.775859E-01  0.902865E-01  0.106752E+00  0.126977E+00  0.150368E+00  0.175696E+00
  0.201282E+00  0.225285E+00  0.245980E+00  0.321634E+00  0.336835E+00  0.344582E+00
  0.344582E+00  0.336835E+00  0.321634E+00  0.299688E+00  0.272236E+00  0.241029E+00
  0.208193E+00  0.175980E+00  0.146428E+00  0.120985E+00  0.100311E+00  0.843371E-01
  0.725201E-01  0.641174E-01  0.583947E-01  0.547408E-01  0.526775E-01  0.517834E-01
  0.516051E-01  0.516755E-01  0.516755E-01  0.516051E-01  0.517834E-01  0.526775E-01
  0.547408E-01  0.583947E-01  0.641174E-01  0.725201E-01  0.843371E-01  0.100311E+00
  0.120985E+00  0.146428E+00  0.175980E+00  0.208193E+00  0.241029E+00  0.272236E+00
  0.299688E+00  0.321634E+00  0.408431E+00  0.421131E+00  0.425375E+00  0.421131E+00
  0.408431E+00  0.387510E+00  0.359064E+00  0.324419E+00  0.285526E+00  0.244835E+00
  0.205038E+00  0.168606E+00  0.137289E+00  0.111875E+00  0.922641E-01  0.777345E-01
  0.672720E-01  0.598989E-01  0.548912E-01  0.517834E-01  0.501780E-01  0.495751E-01
  0.494527E-01  0.495751E-01  0.501780E-01  0.517834E-01  0.548912E-01  0.598989E-01
  0.672720E-01  0.777345E-01  0.922641E-01  0.111875E+00  0.137289E+00  0.168606E+00
  0.205038E+00  0.244835E+00  0.285526E+00  0.324419E+00  0.359064E+00  0.387510E+00
  0.408431E+00  0.500266E+00  0.509237E+00  0.509237E+00  0.500266E+00  0.482304E+00
  0.455541E+00  0.420642E+00  0.378901E+00  0.332334E+00  0.283667E+00  0.236029E+00
  0.192336E+00  0.154692E+00  0.124122E+00  0.100578E+00  0.831669E-01  0.705824E-01
  0.616181E-01  0.554598E-01  0.516051E-01  0.495751E-01  0.487902E-01  0.487902E-01
  0.495751E-01  0.516051E-01  0.554598E-01  0.616181E-01  0.705824E-01  0.831669E-01
  0.100578E+00  0.124122E+00  0.154692E+00  0.192336E+00  0.236029E+00  0.283667E+00
  0.332334E+00  0.378901E+00  0.420642E+00  0.455541E+00  0.482304E+00  0.500266E+00
  0.590561E+00  0.595102E+00  0.590561E+00  0.576863E+00  0.553899E+00  0.521752E+00
  0.480923E+00  0.432565E+00  0.378727E+00  0.322397E+00  0.267076E+00  0.216060E+00
  0.171875E+00  0.135927E+00  0.108313E+00  0.879811E-01  0.733511E-01  0.630070E-01
  0.559970E-01  0.516755E-01  0.494527E-01  0.487902E-01  0.494527E-01  0.516755E-01
  0.559970E-01  0.630070E-01  0.733511E-01  0.879811E-01  0.108313E+00  0.135927E+00
  0.171875E+00  0.216060E+00  0.267076E+00  0.322397E+00  0.378727E+00  0.432565E+00
  0.480923E+00  0.521752E+00  0.553899E+00  0.576863E+00  0.590561E+00  0.673034E+00
  0.673034E+00  0.664254E+00  0.646469E+00  0.619366E+00  0.582755E+00  0.536835E+00
  0.482585E+00  0.422125E+00  0.358688E+00  0.296061E+00  0.237906E+00  0.187277E+00
  0.146065E+00  0.114535E+00  0.914953E-01  0.751196E-01  0.637526E-01  0.562090E-01
  0.516755E-01  0.495751E-01  0.495751E-01  0.516755E-01  0.562090E-01  0.637526E-01
  0.751196E-01  0.914953E-01  0.114535E+00  0.146065E+00  0.187277E+00  0.237906E+00
  0.296061E+00  0.358688E+00  0.422125E+00  0.482585E+00  0.536835E+00  0.582755E+00
  0.619366E+00  0.646469E+00  0.664254E+00  0.673034E+00  0.743123E+00  0.739124E+00
  0.726956E+00  0.706145E+00  0.676045E+00  0.636052E+00  0.585990E+00  0.526663E+00
  0.460270E+00  0.390274E+00  0.320781E+00  0.255937E+00  0.199384E+00  0.153454E+00
  0.118539E+00  0.933217E-01  0.757171E-01  0.637526E-01  0.559970E-01  0.516051E-01
  0.501780E-01  0.516051E-01  0.559970E-01  0.637526E-01  0.757171E-01  0.933217E-01
  0.118539E+00  0.153454E+00  0.199384E+00  0.255937E+00  0.320781E+00  0.390274E+00
  0.460270E+00  0.526663E+00  0.585990E+00  0.636052E+00  0.676045E+00  0.706145E+00
  0.726956E+00  0.739124E+00  0.743123E+00  0.799126E+00  0.792055E+00  0.777506E+00
  0.754705E+00  0.722610E+00  0.680158E+00  0.626776E+00  0.563063E+00  0.491273E+00
  0.415170E+00  0.339367E+00  0.268613E+00  0.207057E+00  0.157337E+00  0.119917E+00
  0.933217E-01  0.751196E-01  0.630070E-01  0.554598E-01  0.517834E-01  0.517834E-01
  0.554598E-01  0.630070E-01  0.751196E-01  0.933217E-01  0.119917E+00  0.157337E+00
  0.207057E+00  0.268613E+00  0.339367E+00  0.415170E+00  0.491273E+00  0.563063E+00
  0.626776E+00  0.680158E+00  0.722610E+00  0.754705E+00  0.777506E+00  0.792055E+00
  0.799126E+00  0.799126E+00  0.841850E+00  0.832599E+00  0.816466E+00  0.792375E+00
  0.758897E+00  0.714537E+00  0.658326E+00  0.590640E+00  0.513817E+00  0.432080E+00
  0.350727E+00  0.275088E+00  0.209676E+00  0.157337E+00  0.118539E+00  0.914953E-01
  0.733511E-01  0.616181E-01  0.548912E-01  0.526775E-01  0.548912E-01  0.616181E-01
  0.733511E-01  0.914953E-01  0.118539E+00  0.157337E+00  0.209676E+00  0.275088E+00
  0.350727E+00  0.432080E+00  0.513817E+00  0.590640E+00  0.658326E+00  0.714537E+00
  0.758897E+00  0.792375E+00  0.816466E+00  0.832599E+00  0.841850E+00  0.844862E+00
  0.841850E+00  0.873354E+00  0.862563E+00  0.845300E+00  0.820212E+00  0.785531E+00
  0.739381E+00  0.680442E+00  0.608913E+00  0.527332E+00  0.440537E+00  0.354522E+00
  0.275088E+00  0.207057E+00  0.153454E+00  0.114535E+00  0.879811E-01  0.705824E-01
  0.598989E-01  0.547408E-01  0.547408E-01  0.598989E-01  0.705824E-01  0.879811E-01
  0.114535E+00  0.153454E+00  0.207057E+00  0.275088E+00  0.354522E+00  0.440537E+00
  0.527332E+00  0.608913E+00  0.680442E+00  0.739381E+00  0.785531E+00  0.820212E+00
  0.845300E+00  0.862563E+00  0.873354E+00  0.878541E+00  0.878541E+00  0.873354E+00
  0.895915E+00  0.883940E+00  0.865690E+00  0.839561E+00  0.803499E+00  0.755313E+00
  0.693413E+00  0.617943E+00  0.531810E+00  0.440537E+00  0.350727E+00  0.268613E+00
  0.199384E+00  0.146065E+00  0.108313E+00  0.831669E-01  0.672720E-01  0.583947E-01
  0.555232E-01  0.583947E-01  0.672720E-01  0.831669E-01  0.108313E+00  0.146065E+00
  0.199384E+00  0.268613E+00  0.350727E+00  0.440537E+00  0.531810E+00  0.617943E+00
  0.693413E+00  0.755313E+00  0.803499E+00  0.839561E+00  0.865690E+00  0.883940E+00
  0.895915E+00  0.902697E+00  0.904893E+00  0.902697E+00  0.895915E+00  0.911506E+00
  0.898465E+00  0.879131E+00  0.851675E+00  0.813794E+00  0.763046E+00  0.697670E+00
  0.617943E+00  0.527332E+00  0.432080E+00  0.339367E+00  0.255937E+00  0.187277E+00
  0.135927E+00  0.100578E+00  0.777345E-01  0.641174E-01  0.577323E-01  0.577323E-01
  0.641174E-01  0.777345E-01  0.100578E+00  0.135927E+00  0.187277E+00  0.255937E+00
  0.339367E+00  0.432080E+00  0.527332E+00  0.617943E+00  0.697670E+00  0.763046E+00
  0.813794E+00  0.851675E+00  0.879131E+00  0.898465E+00  0.911506E+00  0.919548E+00
  0.923383E+00  0.923383E+00  0.919548E+00  0.911506E+00  0.921634E+00  0.907443E+00
  0.886743E+00  0.857485E+00  0.817138E+00  0.763046E+00  0.693413E+00  0.608913E+00
  0.513817E+00  0.415170E+00  0.320781E+00  0.237906E+00  0.171875E+00  0.124122E+00
  0.922641E-01  0.725201E-01  0.618261E-01  0.584434E-01  0.618261E-01  0.725201E-01
  0.922641E-01  0.124122E+00  0.171875E+00  0.237906E+00  0.320781E+00  0.415170E+00
  0.513817E+00  0.608913E+00  0.693413E+00  0.763046E+00  0.817138E+00  0.857485E+00
  0.886743E+00  0.907443E+00  0.921634E+00  0.930811E+00  0.935958E+00  0.937617E+00
  0.935958E+00  0.930811E+00  0.921634E+00  0.927322E+00  0.911726E+00  0.889205E+00
  0.857485E+00  0.813794E+00  0.755313E+00  0.680442E+00  0.590640E+00  0.491273E+00
  0.390274E+00  0.296061E+00  0.216060E+00  0.154692E+00  0.111875E+00  0.843371E-01
  0.682727E-01  0.609224E-01  0.609224E-01  0.682727E-01  0.843371E-01  0.111875E+00
  0.154692E+00  0.216060E+00  0.296061E+00  0.390274E+00  0.491273E+00  0.590640E+00
  0.680442E+00  0.755313E+00  0.813794E+00  0.857485E+00  0.889205E+00  0.911726E+00
  0.927322E+00  0.937698E+00  0.944028E+00  0.947028E+00  0.947028E+00  0.944028E+00
  0.937698E+00  0.927322E+00  0.929155E+00  0.911726E+00  0.886743E+00  0.851675E+00
  0.803499E+00  0.739381E+00  0.658326E+00  0.563063E+00  0.460270E+00  0.358688E+00
  0.267076E+00  0.192336E+00  0.137289E+00  0.100311E+00  0.775859E-01  0.654989E-01
  0.617303E-01  0.654989E-01  0.775859E-01  0.100311E+00  0.137289E+00  0.192336E+00
  0.267076E+00  0.358688E+00  0.460270E+00  0.563063E+00  0.658326E+00  0.739381E+00
  0.803499E+00  0.851675E+00  0.886743E+00  0.911726E+00  0.929155E+00  0.940962E+00
  0.948525E+00  0.952738E+00  0.954090E+00  0.952738E+00  0.948525E+00  0.940962E+00
  0.929155E+00  0.927322E+00  0.907443E+00  0.879131E+00  0.839561E+00  0.785531E+00
  0.714537E+00  0.626776E+00  0.526663E+00  0.422125E+00  0.322397E+00  0.236029E+00
  0.168606E+00  0.120985E+00  0.902865E-01  0.725193E-01  0.644806E-01  0.644806E-01
  0.725193E-01  0.902865E-01  0.120985E+00  0.168606E+00  0.236029E+00  0.322397E+00
  0.422125E+00  0.526663E+00  0.626776E+00  0.714537E+00  0.785531E+00  0.839561E+00
  0.879131E+00  0.907443E+00  0.927322E+00  0.940962E+00  0.949969E+00  0.955432E+00
  0.958011E+00  0.958011E+00  0.955432E+00  0.949969E+00  0.940962E+00  0.927322E+00
  0.921634E+00  0.898465E+00  0.865690E+00  0.820212E+00  0.758897E+00  0.680158E+00
  0.585990E+00  0.482585E+00  0.378727E+00  0.283667E+00  0.205038E+00  0.146428E+00
  0.106752E+00  0.823387E-01  0.694044E-01  0.653879E-01  0.694044E-01  0.823387E-01
  0.106752E+00  0.146428E+00  0.205038E+00  0.283667E+00  0.378727E+00  0.482585E+00
  0.585990E+00  0.680158E+00  0.758897E+00  0.820212E+00  0.865690E+00  0.898465E+00
  0.921634E+00  0.937698E+00  0.948525E+00  0.955432E+00  0.959268E+00  0.960498E+00
  0.959268E+00  0.955432E+00  0.948525E+00  0.937698E+00  0.921634E+00  0.911506E+00
  0.883940E+00  0.845300E+00  0.792375E+00  0.722610E+00  0.636052E+00  0.536835E+00
  0.432565E+00  0.332334E+00  0.244835E+00  0.175980E+00  0.126977E+00  0.951903E-01
  0.767236E-01  0.683560E-01  0.683560E-01  0.767236E-01  0.951903E-01  0.126977E+00
  0.175980E+00  0.244835E+00  0.332334E+00  0.432565E+00  0.536835E+00  0.636052E+00
  0.722610E+00  0.792375E+00  0.845300E+00  0.883940E+00  0.911506E+00  0.930811E+00
  0.944028E+00  0.952738E+00  0.958011E+00  0.960498E+00  0.960498E+00  0.958011E+00
  0.952738E+00  0.944028E+00  0.930811E+00  0.911506E+00  0.895915E+00  0.862563E+00
  0.816466E+00  0.754705E+00  0.676045E+00  0.582755E+00  0.480923E+00  0.378901E+00
  0.285526E+00  0.208193E+00  0.150368E+00  0.110986E+00  0.865446E-01  0.734825E-01
  0.694044E-01  0.734825E-01  0.865446E-01  0.110986E+00  0.150368E+00  0.208193E+00
  0.285526E+00  0.378901E+00  0.480923E+00  0.582755E+00  0.676045E+00  0.754705E+00
  0.816466E+00  0.862563E+00  0.895915E+00  0.919548E+00  0.935958E+00  0.947028E+00
  0.954090E+00  0.958011E+00  0.959268E+00  0.958011E+00  0.954090E+00  0.947028E+00
  0.935958E+00  0.919548E+00  0.895915E+00  0.873354E+00  0.832599E+00  0.777506E+00
  0.706145E+00  0.619366E+00  0.521752E+00  0.420642E+00  0.324419E+00  0.241029E+00
  0.175696E+00  0.129151E+00  0.986993E-01  0.807574E-01  0.725193E-01  0.725193E-01
  0.807574E-01  0.986993E-01  0.129151E+00  0.175696E+00  0.241029E+00  0.324419E+00
  0.420642E+00  0.521752E+00  0.619366E+00  0.706145E+00  0.777506E+00  0.832599E+00
  0.873354E+00  0.902697E+00  0.923383E+00  0.937617E+00  0.947028E+00  0.952738E+00
  0.955432E+00  0.955432E+00  0.952738E+00  0.947028E+00  0.937617E+00  0.923383E+00
  0.902697E+00  0.873354E+00  0.841850E+00  0.792055E+00  0.726956E+00  0.646469E+00
  0.553899E+00  0.455541E+00  0.359064E+00  0.272236E+00  0.201282E+00  0.148609E+00
  0.112620E+00  0.899499E-01  0.775859E-01  0.736695E-01  0.775859E-01  0.899499E-01
  0.112620E+00  0.148609E+00  0.201282E+00  0.272236E+00  0.359064E+00  0.455541E+00
  0.553899E+00  0.646469E+00  0.726956E+00  0.792055E+00  0.841850E+00  0.878541E+00
  0.904893E+00  0.923383E+00  0.935958E+00  0.944028E+00  0.948525E+00  0.949969E+00
  0.948525E+00  0.944028E+00  0.935958E+00  0.923383E+00  0.904893E+00  0.878541E+00
  0.841850E+00  0.799126E+00  0.739124E+00  0.664254E+00  0.576863E+00  0.482304E+00
  0.387510E+00  0.299688E+00  0.225285E+00  0.167962E+00  0.127353E+00  0.100519E+00
  0.843371E-01  0.767256E-01  0.767256E-01  0.843371E-01  0.100519E+00  0.127353E+00
  0.167962E+00  0.225285E+00  0.299688E+00  0.387510E+00  0.482304E+00  0.576863E+00
  0.664254E+00  0.739124E+00  0.799126E+00  0.844862E+00  0.878541E+00  0.902697E+00
  0.919548E+00  0.930811E+00  0.937698E+00  0.940962E+00  0.940962E+00  0.937698E+00
  0.930811E+00  0.919548E+00  0.902697E+00  0.878541E+00  0.844862E+00  0.799126E+00
  0.743123E+00  0.673034E+00  0.590561E+00  0.500266E+00  0.408431E+00  0.321634E+00
  0.245980E+00  0.185748E+00  0.141725E+00  0.111615E+00  0.922641E-01  0.813843E-01
  0.778605E-01  0.813843E-01  0.922641E-01  0.111615E+00  0.141725E+00  0.185748E+00
  0.245980E+00  0.321634E+00  0.408431E+00  0.500266E+00  0.590561E+00  0.673034E+00
  0.743123E+00  0.799126E+00  0.841850E+00  0.873354E+00  0.895915E+00  0.911506E+00
  0.921634E+00  0.927322E+00  0.929155E+00  0.927322E+00  0.921634E+00  0.911506E+00
  0.895915E+00  0.873354E+00  0.841850E+00  0.799126E+00  0.743123E+00  0.707659E+00
  0.634974E+00  0.551933E+00  0.463843E+00  0.377787E+00  0.300356E+00  0.235866E+00
  0.185748E+00  0.149139E+00  0.124122E+00  0.108730E+00  0.101444E+00  0.101444E+00
  0.108730E+00  0.124122E+00  0.149139E+00  0.185748E+00  0.235866E+00  0.300356E+00
  0.377787E+00  0.463843E+00  0.551933E+00  0.634974E+00  0.707659E+00  0.767678E+00
  0.815211E+00  0.851685E+00  0.878847E+00  0.898358E+00  0.911660E+00  0.919885E+00
  0.923804E+00  0.923804E+00  0.919885E+00  0.911660E+00  0.898358E+00  0.878847E+00
  0.851685E+00  0.815211E+00  0.767678E+00  0.707659E+00  0.634974E+00  0.556482E+00
  0.472759E+00  0.390259E+00  0.315061E+00  0.251278E+00  0.200622E+00  0.162718E+00
  0.135927E+00  0.118317E+00  0.108348E+00  0.105121E+00  0.108348E+00  0.118317E+00
  0.135927E+00  0.162718E+00  0.200622E+00  0.251278E+00  0.315061E+00  0.390259E+00
  0.472759E+00  0.556482E+00  0.634974E+00  0.703554E+00  0.760302E+00  0.805428E+00
  0.840153E+00  0.865971E+00  0.884327E+00  0.896472E+00  0.903363E+00  0.905593E+00
  0.903363E+00  0.896472E+00  0.884327E+00  0.865971E+00  0.840153E+00  0.805428E+00
  0.760302E+00  0.703554E+00  0.634974E+00  0.551933E+00  0.472759E+00  0.394471E+00
  0.322672E+00  0.261101E+00  0.211393E+00  0.173474E+00  0.146065E+00  0.127329E+00
  0.115623E+00  0.109963E+00  0.109963E+00  0.115623E+00  0.127329E+00  0.146065E+00
  0.173474E+00  0.211393E+00  0.261101E+00  0.322672E+00  0.394471E+00  0.472759E+00
  0.551933E+00  0.626109E+00  0.691126E+00  0.745250E+00  0.788535E+00  0.821904E+00
  0.846574E+00  0.863779E+00  0.874590E+00  0.879791E+00  0.879791E+00  0.874590E+00
  0.863779E+00  0.846574E+00  0.821904E+00  0.788535E+00  0.745250E+00  0.691126E+00
  0.626109E+00  0.551933E+00  0.463843E+00  0.390259E+00  0.322672E+00  0.264484E+00
  0.217075E+00  0.180393E+00  0.153454E+00  0.134650E+00  0.122273E+00  0.115149E+00
  0.112804E+00  0.115149E+00  0.122273E+00  0.134650E+00  0.153454E+00  0.180393E+00
  0.217075E+00  0.264484E+00  0.322672E+00  0.390259E+00  0.463843E+00  0.538271E+00
  0.608249E+00  0.670036E+00  0.721908E+00  0.763623E+00  0.795758E+00  0.819245E+00
  0.835101E+00  0.844211E+00  0.847178E+00  0.844211E+00  0.835101E+00  0.819245E+00
  0.795758E+00  0.763623E+00  0.721908E+00  0.670036E+00  0.608249E+00  0.538271E+00
  0.463843E+00  0.377787E+00  0.315061E+00  0.261101E+00  0.217075E+00  0.182783E+00
  0.157337E+00  0.139386E+00  0.127318E+00  0.119777E+00  0.116081E+00  0.116081E+00
  0.119777E+00  0.127318E+00  0.139386E+00  0.157337E+00  0.182783E+00  0.217075E+00
  0.261101E+00  0.315061E+00  0.377787E+00  0.446147E+00  0.515507E+00  0.581188E+00
  0.639758E+00  0.689370E+00  0.729441E+00  0.760179E+00  0.782219E+00  0.796329E+00
  0.803188E+00  0.803188E+00  0.796329E+00  0.782219E+00  0.760179E+00  0.729441E+00
  0.689370E+00  0.639758E+00  0.581188E+00  0.515507E+00  0.446147E+00  0.377787E+00
  0.300356E+00  0.251278E+00  0.211393E+00  0.180393E+00  0.157337E+00  0.141018E+00
  0.130025E+00  0.122979E+00  0.118956E+00  0.117626E+00  0.118956E+00  0.122979E+00
  0.130025E+00  0.141018E+00  0.157337E+00  0.180393E+00  0.211393E+00  0.251278E+00
  0.300356E+00  0.357555E+00  0.420053E+00  0.483824E+00  0.544784E+00  0.599719E+00
  0.646636E+00  0.684617E+00  0.713501E+00  0.733578E+00  0.745330E+00  0.749190E+00
  0.745330E+00  0.733578E+00  0.713501E+00  0.684617E+00  0.646636E+00  0.599719E+00
  0.544784E+00  0.483824E+00  0.420053E+00  0.357555E+00  0.300356E+00  0.235866E+00
  0.200622E+00  0.173474E+00  0.153454E+00  0.139386E+00  0.130025E+00  0.124123E+00
  0.120643E+00  0.118992E+00  0.118992E+00  0.120643E+00  0.124123E+00  0.130025E+00
  0.139386E+00  0.153454E+00  0.173474E+00  0.200622E+00  0.235866E+00  0.279474E+00
  0.330442E+00  0.386346E+00  0.443801E+00  0.499257E+00  0.549718E+00  0.593101E+00
  0.628195E+00  0.654443E+00  0.671757E+00  0.680319E+00  0.680319E+00  0.671757E+00
  0.654443E+00  0.628195E+00  0.593101E+00  0.549718E+00  0.499257E+00  0.443801E+00
  0.386346E+00  0.330442E+00  0.279474E+00  0.235866E+00  0.185748E+00  0.162718E+00
  0.146065E+00  0.134650E+00  0.127318E+00  0.122979E+00  0.120643E+00  0.119534E+00
  0.119207E+00  0.119534E+00  0.120643E+00  0.122979E+00  0.127318E+00  0.134650E+00
  0.146065E+00  0.162718E+00  0.185748E+00  0.216009E+00  0.253648E+00  0.297772E+00
  0.346390E+00  0.396706E+00  0.445675E+00  0.490587E+00  0.529349E+00  0.560470E+00
  0.583011E+00  0.596559E+00  0.601064E+00  0.596559E+00  0.583011E+00  0.560470E+00
  0.529349E+00  0.490587E+00  0.445675E+00  0.396706E+00  0.346390E+00  0.297772E+00
  0.253648E+00  0.216009E+00  0.185748E+00  0.149139E+00  0.135927E+00  0.127329E+00
  0.122273E+00  0.119777E+00  0.118956E+00  0.118992E+00  0.119207E+00  0.119207E+00
  0.118992E+00  0.118956E+00  0.119777E+00  0.122273E+00  0.127329E+00  0.135927E+00
  0.149139E+00  0.167962E+00  0.193044E+00  0.224427E+00  0.261358E+00  0.302226E+00
  0.344747E+00  0.386391E+00  0.424778E+00  0.457827E+00  0.483816E+00  0.501562E+00
  0.510505E+00  0.510505E+00  0.501562E+00  0.483816E+00  0.457827E+00  0.424778E+00
  0.386391E+00  0.344747E+00  0.302226E+00  0.261358E+00  0.224427E+00  0.193044E+00
  0.167962E+00  0.149139E+00  0.124122E+00  0.118317E+00  0.115623E+00  0.115149E+00
  0.116081E+00  0.117626E+00  0.118992E+00  0.119534E+00  0.118992E+00  0.117626E+00
  0.116081E+00  0.115149E+00  0.115623E+00  0.118317E+00  0.124122E+00  0.133960E+00
  0.148609E+00  0.168522E+00  0.193676E+00  0.223437E+00  0.256494E+00  0.291019E+00
  0.324964E+00  0.356242E+00  0.382801E+00  0.402850E+00  0.415208E+00  0.419363E+00
  0.415208E+00  0.402850E+00  0.382801E+00  0.356242E+00  0.324964E+00  0.291019E+00
  0.256494E+00  0.223437E+00  0.193676E+00  0.168522E+00  0.148609E+00  0.133960E+00
  0.124122E+00  0.108730E+00  0.108348E+00  0.109963E+00  0.112804E+00  0.116081E+00
  0.118956E+00  0.120643E+00  0.120643E+00  0.118956E+00  0.116081E+00  0.112804E+00
  0.109963E+00  0.108348E+00  0.108730E+00  0.111875E+00  0.118495E+00  0.129151E+00
  0.144150E+00  0.163427E+00  0.186427E+00  0.212083E+00  0.238960E+00  0.265392E+00
  0.289519E+00  0.309412E+00  0.323448E+00  0.330651E+00  0.330651E+00  0.323448E+00
  0.309412E+00  0.289519E+00  0.265392E+00  0.238960E+00  0.212083E+00  0.186427E+00
  0.163427E+00  0.144150E+00  0.129151E+00  0.118495E+00  0.111875E+00  0.108730E+00
  0.101444E+00  0.105121E+00  0.109963E+00  0.115149E+00  0.119777E+00  0.122979E+00
  0.124123E+00  0.122979E+00  0.119777E+00  0.115149E+00  0.109963E+00  0.105121E+00
  0.101444E+00  0.996392E-01  0.100311E+00  0.103967E+00  0.110986E+00  0.121557E+00
  0.135569E+00  0.152530E+00  0.171589E+00  0.191606E+00  0.211179E+00  0.228664E+00
  0.242401E+00  0.251103E+00  0.254071E+00  0.251103E+00  0.242401E+00  0.228664E+00
  0.211179E+00  0.191606E+00  0.171589E+00  0.152530E+00  0.135569E+00  0.121557E+00
  0.110986E+00  0.103967E+00  0.100311E+00  0.996392E-01  0.101444E+00  0.101444E+00
  0.108348E+00  0.115623E+00  0.122273E+00  0.127318E+00  0.130025E+00  0.130025E+00
  0.127318E+00  0.122273E+00  0.115623E+00  0.108348E+00  0.101444E+00  0.957451E-01
  0.918742E-01  0.902865E-01  0.913178E-01  0.951903E-01  0.101967E+00  0.111490E+00
  0.123344E+00  0.136850E+00  0.151066E+00  0.164771E+00  0.176571E+00  0.185174E+00
  0.189685E+00  0.189685E+00  0.185174E+00  0.176571E+00  0.164771E+00  0.151066E+00
  0.136850E+00  0.123344E+00  0.111490E+00  0.101967E+00  0.951903E-01  0.913178E-01
  0.902865E-01  0.918742E-01  0.957451E-01  0.101444E+00  0.108730E+00  0.118317E+00
  0.127329E+00  0.134650E+00  0.139386E+00  0.141018E+00  0.139386E+00  0.134650E+00
  0.127329E+00  0.118317E+00  0.108730E+00  0.996392E-01  0.918742E-01  0.859928E-01
  0.823387E-01  0.811002E-01  0.823387E-01  0.859928E-01  0.918742E-01  0.996392E-01
  0.108730E+00  0.118317E+00  0.127329E+00  0.134650E+00  0.139386E+00  0.141018E+00
  0.139386E+00  0.134650E+00  0.127329E+00  0.118317E+00  0.108730E+00  0.996392E-01
  0.918742E-01  0.859928E-01  0.823387E-01  0.811002E-01  0.823387E-01  0.859928E-01
  0.918742E-01  0.996392E-01  0.108730E+00  0.124122E+00  0.135927E+00  0.146065E+00
  0.153454E+00  0.157337E+00  0.157337E+00  0.153454E+00  0.146065E+00  0.135927E+00
  0.124122E+00  0.111875E+00  0.100311E+00  0.902865E-01  0.823387E-01  0.767236E-01
  0.734825E-01  0.725193E-01  0.736695E-01  0.767256E-01  0.813843E-01  0.871398E-01
  0.932255E-01  0.987199E-01  0.102802E+00  0.104952E+00  0.104952E+00  0.102802E+00
  0.987199E-01  0.932255E-01  0.871398E-01  0.813843E-01  0.767256E-01  0.736695E-01
  0.725193E-01  0.734825E-01  0.767236E-01  0.823387E-01  0.902865E-01  0.100311E+00
  0.111875E+00  0.124122E+00  0.149139E+00  0.162718E+00  0.173474E+00  0.180393E+00
  0.182783E+00  0.180393E+00  0.173474E+00  0.162718E+00  0.149139E+00  0.133960E+00
  0.118495E+00  0.103967E+00  0.913178E-01  0.811002E-01  0.734825E-01  0.683597E-01
  0.654989E-01  0.646514E-01  0.655740E-01  0.679457E-01  0.712556E-01  0.747895E-01
  0.778040E-01  0.797680E-01  0.804409E-01  0.797680E-01  0.778040E-01  0.747895E-01
  0.712556E-01  0.679457E-01  0.655740E-01  0.646514E-01  0.654989E-01  0.683597E-01
  0.734825E-01  0.811002E-01  0.913178E-01  0.103967E+00  0.118495E+00  0.133960E+00
  0.149139E+00  0.185748E+00  0.200622E+00  0.211393E+00  0.217075E+00  0.217075E+00
  0.211393E+00  0.200622E+00  0.185748E+00  0.167962E+00  0.148609E+00  0.129151E+00
  0.110986E+00  0.951903E-01  0.823387E-01  0.725193E-01  0.654989E-01  0.609224E-01
  0.584434E-01  0.577323E-01  0.583947E-01  0.598989E-01  0.616181E-01  0.630070E-01
  0.637526E-01  0.637526E-01  0.630070E-01  0.616181E-01  0.598989E-01  0.583947E-01
  0.577323E-01  0.584434E-01  0.609224E-01  0.654989E-01  0.725193E-01  0.823387E-01
  0.951903E-01  0.110986E+00  0.129151E+00  0.148609E+00  0.167962E+00  0.185748E+00
  0.235866E+00  0.251278E+00  0.261101E+00  0.264484E+00  0.261101E+00  0.251278E+00
  0.235866E+00  0.216009E+00  0.193044E+00  0.168522E+00  0.144150E+00  0.121557E+00
  0.101967E+00  0.859928E-01  0.736695E-01  0.646514E-01  0.584434E-01  0.545480E-01
  0.524936E-01  0.517974E-01  0.519413E-01  0.524217E-01  0.528488E-01  0.530109E-01
  0.528488E-01  0.524217E-01  0.519413E-01  0.517974E-01  0.524936E-01  0.545480E-01
  0.584434E-01  0.646514E-01  0.736695E-01  0.859928E-01  0.101967E+00  0.121557E+00
  0.144150E+00  0.168522E+00  0.193044E+00  0.216009E+00  0.235866E+00  0.300356E+00
  0.315061E+00  0.322672E+00  0.322672E+00  0.315061E+00  0.300356E+00  0.279474E+00
  0.253648E+00  0.224427E+00  0.193676E+00  0.163427E+00  0.135569E+00  0.111490E+00
  0.918742E-01  0.767256E-01  0.655740E-01  0.577323E-01  0.524936E-01  0.492274E-01
  0.473963E-01  0.465371E-01  0.462436E-01  0.461896E-01  0.461896E-01  0.462436E-01
  0.465371E-01  0.473963E-01  0.492274E-01  0.524936E-01  0.577323E-01  0.655740E-01
  0.767256E-01  0.918742E-01  0.111490E+00  0.135569E+00  0.163427E+00  0.193676E+00
  0.224427E+00  0.253648E+00  0.279474E+00  0.300356E+00  0.377787E+00  0.390259E+00
  0.394471E+00  0.390259E+00  0.377787E+00  0.357555E+00  0.330442E+00  0.297772E+00
  0.261358E+00  0.223437E+00  0.186427E+00  0.152530E+00  0.123344E+00  0.996392E-01
  0.813843E-01  0.679457E-01  0.583947E-01  0.517974E-01  0.473963E-01  0.446415E-01
  0.431068E-01  0.424063E-01  0.422173E-01  0.424063E-01  0.431068E-01  0.446415E-01
  0.473963E-01  0.517974E-01  0.583947E-01  0.679457E-01  0.813843E-01  0.996392E-01
  0.123344E+00  0.152530E+00  0.186427E+00  0.223437E+00  0.261358E+00  0.297772E+00
  0.330442E+00  0.357555E+00  0.377787E+00  0.463843E+00  0.472759E+00  0.472759E+00
  0.463843E+00  0.446147E+00  0.420053E+00  0.386346E+00  0.346390E+00  0.302226E+00
  0.256494E+00  0.212083E+00  0.171589E+00  0.136850E+00  0.108730E+00  0.871398E-01
  0.712556E-01  0.598989E-01  0.519413E-01  0.465371E-01  0.431068E-01  0.411925E-01
  0.403780E-01  0.403780E-01  0.411925E-01  0.431068E-01  0.465371E-01  0.519413E-01
  0.598989E-01  0.712556E-01  0.871398E-01  0.108730E+00  0.136850E+00  0.171589E+00
  0.212083E+00  0.256494E+00  0.302226E+00  0.346390E+00  0.386346E+00  0.420053E+00
  0.446147E+00  0.463843E+00  0.551933E+00  0.556482E+00  0.551933E+00  0.538271E+00
  0.515507E+00  0.483824E+00  0.443801E+00  0.396706E+00  0.344747E+00  0.291019E+00
  0.238960E+00  0.191606E+00  0.151066E+00  0.118317E+00  0.932255E-01  0.747895E-01
  0.616181E-01  0.524217E-01  0.462436E-01  0.424063E-01  0.403780E-01  0.397553E-01
  0.403780E-01  0.424063E-01  0.462436E-01  0.524217E-01  0.616181E-01  0.747895E-01
  0.932255E-01  0.118317E+00  0.151066E+00  0.191606E+00  0.238960E+00  0.291019E+00
  0.344747E+00  0.396706E+00  0.443801E+00  0.483824E+00  0.515507E+00  0.538271E+00
  0.551933E+00  0.634974E+00  0.634974E+00  0.626109E+00  0.608249E+00  0.581188E+00
  0.544784E+00  0.499257E+00  0.445675E+00  0.386391E+00  0.324964E+00  0.265392E+00
  0.211179E+00  0.164771E+00  0.127329E+00  0.987199E-01  0.778040E-01  0.630070E-01
  0.528488E-01  0.461896E-01  0.422173E-01  0.403780E-01  0.403780E-01  0.422173E-01
  0.461896E-01  0.528488E-01  0.630070E-01  0.778040E-01  0.987199E-01  0.127329E+00
  0.164771E+00  0.211179E+00  0.265392E+00  0.324964E+00  0.386391E+00  0.445675E+00
  0.499257E+00  0.544784E+00  0.581188E+00  0.608249E+00  0.626109E+00  0.634974E+00
  0.707659E+00  0.703554E+00  0.691126E+00  0.670036E+00  0.639758E+00  0.599719E+00
  0.549718E+00  0.490587E+00  0.424778E+00  0.356242E+00  0.289519E+00  0.228664E+00
  0.176571E+00  0.134650E+00  0.102802E+00  0.797680E-01  0.637526E-01  0.530109E-01
  0.461896E-01  0.424063E-01  0.411925E-01  0.424063E-01  0.461896E-01  0.530109E-01
  0.637526E-01  0.797680E-01  0.102802E+00  0.134650E+00  0.176571E+00  0.228664E+00
  0.289519E+00  0.356242E+00  0.424778E+00  0.490587E+00  0.549718E+00  0.599719E+00
  0.639758E+00  0.670036E+00  0.691126E+00  0.703554E+00  0.707659E+00  0.767678E+00
  0.760302E+00  0.745250E+00  0.721908E+00  0.689370E+00  0.646636E+00  0.593101E+00
  0.529349E+00  0.457827E+00  0.382801E+00  0.309412E+00  0.242401E+00  0.185174E+00
  0.139386E+00  0.104952E+00  0.804409E-01  0.637526E-01  0.528488E-01  0.462436E-01
  0.431068E-01  0.431068E-01  0.462436E-01  0.528488E-01  0.637526E-01  0.804409E-01
  0.104952E+00  0.139386E+00  0.185174E+00  0.242401E+00  0.309412E+00  0.382801E+00
  0.457827E+00  0.529349E+00  0.593101E+00  0.646636E+00  0.689370E+00  0.721908E+00
  0.745250E+00  0.760302E+00  0.767678E+00  0.767678E+00  0.815211E+00  0.805428E+00
  0.788535E+00  0.763623E+00  0.729441E+00  0.684617E+00  0.628195E+00  0.560470E+00
  0.483816E+00  0.402850E+00  0.323448E+00  0.251103E+00  0.189685E+00  0.141018E+00
  0.104952E+00  0.797680E-01  0.630070E-01  0.524217E-01  0.465371E-01  0.446415E-01
  0.465371E-01  0.524217E-01  0.630070E-01  0.797680E-01  0.104952E+00  0.141018E+00
  0.189685E+00  0.251103E+00  0.323448E+00  0.402850E+00  0.483816E+00  0.560470E+00
  0.628195E+00  0.684617E+00  0.729441E+00  0.763623E+00  0.788535E+00  0.805428E+00
  0.815211E+00  0.818415E+00  0.815211E+00  0.851685E+00  0.840153E+00  0.821904E+00
  0.795758E+00  0.760179E+00  0.713501E+00  0.654443E+00  0.583011E+00  0.501562E+00
  0.415208E+00  0.330651E+00  0.254071E+00  0.189685E+00  0.139386E+00  0.102802E+00
  0.778040E-01  0.616181E-01  0.519413E-01  0.473963E-01  0.473963E-01  0.519413E-01
  0.616181E-01  0.778040E-01  0.102802E+00  0.139386E+00  0.189685E+00  0.254071E+00
  0.330651E+00  0.415208E+00  0.501562E+00  0.583011E+00  0.654443E+00  0.713501E+00
  0.760179E+00  0.795758E+00  0.821904E+00  0.840153E+00  0.851685E+00  0.857267E+00
  0.857267E+00  0.851685E+00  0.878847E+00  0.865971E+00  0.846574E+00  0.819245E+00
  0.782219E+00  0.733578E+00  0.671757E+00  0.596559E+00  0.510505E+00  0.419363E+00
  0.330651E+00  0.251103E+00  0.185174E+00  0.134650E+00  0.987199E-01  0.747895E-01
  0.598989E-01  0.517974E-01  0.492274E-01  0.517974E-01  0.598989E-01  0.747895E-01
  0.987199E-01  0.134650E+00  0.185174E+00  0.251103E+00  0.330651E+00  0.419363E+00
  0.510505E+00  0.596559E+00  0.671757E+00  0.733578E+00  0.782219E+00  0.819245E+00
  0.846574E+00  0.865971E+00  0.878847E+00  0.886192E+00  0.888578E+00  0.886192E+00
  0.878847E+00  0.898358E+00  0.884327E+00  0.863779E+00  0.835101E+00  0.796329E+00
  0.745330E+00  0.680319E+00  0.601064E+00  0.510505E+00  0.415208E+00  0.323448E+00
  0.242401E+00  0.176571E+00  0.127329E+00  0.932255E-01  0.712556E-01  0.583947E-01
  0.524936E-01  0.524936E-01  0.583947E-01  0.712556E-01  0.932255E-01  0.127329E+00
  0.176571E+00  0.242401E+00  0.323448E+00  0.415208E+00  0.510505E+00  0.601064E+00
  0.680319E+00  0.745330E+00  0.796329E+00  0.835101E+00  0.863779E+00  0.884327E+00
  0.898358E+00  0.907074E+00  0.911247E+00  0.911247E+00  0.907074E+00  0.898358E+00
  0.911660E+00  0.896472E+00  0.874590E+00  0.844211E+00  0.803188E+00  0.749190E+00
  0.680319E+00  0.596559E+00  0.501562E+00  0.402850E+00  0.309412E+00  0.228664E+00
  0.164771E+00  0.118317E+00  0.871398E-01  0.679457E-01  0.577323E-01  0.545480E-01
  0.577323E-01  0.679457E-01  0.871398E-01  0.118317E+00  0.164771E+00  0.228664E+00
  0.309412E+00  0.402850E+00  0.501562E+00  0.596559E+00  0.680319E+00  0.749190E+00
  0.803188E+00  0.844211E+00  0.874590E+00  0.896472E+00  0.911660E+00  0.921554E+00
  0.927124E+00  0.928921E+00  0.927124E+00  0.921554E+00  0.911660E+00  0.919885E+00
  0.903363E+00  0.879791E+00  0.847178E+00  0.803188E+00  0.745330E+00  0.671757E+00
  0.583011E+00  0.483816E+00  0.382801E+00  0.289519E+00  0.211179E+00  0.151066E+00
  0.108730E+00  0.813843E-01  0.655740E-01  0.584434E-01  0.584434E-01  0.655740E-01
  0.813843E-01  0.108730E+00  0.151066E+00  0.211179E+00  0.289519E+00  0.382801E+00
  0.483816E+00  0.583011E+00  0.671757E+00  0.745330E+00  0.803188E+00  0.847178E+00
  0.879791E+00  0.903363E+00  0.919885E+00  0.930951E+00  0.937725E+00  0.940938E+00
  0.940938E+00  0.937725E+00  0.930951E+00  0.919885E+00  0.923804E+00  0.905593E+00
  0.879791E+00  0.844211E+00  0.796329E+00  0.733578E+00  0.654443E+00  0.560470E+00
  0.457827E+00  0.356242E+00  0.265392E+00  0.191606E+00  0.136850E+00  0.996392E-01
  0.767256E-01  0.646514E-01  0.609224E-01  0.646514E-01  0.767256E-01  0.996392E-01
  0.136850E+00  0.191606E+00  0.265392E+00  0.356242E+00  0.457827E+00  0.560470E+00
  0.654443E+00  0.733578E+00  0.796329E+00  0.844211E+00  0.879791E+00  0.905593E+00
  0.923804E+00  0.936214E+00  0.944183E+00  0.948624E+00  0.950051E+00  0.948624E+00
  0.944183E+00  0.936214E+00  0.923804E+00  0.923804E+00  0.903363E+00  0.874590E+00
  0.835101E+00  0.782219E+00  0.713501E+00  0.628195E+00  0.529349E+00  0.424778E+00
  0.324964E+00  0.238960E+00  0.171589E+00  0.123344E+00  0.918742E-01  0.736695E-01
  0.654989E-01  0.654989E-01  0.736695E-01  0.918742E-01  0.123344E+00  0.171589E+00
  0.238960E+00  0.324964E+00  0.424778E+00  0.529349E+00  0.628195E+00  0.713501E+00
  0.782219E+00  0.835101E+00  0.874590E+00  0.903363E+00  0.923804E+00  0.937907E+00
  0.947233E+00  0.952890E+00  0.955560E+00  0.955560E+00  0.952890E+00  0.947233E+00
  0.937907E+00  0.923804E+00  0.919885E+00  0.896472E+00  0.863779E+00  0.819245E+00
  0.760179E+00  0.684617E+00  0.593101E+00  0.490587E+00  0.386391E+00  0.291019E+00
  0.212083E+00  0.152530E+00  0.111490E+00  0.859928E-01  0.725193E-01  0.683597E-01
  0.725193E-01  0.859928E-01  0.111490E+00  0.152530E+00  0.212083E+00  0.291019E+00
  0.386391E+00  0.490587E+00  0.593101E+00  0.684617E+00  0.760179E+00  0.819245E+00
  0.863779E+00  0.896472E+00  0.919885E+00  0.936214E+00  0.947233E+00  0.954256E+00
  0.958153E+00  0.959402E+00  0.958153E+00  0.954256E+00  0.947233E+00  0.936214E+00
  0.919885E+00  0.911660E+00  0.884327E+00  0.846574E+00  0.795758E+00  0.729441E+00
  0.646636E+00  0.549718E+00  0.445675E+00  0.344747E+00  0.256494E+00  0.186427E+00
  0.135569E+00  0.101967E+00  0.823387E-01  0.734825E-01  0.734825E-01  0.823387E-01
  0.101967E+00  0.135569E+00  0.186427E+00  0.256494E+00  0.344747E+00  0.445675E+00
  0.549718E+00  0.646636E+00  0.729441E+00  0.795758E+00  0.846574E+00  0.884327E+00
  0.911660E+00  0.930951E+00  0.944183E+00  0.952890E+00  0.958153E+00  0.960631E+00
  0.960631E+00  0.958153E+00  0.952890E+00  0.944183E+00  0.930951E+00  0.911660E+00
  0.898358E+00  0.865971E+00  0.821904E+00  0.763623E+00  0.689370E+00  0.599719E+00
  0.499257E+00  0.396706E+00  0.302226E+00  0.223437E+00  0.163427E+00  0.121557E+00
  0.951903E-01  0.811002E-01  0.767236E-01  0.811002E-01  0.951903E-01  0.121557E+00
  0.163427E+00  0.223437E+00  0.302226E+00  0.396706E+00  0.499257E+00  0.599719E+00
  0.689370E+00  0.763623E+00  0.821904E+00  0.865971E+00  0.898358E+00  0.921554E+00
  0.937725E+00  0.948624E+00  0.955560E+00  0.959402E+00  0.960631E+00  0.959402E+00
  0.955560E+00  0.948624E+00  0.937725E+00  0.921554E+00  0.898358E+00  0.878847E+00
  0.840153E+00  0.788535E+00  0.721908E+00  0.639758E+00  0.544784E+00  0.443801E+00
  0.346390E+00  0.261358E+00  0.193676E+00  0.144150E+00  0.110986E+00  0.913178E-01
  0.823387E-01  0.823387E-01  0.913178E-01  0.110986E+00  0.144150E+00  0.193676E+00
  0.261358E+00  0.346390E+00  0.443801E+00  0.544784E+00  0.639758E+00  0.721908E+00
  0.788535E+00  0.840153E+00  0.878847E+00  0.907074E+00  0.927124E+00  0.940938E+00
  0.950051E+00  0.955560E+00  0.958153E+00  0.958153E+00  0.955560E+00  0.950051E+00
  0.940938E+00  0.927124E+00  0.907074E+00  0.878847E+00  0.851685E+00  0.805428E+00
  0.745250E+00  0.670036E+00  0.581188E+00  0.483824E+00  0.386346E+00  0.297772E+00
  0.224427E+00  0.168522E+00  0.129151E+00  0.103967E+00  0.902865E-01  0.859928E-01
  0.902865E-01  0.103967E+00  0.129151E+00  0.168522E+00  0.224427E+00  0.297772E+00
  0.386346E+00  0.483824E+00  0.581188E+00  0.670036E+00  0.745250E+00  0.805428E+00
  0.851685E+00  0.886192E+00  0.911247E+00  0.928921E+00  0.940938E+00  0.948624E+00
  0.952890E+00  0.954256E+00  0.952890E+00  0.948624E+00  0.940938E+00  0.928921E+00
  0.911247E+00  0.886192E+00  0.851685E+00  0.815211E+00  0.760302E+00  0.691126E+00
  0.608249E+00  0.515507E+00  0.420053E+00  0.330442E+00  0.253648E+00  0.193044E+00
  0.148609E+00  0.118495E+00  0.100311E+00  0.918742E-01  0.918742E-01  0.100311E+00
  0.118495E+00  0.148609E+00  0.193044E+00  0.253648E+00  0.330442E+00  0.420053E+00
  0.515507E+00  0.608249E+00  0.691126E+00  0.760302E+00  0.815211E+00  0.857267E+00
  0.888578E+00  0.911247E+00  0.927124E+00  0.937725E+00  0.944183E+00  0.947233E+00
  0.947233E+00  0.944183E+00  0.937725E+00  0.927124E+00  0.911247E+00  0.888578E+00
  0.857267E+00  0.815211E+00  0.767678E+00  0.703554E+00  0.626109E+00  0.538271E+00
  0.446147E+00  0.357555E+00  0.279474E+00  0.216009E+00  0.167962E+00  0.133960E+00
  0.111875E+00  0.996392E-01  0.957451E-01  0.996392E-01  0.111875E+00  0.133960E+00
  0.167962E+00  0.216009E+00  0.279474E+00  0.357555E+00  0.446147E+00  0.538271E+00
  0.626109E+00  0.703554E+00  0.767678E+00  0.818415E+00  0.857267E+00  0.886192E+00
  0.907074E+00  0.921554E+00  0.930951E+00  0.936214E+00  0.937907E+00  0.936214E+00
  0.930951E+00  0.921554E+00  0.907074E+00  0.886192E+00  0.857267E+00  0.818415E+00
  0.767678E+00  0.707659E+00  0.634974E+00  0.551933E+00  0.463843E+00  0.377787E+00
  0.300356E+00  0.235866E+00  0.185748E+00  0.149139E+00  0.124122E+00  0.108730E+00
  0.101444E+00  0.101444E+00  0.108730E+00  0.124122E+00  0.149139E+00  0.185748E+00
  0.235866E+00  0.300356E+00  0.377787E+00  0.463843E+00  0.551933E+00  0.634974E+00
  0.707659E+00  0.767678E+00  0.815211E+00  0.851685E+00  0.878847E+00  0.898358E+00
  0.911660E+00  0.919885E+00  0.923804E+00  0.923804E+00  0.919885E+00  0.911660E+00
  0.898358E+00  0.878847E+00  0.851685E+00  0.815211E+00  0.767678E+00  0.707659E+00
  0.678452E+00  0.605827E+00  0.525357E+00  0.443280E+00  0.366662E+00  0.300356E+00
  0.245980E+00  0.203313E+00  0.171875E+00  0.151066E+00  0.139645E+00  0.136077E+00
  0.139645E+00  0.151066E+00  0.171875E+00  0.203313E+00  0.245980E+00  0.300356E+00
  0.366662E+00  0.443280E+00  0.525357E+00  0.605827E+00  0.678452E+00  0.740010E+00
  0.790112E+00  0.829785E+00  0.860388E+00  0.883233E+00  0.899533E+00  0.910350E+00
  0.916503E+00  0.918498E+00  0.916503E+00  0.910350E+00  0.899533E+00  0.883233E+00
  0.860388E+00  0.829785E+00  0.790112E+00  0.740010E+00  0.678452E+00  0.605827E+00
  0.529902E+00  0.452164E+00  0.379039E+00  0.315061E+00  0.261909E+00  0.219479E+00
  0.187277E+00  0.164771E+00  0.151029E+00  0.144694E+00  0.144694E+00  0.151029E+00
  0.164771E+00  0.187277E+00  0.219479E+00  0.261909E+00  0.315061E+00  0.379039E+00
  0.452164E+00  0.529902E+00  0.605827E+00  0.674329E+00  0.732543E+00  0.780106E+00
  0.817871E+00  0.846985E+00  0.868584E+00  0.883720E+00  0.893280E+00  0.897899E+00
  0.897899E+00  0.893280E+00  0.883720E+00  0.868584E+00  0.846985E+00  0.817871E+00
  0.780106E+00  0.732543E+00  0.674329E+00  0.605827E+00  0.525357E+00  0.452164E+00
  0.383239E+00  0.322672E+00  0.271949E+00  0.230999E+00  0.199384E+00  0.176571E+00
  0.161678E+00  0.153497E+00  0.150922E+00  0.153497E+00  0.161678E+00  0.176571E+00
  0.199384E+00  0.230999E+00  0.271949E+00  0.322672E+00  0.383239E+00  0.452164E+00
  0.525357E+00  0.596964E+00  0.661859E+00  0.717344E+00  0.762906E+00  0.799131E+00
  0.826949E+00  0.847340E+00  0.861197E+00  0.869220E+00  0.871845E+00  0.869220E+00
  0.861197E+00  0.847340E+00  0.826949E+00  0.799131E+00  0.762906E+00  0.717344E+00
  0.661859E+00  0.596964E+00  0.525357E+00  0.443280E+00  0.379039E+00  0.322672E+00
  0.275379E+00  0.236971E+00  0.207057E+00  0.185174E+00  0.170405E+00  0.161478E+00
  0.157302E+00  0.157302E+00  0.161478E+00  0.170405E+00  0.185174E+00  0.207057E+00
  0.236971E+00  0.275379E+00  0.322672E+00  0.379039E+00  0.443280E+00  0.511744E+00
  0.579136E+00  0.640735E+00  0.693853E+00  0.737684E+00  0.772502E+00  0.799032E+00
  0.818094E+00  0.830395E+00  0.836424E+00  0.836424E+00  0.830395E+00  0.818094E+00
  0.799032E+00  0.772502E+00  0.737684E+00  0.693853E+00  0.640735E+00  0.579136E+00
  0.511744E+00  0.443280E+00  0.366662E+00  0.315061E+00  0.271949E+00  0.236971E+00
  0.209676E+00  0.189685E+00  0.176133E+00  0.167611E+00  0.162867E+00  0.161323E+00
  0.162867E+00  0.167611E+00  0.176133E+00  0.189685E+00  0.209676E+00  0.236971E+00
  0.271949E+00  0.315061E+00  0.366662E+00  0.425770E+00  0.489174E+00  0.552194E+00
  0.610475E+00  0.661224E+00  0.703281E+00  0.736608E+00  0.761703E+00  0.779172E+00
  0.789479E+00  0.792887E+00  0.789479E+00  0.779172E+00  0.761703E+00  0.736608E+00
  0.703281E+00  0.661224E+00  0.610475E+00  0.552194E+00  0.489174E+00  0.425770E+00
  0.366662E+00  0.300356E+00  0.261909E+00  0.230999E+00  0.207057E+00  0.189685E+00
  0.178127E+00  0.170962E+00  0.166701E+00  0.164596E+00  0.164596E+00  0.166701E+00
  0.170962E+00  0.178127E+00  0.189685E+00  0.207057E+00  0.230999E+00  0.261909E+00
  0.300356E+00  0.346732E+00  0.400179E+00  0.457975E+00  0.516110E+00  0.570593E+00
  0.618521E+00  0.658420E+00  0.689934E+00  0.713258E+00  0.728674E+00  0.736349E+00
  0.736349E+00  0.728674E+00  0.713258E+00  0.689934E+00  0.658420E+00  0.618521E+00
  0.570593E+00  0.516110E+00  0.457975E+00  0.400179E+00  0.346732E+00  0.300356E+00
  0.245980E+00  0.219479E+00  0.199384E+00  0.185174E+00  0.176133E+00  0.170962E+00
  0.168074E+00  0.166420E+00  0.165832E+00  0.166420E+00  0.168074E+00  0.170962E+00
  0.176133E+00  0.185174E+00  0.199384E+00  0.219479E+00  0.245980E+00  0.279474E+00
  0.320222E+00  0.367440E+00  0.418915E+00  0.471310E+00  0.521037E+00  0.565225E+00
  0.602198E+00  0.631253E+00  0.652157E+00  0.664777E+00  0.668999E+00  0.664777E+00
  0.652157E+00  0.631253E+00  0.602198E+00  0.565225E+00  0.521037E+00  0.471310E+00
  0.418915E+00  0.367440E+00  0.320222E+00  0.279474E+00  0.245980E+00  0.203313E+00
  0.187277E+00  0.176571E+00  0.170405E+00  0.167611E+00  0.166701E+00  0.166420E+00
  0.166259E+00  0.166259E+00  0.166420E+00  0.166701E+00  0.167611E+00  0.170405E+00
  0.176571E+00  0.187277E+00  0.203313E+00  0.225285E+00  0.253648E+00  0.288456E+00
  0.328983E+00  0.373444E+00  0.419092E+00  0.462829E+00  0.502036E+00  0.534954E+00
  0.560514E+00  0.577993E+00  0.586874E+00  0.586874E+00  0.577993E+00  0.560514E+00
  0.534954E+00  0.502036E+00  0.462829E+00  0.419092E+00  0.373444E+00  0.328983E+00
  0.288456E+00  0.253648E+00  0.225285E+00  0.203313E+00  0.171875E+00  0.164771E+00
  0.161678E+00  0.161478E+00  0.162867E+00  0.164596E+00  0.165832E+00  0.166259E+00
  0.165832E+00  0.164596E+00  0.162867E+00  0.161478E+00  0.161678E+00  0.164771E+00
  0.171875E+00  0.183852E+00  0.201282E+00  0.224427E+00  0.253167E+00  0.286794E+00
  0.323795E+00  0.361893E+00  0.398564E+00  0.431585E+00  0.459218E+00  0.480079E+00
  0.493075E+00  0.497490E+00  0.493075E+00  0.480079E+00  0.459218E+00  0.431585E+00
  0.398564E+00  0.361893E+00  0.323795E+00  0.286794E+00  0.253167E+00  0.224427E+00
  0.201282E+00  0.183852E+00  0.171875E+00  0.151066E+00  0.151029E+00  0.153497E+00
  0.157302E+00  0.161323E+00  0.164596E+00  0.166420E+00  0.166420E+00  0.164596E+00
  0.161323E+00  0.157302E+00  0.153497E+00  0.151029E+00  0.151066E+00  0.154692E+00
  0.162744E+00  0.175696E+00  0.193676E+00  0.216448E+00  0.243278E+00  0.272786E+00
  0.303102E+00  0.332251E+00  0.358416E+00  0.379937E+00  0.395294E+00  0.403295E+00
  0.403295E+00  0.395294E+00  0.379937E+00  0.358416E+00  0.332251E+00  0.303102E+00
  0.272786E+00  0.243278E+00  0.216448E+00  0.193676E+00  0.175696E+00  0.162744E+00
  0.154692E+00  0.151066E+00  0.139645E+00  0.144694E+00  0.150922E+00  0.157302E+00
  0.162867E+00  0.166701E+00  0.168074E+00  0.166701E+00  0.162867E+00  0.157302E+00
  0.150922E+00  0.144694E+00  0.139645E+00  0.136850E+00  0.137289E+00  0.141671E+00
  0.150368E+00  0.163427E+00  0.180547E+00  0.200956E+00  0.223408E+00  0.246393E+00
  0.268374E+00  0.287831E+00  0.303224E+00  0.313132E+00  0.316554E+00  0.313132E+00
  0.303224E+00  0.287831E+00  0.268374E+00  0.246393E+00  0.223408E+00  0.200956E+00
  0.180547E+00  0.163427E+00  0.150368E+00  0.141671E+00  0.137289E+00  0.136850E+00
  0.139645E+00  0.136077E+00  0.144694E+00  0.153497E+00  0.161478E+00  0.167611E+00
  0.170962E+00  0.170962E+00  0.167611E+00  0.161478E+00  0.153497E+00  0.144694E+00
  0.136077E+00  0.128641E+00  0.123344E+00  0.120985E+00  0.122110E+00  0.126977E+00
  0.135569E+00  0.147535E+00  0.162145E+00  0.178353E+00  0.194964E+00  0.210714E+00
  0.224264E+00  0.234262E+00  0.239578E+00  0.239578E+00  0.234262E+00  0.224264E+00
  0.210714E+00  0.194964E+00  0.178353E+00  0.162145E+00  0.147535E+00  0.135569E+00
  0.126977E+00  0.122110E+00  0.120985E+00  0.123344E+00  0.128641E+00  0.136077E+00
  0.139645E+00  0.151029E+00  0.161678E+00  0.170405E+00  0.176133E+00  0.178127E+00
  0.176133E+00  0.170405E+00  0.161678E+00  0.151029E+00  0.139645E+00  0.128641E+00
  0.118987E+00  0.111490E+00  0.106752E+00  0.105133E+00  0.106752E+00  0.111490E+00
  0.118987E+00  0.128641E+00  0.139645E+00  0.151029E+00  0.161678E+00  0.170405E+00
  0.176133E+00  0.178127E+00  0.176133E+00  0.170405E+00  0.161678E+00  0.151029E+00
  0.139645E+00  0.128641E+00  0.118987E+00  0.111490E+00  0.106752E+00  0.105133E+00
  0.106752E+00  0.111490E+00  0.118987E+00  0.128641E+00  0.139645E+00  0.151066E+00
  0.164771E+00  0.176571E+00  0.185174E+00  0.189685E+00  0.189685E+00  0.185174E+00
  0.176571E+00  0.164771E+00  0.151066E+00  0.136850E+00  0.123344E+00  0.111490E+00
  0.101967E+00  0.951903E-01  0.913178E-01  0.902865E-01  0.918742E-01  0.957451E-01
  0.101444E+00  0.108348E+00  0.115623E+00  0.122273E+00  0.127318E+00  0.130025E+00
  0.130025E+00  0.127318E+00  0.122273E+00  0.115623E+00  0.108348E+00  0.101444E+00
  0.957451E-01  0.918742E-01  0.902865E-01  0.913178E-01  0.951903E-01  0.101967E+00
  0.111490E+00  0.123344E+00  0.136850E+00  0.151066E+00  0.171875E+00  0.187277E+00
  0.199384E+00  0.207057E+00  0.209676E+00  0.207057E+00  0.199384E+00  0.187277E+00
  0.171875E+00  0.154692E+00  0.137289E+00  0.120985E+00  0.106752E+00  0.951903E-01
  0.865446E-01  0.807574E-01  0.775859E-01  0.767256E-01  0.778605E-01  0.806154E-01
  0.844566E-01  0.886433E-01  0.923386E-01  0.948361E-01  0.957126E-01  0.948361E-01
  0.923386E-01  0.886433E-01  0.844566E-01  0.806154E-01  0.778605E-01  0.767256E-01
  0.775859E-01  0.807574E-01  0.865446E-01  0.951903E-01  0.106752E+00  0.120985E+00
  0.137289E+00  0.154692E+00  0.171875E+00  0.203313E+00  0.219479E+00  0.230999E+00
  0.236971E+00  0.236971E+00  0.230999E+00  0.219479E+00  0.203313E+00  0.183852E+00
  0.162744E+00  0.141671E+00  0.122110E+00  0.105133E+00  0.913178E-01  0.807574E-01
  0.732051E-01  0.682727E-01  0.655740E-01  0.647546E-01  0.654275E-01  0.670839E-01
  0.690849E-01  0.707981E-01  0.717654E-01  0.717654E-01  0.707981E-01  0.690849E-01
  0.670839E-01  0.654275E-01  0.647546E-01  0.655740E-01  0.682727E-01  0.732051E-01
  0.807574E-01  0.913178E-01  0.105133E+00  0.122110E+00  0.141671E+00  0.162744E+00
  0.183852E+00  0.203313E+00  0.245980E+00  0.261909E+00  0.271949E+00  0.275379E+00
  0.271949E+00  0.261909E+00  0.245980E+00  0.225285E+00  0.201282E+00  0.175696E+00
  0.150368E+00  0.126977E+00  0.106752E+00  0.902865E-01  0.775859E-01  0.682727E-01
  0.618261E-01  0.577323E-01  0.555232E-01  0.547408E-01  0.548912E-01  0.554598E-01
  0.559970E-01  0.562090E-01  0.559970E-01  0.554598E-01  0.548912E-01  0.547408E-01
  0.555232E-01  0.577323E-01  0.618261E-01  0.682727E-01  0.775859E-01  0.902865E-01
  0.106752E+00  0.126977E+00  0.150368E+00  0.175696E+00  0.201282E+00  0.225285E+00
  0.245980E+00  0.300356E+00  0.315061E+00  0.322672E+00  0.322672E+00  0.315061E+00
  0.300356E+00  0.279474E+00  0.253648E+00  0.224427E+00  0.193676E+00  0.163427E+00
  0.135569E+00  0.111490E+00  0.918742E-01  0.767256E-01  0.655740E-01  0.577323E-01
  0.524936E-01  0.492274E-01  0.473963E-01  0.465371E-01  0.462436E-01  0.461896E-01
  0.461896E-01  0.462436E-01  0.465371E-01  0.473963E-01  0.492274E-01  0.524936E-01
  0.577323E-01  0.655740E-01  0.767256E-01  0.918742E-01  0.111490E+00  0.135569E+00
  0.163427E+00  0.193676E+00  0.224427E+00  0.253648E+00  0.279474E+00  0.300356E+00
  0.366662E+00  0.379039E+00  0.383239E+00  0.379039E+00  0.366662E+00  0.346732E+00
  0.320222E+00  0.288456E+00  0.253167E+00  0.216448E+00  0.180547E+00  0.147535E+00
  0.118987E+00  0.957451E-01  0.778605E-01  0.647546E-01  0.555232E-01  0.492274E-01
  0.450718E-01  0.424576E-01  0.409461E-01  0.402011E-01  0.399832E-01  0.402011E-01
  0.409461E-01  0.424576E-01  0.450718E-01  0.492274E-01  0.555232E-01  0.647546E-01
  0.778605E-01  0.957451E-01  0.118987E+00  0.147535E+00  0.180547E+00  0.216448E+00
  0.253167E+00  0.288456E+00  0.320222E+00  0.346732E+00  0.366662E+00  0.443280E+00
  0.452164E+00  0.452164E+00  0.443280E+00  0.425770E+00  0.400179E+00  0.367440E+00
  0.328983E+00  0.286794E+00  0.243278E+00  0.200956E+00  0.162145E+00  0.128641E+00
  0.101444E+00  0.806154E-01  0.654275E-01  0.547408E-01  0.473963E-01  0.424576E-01
  0.392650E-01  0.373806E-01  0.365169E-01  0.365169E-01  0.373806E-01  0.392650E-01
  0.424576E-01  0.473963E-01  0.547408E-01  0.654275E-01  0.806154E-01  0.101444E+00
  0.128641E+00  0.162145E+00  0.200956E+00  0.243278E+00  0.286794E+00  0.328983E+00
  0.367440E+00  0.400179E+00  0.425770E+00  0.443280E+00  0.525357E+00  0.529902E+00
  0.525357E+00  0.511744E+00  0.489174E+00  0.457975E+00  0.418915E+00  0.373444E+00
  0.323795E+00  0.272786E+00  0.223408E+00  0.178353E+00  0.139645E+00  0.108348E+00
  0.844566E-01  0.670839E-01  0.548912E-01  0.465371E-01  0.409461E-01  0.373806E-01
  0.353952E-01  0.347576E-01  0.353952E-01  0.373806E-01  0.409461E-01  0.465371E-01
  0.548912E-01  0.670839E-01  0.844566E-01  0.108348E+00  0.139645E+00  0.178353E+00
  0.223408E+00  0.272786E+00  0.323795E+00  0.373444E+00  0.418915E+00  0.457975E+00
  0.489174E+00  0.511744E+00  0.525357E+00  0.605827E+00  0.605827E+00  0.596964E+00
  0.579136E+00  0.552194E+00  0.516110E+00  0.471310E+00  0.419092E+00  0.361893E+00
  0.303102E+00  0.246393E+00  0.194964E+00  0.151029E+00  0.115623E+00  0.886433E-01
  0.690849E-01  0.554598E-01  0.462436E-01  0.402011E-01  0.365169E-01  0.347576E-01
  0.347576E-01  0.365169E-01  0.402011E-01  0.462436E-01  0.554598E-01  0.690849E-01
  0.886433E-01  0.115623E+00  0.151029E+00  0.194964E+00  0.246393E+00  0.303102E+00
  0.361893E+00  0.419092E+00  0.471310E+00  0.516110E+00  0.552194E+00  0.579136E+00
  0.596964E+00  0.605827E+00  0.678452E+00  0.674329E+00  0.661859E+00  0.640735E+00
  0.610475E+00  0.570593E+00  0.521037E+00  0.462829E+00  0.398564E+00  0.332251E+00
  0.268374E+00  0.210714E+00  0.161678E+00  0.122273E+00  0.923386E-01  0.707981E-01
  0.559970E-01  0.461896E-01  0.399832E-01  0.365169E-01  0.353952E-01  0.365169E-01
  0.399832E-01  0.461896E-01  0.559970E-01  0.707981E-01  0.923386E-01  0.122273E+00
  0.161678E+00  0.210714E+00  0.268374E+00  0.332251E+00  0.398564E+00  0.462829E+00
  0.521037E+00  0.570593E+00  0.610475E+00  0.640735E+00  0.661859E+00  0.674329E+00
  0.678452E+00  0.740010E+00  0.732543E+00  0.717344E+00  0.693853E+00  0.661224E+00
  0.618521E+00  0.565225E+00  0.502036E+00  0.431585E+00  0.358416E+00  0.287831E+00
  0.224264E+00  0.170405E+00  0.127318E+00  0.948361E-01  0.717654E-01  0.562090E-01
  0.461896E-01  0.402011E-01  0.373806E-01  0.373806E-01  0.402011E-01  0.461896E-01
  0.562090E-01  0.717654E-01  0.948361E-01  0.127318E+00  0.170405E+00  0.224264E+00
  0.287831E+00  0.358416E+00  0.431585E+00  0.502036E+00  0.565225E+00  0.618521E+00
  0.661224E+00  0.693853E+00  0.717344E+00  0.732543E+00  0.740010E+00  0.740010E+00
  0.790112E+00  0.780106E+00  0.762906E+00  0.737684E+00  0.703281E+00  0.658420E+00
  0.602198E+00  0.534954E+00  0.459218E+00  0.379937E+00  0.303224E+00  0.234262E+00
  0.176133E+00  0.130025E+00  0.957126E-01  0.717654E-01  0.559970E-01  0.462436E-01
  0.409461E-01  0.392650E-01  0.409461E-01  0.462436E-01  0.559970E-01  0.717654E-01
  0.957126E-01  0.130025E+00  0.176133E+00  0.234262E+00  0.303224E+00  0.379937E+00
  0.459218E+00  0.534954E+00  0.602198E+00  0.658420E+00  0.703281E+00  0.737684E+00
  0.762906E+00  0.780106E+00  0.790112E+00  0.793397E+00  0.790112E+00  0.829785E+00
  0.817871E+00  0.799131E+00  0.772502E+00  0.736608E+00  0.689934E+00  0.631253E+00
  0.560514E+00  0.480079E+00  0.395294E+00  0.313132E+00  0.239578E+00  0.178127E+00
  0.130025E+00  0.948361E-01  0.707981E-01  0.554598E-01  0.465371E-01  0.424576E-01
  0.424576E-01  0.465371E-01  0.554598E-01  0.707981E-01  0.948361E-01  0.130025E+00
  0.178127E+00  0.239578E+00  0.313132E+00  0.395294E+00  0.480079E+00  0.560514E+00
  0.631253E+00  0.689934E+00  0.736608E+00  0.772502E+00  0.799131E+00  0.817871E+00
  0.829785E+00  0.835572E+00  0.835572E+00  0.829785E+00  0.860388E+00  0.846985E+00
  0.826949E+00  0.799032E+00  0.761703E+00  0.713258E+00  0.652157E+00  0.577993E+00
  0.493075E+00  0.403295E+00  0.316554E+00  0.239578E+00  0.176133E+00  0.127318E+00
  0.923386E-01  0.690849E-01  0.548912E-01  0.473963E-01  0.450718E-01  0.473963E-01
  0.548912E-01  0.690849E-01  0.923386E-01  0.127318E+00  0.176133E+00  0.239578E+00
  0.316554E+00  0.403295E+00  0.493075E+00  0.577993E+00  0.652157E+00  0.713258E+00
  0.761703E+00  0.799032E+00  0.826949E+00  0.846985E+00  0.860388E+00  0.868069E+00
  0.870569E+00  0.868069E+00  0.860388E+00  0.883233E+00  0.868584E+00  0.847340E+00
  0.818094E+00  0.779172E+00  0.728674E+00  0.664777E+00  0.586874E+00  0.497490E+00
  0.403295E+00  0.313132E+00  0.234262E+00  0.170405E+00  0.122273E+00  0.886433E-01
  0.670839E-01  0.547408E-01  0.492274E-01  0.492274E-01  0.547408E-01  0.670839E-01
  0.886433E-01  0.122273E+00  0.170405E+00  0.234262E+00  0.313132E+00  0.403295E+00
  0.497490E+00  0.586874E+00  0.664777E+00  0.728674E+00  0.779172E+00  0.818094E+00
  0.847340E+00  0.868584E+00  0.883233E+00  0.892386E+00  0.896781E+00  0.896781E+00
  0.892386E+00  0.883233E+00  0.899533E+00  0.883720E+00  0.861197E+00  0.830395E+00
  0.789479E+00  0.736349E+00  0.668999E+00  0.586874E+00  0.493075E+00  0.395294E+00
  0.303224E+00  0.224264E+00  0.161678E+00  0.115623E+00  0.844566E-01  0.654275E-01
  0.555232E-01  0.524936E-01  0.555232E-01  0.654275E-01  0.844566E-01  0.115623E+00
  0.161678E+00  0.224264E+00  0.303224E+00  0.395294E+00  0.493075E+00  0.586874E+00
  0.668999E+00  0.736349E+00  0.789479E+00  0.830395E+00  0.861197E+00  0.883720E+00
  0.899533E+00  0.909914E+00  0.915783E+00  0.917681E+00  0.915783E+00  0.909914E+00
  0.899533E+00  0.910350E+00  0.893280E+00  0.869220E+00  0.836424E+00  0.792887E+00
  0.736349E+00  0.664777E+00  0.577993E+00  0.480079E+00  0.379937E+00  0.287831E+00
  0.210714E+00  0.151029E+00  0.108348E+00  0.806154E-01  0.647546E-01  0.577323E-01
  0.577323E-01  0.647546E-01  0.806154E-01  0.108348E+00  0.151029E+00  0.210714E+00
  0.287831E+00  0.379937E+00  0.480079E+00  0.577993E+00  0.664777E+00  0.736349E+00
  0.792887E+00  0.836424E+00  0.869220E+00  0.893280E+00  0.910350E+00  0.921888E+00
  0.928995E+00  0.932379E+00  0.932379E+00  0.928995E+00  0.921888E+00  0.910350E+00
  0.916503E+00  0.897899E+00  0.871845E+00  0.836424E+00  0.789479E+00  0.728674E+00
  0.652157E+00  0.560514E+00  0.459218E+00  0.358416E+00  0.268374E+00  0.194964E+00
  0.139645E+00  0.101444E+00  0.778605E-01  0.655740E-01  0.618261E-01  0.655740E-01
  0.778605E-01  0.101444E+00  0.139645E+00  0.194964E+00  0.268374E+00  0.358416E+00
  0.459218E+00  0.560514E+00  0.652157E+00  0.728674E+00  0.789479E+00  0.836424E+00
  0.871845E+00  0.897899E+00  0.916503E+00  0.929303E+00  0.937586E+00  0.942229E+00
  0.943725E+00  0.942229E+00  0.937586E+00  0.929303E+00  0.916503E+00  0.918498E+00
  0.897899E+00  0.869220E+00  0.830395E+00  0.779172E+00  0.713258E+00  0.631253E+00
  0.534954E+00  0.431585E+00  0.332251E+00  0.246393E+00  0.178353E+00  0.128641E+00
  0.957451E-01  0.767256E-01  0.682727E-01  0.682727E-01  0.767256E-01  0.957451E-01
  0.128641E+00  0.178353E+00  0.246393E+00  0.332251E+00  0.431585E+00  0.534954E+00
  0.631253E+00  0.713258E+00  0.779172E+00  0.830395E+00  0.869220E+00  0.897899E+00
  0.918498E+00  0.932840E+00  0.942406E+00  0.948250E+00  0.951023E+00  0.951023E+00
  0.948250E+00  0.942406E+00  0.932840E+00  0.918498E+00  0.916503E+00  0.893280E+00
  0.861197E+00  0.818094E+00  0.761703E+00  0.689934E+00  0.602198E+00  0.502036E+00
  0.398564E+00  0.303102E+00  0.223408E+00  0.162145E+00  0.118987E+00  0.918742E-01
  0.775859E-01  0.732051E-01  0.775859E-01  0.918742E-01  0.118987E+00  0.162145E+00
  0.223408E+00  0.303102E+00  0.398564E+00  0.502036E+00  0.602198E+00  0.689934E+00
  0.761703E+00  0.818094E+00  0.861197E+00  0.893280E+00  0.916503E+00  0.932840E+00
  0.943957E+00  0.951102E+00  0.955093E+00  0.956378E+00  0.955093E+00  0.951102E+00
  0.943957E+00  0.932840E+00  0.916503E+00  0.910350E+00  0.883720E+00  0.847340E+00
  0.799032E+00  0.736608E+00  0.658420E+00  0.565225E+00  0.462829E+00  0.361893E+00
  0.272786E+00  0.200956E+00  0.147535E+00  0.111490E+00  0.902865E-01  0.807574E-01
  0.807574E-01  0.902865E-01  0.111490E+00  0.147535E+00  0.200956E+00  0.272786E+00
  0.361893E+00  0.462829E+00  0.565225E+00  0.658420E+00  0.736608E+00  0.799032E+00
  0.847340E+00  0.883720E+00  0.910350E+00  0.929303E+00  0.942406E+00  0.951102E+00
  0.956400E+00  0.958910E+00  0.958910E+00  0.956400E+00  0.951102E+00  0.942406E+00
  0.929303E+00  0.910350E+00  0.899533E+00  0.868584E+00  0.826949E+00  0.772502E+00
  0.703281E+00  0.618521E+00  0.521037E+00  0.419092E+00  0.323795E+00  0.243278E+00
  0.180547E+00  0.135569E+00  0.106752E+00  0.913178E-01  0.865446E-01  0.913178E-01
  0.106752E+00  0.135569E+00  0.180547E+00  0.243278E+00  0.323795E+00  0.419092E+00
  0.521037E+00  0.618521E+00  0.703281E+00  0.772502E+00  0.826949E+00  0.868584E+00
  0.899533E+00  0.921888E+00  0.937586E+00  0.948250E+00  0.955093E+00  0.958910E+00
  0.960136E+00  0.958910E+00  0.955093E+00  0.948250E+00  0.937586E+00  0.921888E+00
  0.899533E+00  0.883233E+00  0.846985E+00  0.799131E+00  0.737684E+00  0.661224E+00
  0.570593E+00  0.471310E+00  0.373444E+00  0.286794E+00  0.216448E+00  0.163427E+00
  0.126977E+00  0.105133E+00  0.951903E-01  0.951903E-01  0.105133E+00  0.126977E+00
  0.163427E+00  0.216448E+00  0.286794E+00  0.373444E+00  0.471310E+00  0.570593E+00
  0.661224E+00  0.737684E+00  0.799131E+00  0.846985E+00  0.883233E+00  0.909914E+00
  0.928995E+00  0.942229E+00  0.951023E+00  0.956378E+00  0.958910E+00  0.958910E+00
  0.956378E+00  0.951023E+00  0.942229E+00  0.928995E+00  0.909914E+00  0.883233E+00
  0.860388E+00  0.817871E+00  0.762906E+00  0.693853E+00  0.610475E+00  0.516110E+00
  0.418915E+00  0.328983E+00  0.253167E+00  0.193676E+00  0.150368E+00  0.122110E+00
  0.106752E+00  0.101967E+00  0.106752E+00  0.122110E+00  0.150368E+00  0.193676E+00
  0.253167E+00  0.328983E+00  0.418915E+00  0.516110E+00  0.610475E+00  0.693853E+00
  0.762906E+00  0.817871E+00  0.860388E+00  0.892386E+00  0.915783E+00  0.932379E+00
  0.943725E+00  0.951023E+00  0.955093E+00  0.956400E+00  0.955093E+00  0.951023E+00
  0.943725E+00  0.932379E+00  0.915783E+00  0.892386E+00  0.860388E+00  0.829785E+00
  0.780106E+00  0.717344E+00  0.640735E+00  0.552194E+00  0.457975E+00  0.367440E+00
  0.288456E+00  0.224427E+00  0.175696E+00  0.141671E+00  0.120985E+00  0.111490E+00
  0.111490E+00  0.120985E+00  0.141671E+00  0.175696E+00  0.224427E+00  0.288456E+00
  0.367440E+00  0.457975E+00  0.552194E+00  0.640735E+00  0.717344E+00  0.780106E+00
  0.829785E+00  0.868069E+00  0.896781E+00  0.917681E+00  0.932379E+00  0.942229E+00
  0.948250E+00  0.951102E+00  0.951102E+00  0.948250E+00  0.942229E+00  0.932379E+00
  0.917681E+00  0.896781E+00  0.868069E+00  0.829785E+00  0.790112E+00  0.732543E+00
  0.661859E+00  0.579136E+00  0.489174E+00  0.400179E+00  0.320222E+00  0.253648E+00
  0.201282E+00  0.162744E+00  0.137289E+00  0.123344E+00  0.118987E+00  0.123344E+00
  0.137289E+00  0.162744E+00  0.201282E+00  0.253648E+00  0.320222E+00  0.400179E+00
  0.489174E+00  0.579136E+00  0.661859E+00  0.732543E+00  0.790112E+00  0.835572E+00
  0.870569E+00  0.896781E+00  0.915783E+00  0.928995E+00  0.937586E+00  0.942406E+00
  0.943957E+00  0.942406E+00  0.937586E+00  0.928995E+00  0.915783E+00  0.896781E+00
  0.870569E+00  0.835572E+00  0.790112E+00  0.740010E+00  0.674329E+00  0.596964E+00
  0.511744E+00  0.425770E+00  0.346732E+00  0.279474E+00  0.225285E+00  0.183852E+00
  0.154692E+00  0.136850E+00  0.128641E+00  0.128641E+00  0.136850E+00  0.154692E+00
  0.183852E+00  0.225285E+00  0.279474E+00  0.346732E+00  0.425770E+00  0.511744E+00
  0.596964E+00  0.674329E+00  0.740010E+00  0.793397E+00  0.835572E+00  0.868069E+00
  0.892386E+00  0.909914E+00  0.921888E+00  0.929303E+00  0.932840E+00  0.932840E+00
  0.929303E+00  0.921888E+00  0.909914E+00  0.892386E+00  0.868069E+00  0.835572E+00
  0.793397E+00  0.740010E+00  0.678452E+00  0.605827E+00  0.525357E+00  0.443280E+00
  0.366662E+00  0.300356E+00  0.245980E+00  0.203313E+00  0.171875E+00  0.151066E+00
  0.139645E+00  0.136077E+00  0.139645E+00  0.151066E+00  0.171875E+00  0.203313E+00
  0.245980E+00  0.300356E+00  0.366662E+00  0.443280E+00  0.525357E+00  0.605827E+00
  0.678452E+00  0.740010E+00  0.790112E+00  0.829785E+00  0.860388E+00  0.883233E+00
  0.899533E+00  0.910350E+00  0.916503E+00  0.918498E+00  0.916503E+00  0.910350E+00
  0.899533E+00  0.883233E+00  0.860388E+00  0.829785E+00  0.790112E+00  0.740010E+00
  0.678452E+00  0.657793E+00  0.588943E+00  0.515483E+00  0.443280E+00  0.377787E+00
  0.321634E+00  0.274993E+00  0.237906E+00  0.211179E+00  0.194964E+00  0.187755E+00
  0.187755E+00  0.194964E+00  0.211179E+00  0.237906E+00  0.274993E+00  0.321634E+00
  0.377787E+00  0.443280E+00  0.515483E+00  0.588943E+00  0.657793E+00  0.718204E+00
  0.768851E+00  0.809983E+00  0.842470E+00  0.867364E+00  0.885756E+00  0.898654E+00
  0.906842E+00  0.910820E+00  0.910820E+00  0.906842E+00  0.898654E+00  0.885756E+00
  0.867364E+00  0.842470E+00  0.809983E+00  0.768851E+00  0.718204E+00  0.657793E+00
  0.588943E+00  0.520024E+00  0.452164E+00  0.390259E+00  0.336835E+00  0.292140E+00
  0.255937E+00  0.228664E+00  0.210714E+00  0.201218E+00  0.198370E+00  0.201218E+00
  0.210714E+00  0.228664E+00  0.255937E+00  0.292140E+00  0.336835E+00  0.390259E+00
  0.452164E+00  0.520024E+00  0.588943E+00  0.653677E+00  0.710722E+00  0.758769E+00
  0.797923E+00  0.828875E+00  0.852525E+00  0.869821E+00  0.881601E+00  0.888457E+00
  0.890710E+00  0.888457E+00  0.881601E+00  0.869821E+00  0.852525E+00  0.828875E+00
  0.797923E+00  0.758769E+00  0.710722E+00  0.653677E+00  0.588943E+00  0.515483E+00
  0.452164E+00  0.394471E+00  0.344582E+00  0.302721E+00  0.268613E+00  0.242401E+00
  0.224264E+00  0.213582E+00  0.208888E+00  0.208888E+00  0.213582E+00  0.224264E+00
  0.242401E+00  0.268613E+00  0.302721E+00  0.344582E+00  0.394471E+00  0.452164E+00
  0.515483E+00  0.580098E+00  0.641220E+00  0.695483E+00  0.741444E+00  0.778972E+00
  0.808579E+00  0.831057E+00  0.847223E+00  0.857711E+00  0.862883E+00  0.862883E+00
  0.857711E+00  0.847223E+00  0.831057E+00  0.808579E+00  0.778972E+00  0.741444E+00
  0.695483E+00  0.641220E+00  0.580098E+00  0.515483E+00  0.443280E+00  0.390259E+00
  0.344582E+00  0.306280E+00  0.275088E+00  0.251103E+00  0.234262E+00  0.223749E+00
  0.218222E+00  0.216525E+00  0.218222E+00  0.223749E+00  0.234262E+00  0.251103E+00
  0.275088E+00  0.306280E+00  0.344582E+00  0.390259E+00  0.443280E+00  0.501898E+00
  0.562314E+00  0.620109E+00  0.671936E+00  0.716076E+00  0.752108E+00  0.780395E+00
  0.801637E+00  0.816484E+00  0.825316E+00  0.828254E+00  0.825316E+00  0.816484E+00
  0.801637E+00  0.780395E+00  0.752108E+00  0.716076E+00  0.671936E+00  0.620109E+00
  0.562314E+00  0.501898E+00  0.443280E+00  0.377787E+00  0.336835E+00  0.302721E+00
  0.275088E+00  0.254071E+00  0.239578E+00  0.230540E+00  0.225346E+00  0.222906E+00
  0.222906E+00  0.225346E+00  0.230540E+00  0.239578E+00  0.254071E+00  0.275088E+00
  0.302721E+00  0.336835E+00  0.377787E+00  0.425770E+00  0.479423E+00  0.535488E+00
  0.589921E+00  0.639315E+00  0.681606E+00  0.716074E+00  0.742938E+00  0.762759E+00
  0.775934E+00  0.782550E+00  0.782550E+00  0.775934E+00  0.762759E+00  0.742938E+00
  0.716074E+00  0.681606E+00  0.639315E+00  0.589921E+00  0.535488E+00  0.479423E+00
  0.425770E+00  0.377787E+00  0.321634E+00  0.292140E+00  0.268613E+00  0.251103E+00
  0.239578E+00  0.232940E+00  0.229252E+00  0.227113E+00  0.226340E+00  0.227113E+00
  0.229252E+00  0.232940E+00  0.239578E+00  0.251103E+00  0.268613E+00  0.292140E+00
  0.321634E+00  0.357555E+00  0.400179E+00  0.448466E+00  0.499732E+00  0.550355E+00
  0.596880E+00  0.636936E+00  0.669545E+00  0.694728E+00  0.712770E+00  0.723719E+00
  0.727405E+00  0.723719E+00  0.712770E+00  0.694728E+00  0.669545E+00  0.636936E+00
  0.596880E+00  0.550355E+00  0.499732E+00  0.448466E+00  0.400179E+00  0.357555E+00
  0.321634E+00  0.274993E+00  0.255937E+00  0.242401E+00  0.234262E+00  0.230540E+00
  0.229252E+00  0.228580E+00  0.228041E+00  0.228041E+00  0.228580E+00  0.229252E+00
  0.230540E+00  0.234262E+00  0.242401E+00  0.255937E+00  0.274993E+00  0.299688E+00
  0.330442E+00  0.367440E+00  0.409896E+00  0.455695E+00  0.501643E+00  0.544365E+00
  0.581373E+00  0.611501E+00  0.634458E+00  0.650093E+00  0.658070E+00  0.658070E+00
  0.650093E+00  0.634458E+00  0.611501E+00  0.581373E+00  0.544365E+00  0.501643E+00
  0.455695E+00  0.409896E+00  0.367440E+00  0.330442E+00  0.299688E+00  0.274993E+00
  0.237906E+00  0.228664E+00  0.224264E+00  0.223749E+00  0.225346E+00  0.227113E+00
  0.228041E+00  0.228259E+00  0.228041E+00  0.227113E+00  0.225346E+00  0.223749E+00
  0.224264E+00  0.228664E+00  0.237906E+00  0.252355E+00  0.272236E+00  0.297772E+00
  0.328983E+00  0.365248E+00  0.404853E+00  0.444999E+00  0.482614E+00  0.515378E+00
  0.542026E+00  0.561858E+00  0.574204E+00  0.578414E+00  0.574204E+00  0.561858E+00
  0.542026E+00  0.515378E+00  0.482614E+00  0.444999E+00  0.404853E+00  0.365248E+00
  0.328983E+00  0.297772E+00  0.272236E+00  0.252355E+00  0.237906E+00  0.211179E+00
  0.210714E+00  0.213582E+00  0.218222E+00  0.222906E+00  0.226340E+00  0.228041E+00
  0.228041E+00  0.226340E+00  0.222906E+00  0.218222E+00  0.213582E+00  0.210714E+00
  0.211179E+00  0.216060E+00  0.225939E+00  0.241029E+00  0.261358E+00  0.286794E+00
  0.316720E+00  0.349566E+00  0.382893E+00  0.414163E+00  0.441462E+00  0.463503E+00
  0.479172E+00  0.487377E+00  0.487377E+00  0.479172E+00  0.463503E+00  0.441462E+00
  0.414163E+00  0.382893E+00  0.349566E+00  0.316720E+00  0.286794E+00  0.261358E+00
  0.241029E+00  0.225939E+00  0.216060E+00  0.211179E+00  0.194964E+00  0.201218E+00
  0.208888E+00  0.216525E+00  0.222906E+00  0.227113E+00  0.228580E+00  0.227113E+00
  0.222906E+00  0.216525E+00  0.208888E+00  0.201218E+00  0.194964E+00  0.191606E+00
  0.192336E+00  0.197805E+00  0.208193E+00  0.223437E+00  0.243278E+00  0.266935E+00
  0.292839E+00  0.318927E+00  0.343291E+00  0.364464E+00  0.381155E+00  0.391990E+00
  0.395767E+00  0.391990E+00  0.381155E+00  0.364464E+00  0.343291E+00  0.318927E+00
  0.292839E+00  0.266935E+00  0.243278E+00  0.223437E+00  0.208193E+00  0.197805E+00
  0.192336E+00  0.191606E+00  0.194964E+00  0.187755E+00  0.198370E+00  0.208888E+00
  0.218222E+00  0.225346E+00  0.229252E+00  0.229252E+00  0.225346E+00  0.218222E+00
  0.208888E+00  0.198370E+00  0.187755E+00  0.178353E+00  0.171589E+00  0.168606E+00
  0.170012E+00  0.175980E+00  0.186427E+00  0.200956E+00  0.218616E+00  0.237903E+00
  0.257171E+00  0.275028E+00  0.290282E+00  0.301652E+00  0.307796E+00  0.307796E+00
  0.301652E+00  0.290282E+00  0.275028E+00  0.257171E+00  0.237903E+00  0.218616E+00
  0.200956E+00  0.186427E+00  0.175980E+00  0.170012E+00  0.168606E+00  0.171589E+00
  0.178353E+00  0.187755E+00  0.187755E+00  0.201218E+00  0.213582E+00  0.223749E+00
  0.230540E+00  0.232940E+00  0.230540E+00  0.223749E+00  0.213582E+00  0.201218E+00
  0.187755E+00  0.174309E+00  0.162145E+00  0.152530E+00  0.146428E+00  0.144346E+00
  0.146428E+00  0.152530E+00  0.162145E+00  0.174309E+00  0.187755E+00  0.201218E+00
  0.213582E+00  0.223749E+00  0.230540E+00  0.232940E+00  0.230540E+00  0.223749E+00
  0.213582E+00  0.201218E+00  0.187755E+00  0.174309E+00  0.162145E+00  0.152530E+00
  0.146428E+00  0.144346E+00  0.146428E+00  0.152530E+00  0.162145E+00  0.174309E+00
  0.187755E+00  0.194964E+00  0.210714E+00  0.224264E+00  0.234262E+00  0.239578E+00
  0.239578E+00  0.234262E+00  0.224264E+00  0.210714E+00  0.194964E+00  0.178353E+00
  0.162145E+00  0.147535E+00  0.135569E+00  0.126977E+00  0.122110E+00  0.120985E+00
  0.123344E+00  0.128641E+00  0.136077E+00  0.144694E+00  0.153497E+00  0.161478E+00
  0.167611E+00  0.170962E+00  0.170962E+00  0.167611E+00  0.161478E+00  0.153497E+00
  0.144694E+00  0.136077E+00  0.128641E+00  0.123344E+00  0.120985E+00  0.122110E+00
  0.126977E+00  0.135569E+00  0.147535E+00  0.162145E+00  0.178353E+00  0.194964E+00
  0.211179E+00  0.228664E+00  0.242401E+00  0.251103E+00  0.254071E+00  0.251103E+00
  0.242401E+00  0.228664E+00  0.211179E+00  0.191606E+00  0.171589E+00  0.152530E+00
  0.135569E+00  0.121557E+00  0.110986E+00  0.103967E+00  0.100311E+00  0.996392E-01
  0.101444E+00  0.105121E+00  0.109963E+00  0.115149E+00  0.119777E+00  0.122979E+00
  0.124123E+00  0.122979E+00  0.119777E+00  0.115149E+00  0.109963E+00  0.105121E+00
  0.101444E+00  0.996392E-01  0.100311E+00  0.103967E+00  0.110986E+00  0.121557E+00
  0.135569E+00  0.152530E+00  0.171589E+00  0.191606E+00  0.211179E+00  0.237906E+00
  0.255937E+00  0.268613E+00  0.275088E+00  0.275088E+00  0.268613E+00  0.255937E+00
  0.237906E+00  0.216060E+00  0.192336E+00  0.168606E+00  0.146428E+00  0.126977E+00
  0.110986E+00  0.986993E-01  0.899499E-01  0.843371E-01  0.813843E-01  0.806154E-01
  0.815465E-01  0.836237E-01  0.861746E-01  0.884513E-01  0.897868E-01  0.897868E-01
  0.884513E-01  0.861746E-01  0.836237E-01  0.815465E-01  0.806154E-01  0.813843E-01
  0.843371E-01  0.899499E-01  0.986993E-01  0.110986E+00  0.126977E+00  0.146428E+00
  0.168606E+00  0.192336E+00  0.216060E+00  0.237906E+00  0.274993E+00  0.292140E+00
  0.302721E+00  0.306280E+00  0.302721E+00  0.292140E+00  0.274993E+00  0.252355E+00
  0.225939E+00  0.197805E+00  0.170012E+00  0.144346E+00  0.122110E+00  0.103967E+00
  0.899499E-01  0.796607E-01  0.725201E-01  0.679457E-01  0.654275E-01  0.645142E-01
  0.647418E-01  0.655683E-01  0.663992E-01  0.667412E-01  0.663992E-01  0.655683E-01
  0.647418E-01  0.645142E-01  0.654275E-01  0.679457E-01  0.725201E-01  0.796607E-01
  0.899499E-01  0.103967E+00  0.122110E+00  0.144346E+00  0.170012E+00  0.197805E+00
  0.225939E+00  0.252355E+00  0.274993E+00  0.321634E+00  0.336835E+00  0.344582E+00
  0.344582E+00  0.336835E+00  0.321634E+00  0.299688E+00  0.272236E+00  0.241029E+00
  0.208193E+00  0.175980E+00  0.146428E+00  0.120985E+00  0.100311E+00  0.843371E-01
  0.725201E-01  0.641174E-01  0.583947E-01  0.547408E-01  0.526775E-01  0.517834E-01
  0.516051E-01  0.516755E-01  0.516755E-01  0.516051E-01  0.517834E-01  0.526775E-01
  0.547408E-01  0.583947E-01  0.641174E-01  0.725201E-01  0.843371E-01  0.100311E+00
  0.120985E+00  0.146428E+00  0.175980E+00  0.208193E+00  0.241029E+00  0.272236E+00
  0.299688E+00  0.321634E+00  0.377787E+00  0.390259E+00  0.394471E+00  0.390259E+00
  0.377787E+00  0.357555E+00  0.330442E+00  0.297772E+00  0.261358E+00  0.223437E+00
  0.186427E+00  0.152530E+00  0.123344E+00  0.996392E-01  0.813843E-01  0.679457E-01
  0.583947E-01  0.517974E-01  0.473963E-01  0.446415E-01  0.431068E-01  0.424063E-01
  0.422173E-01  0.424063E-01  0.431068E-01  0.446415E-01  0.473963E-01  0.517974E-01
  0.583947E-01  0.679457E-01  0.813843E-01  0.996392E-01  0.123344E+00  0.152530E+00
  0.186427E+00  0.223437E+00  0.261358E+00  0.297772E+00  0.330442E+00  0.357555E+00
  0.377787E+00  0.443280E+00  0.452164E+00  0.452164E+00  0.443280E+00  0.425770E+00
  0.400179E+00  0.367440E+00  0.328983E+00  0.286794E+00  0.243278E+00  0.200956E+00
  0.162145E+00  0.128641E+00  0.101444E+00  0.806154E-01  0.654275E-01  0.547408E-01
  0.473963E-01  0.424576E-01  0.392650E-01  0.373806E-01  0.365169E-01  0.365169E-01
  0.373806E-01  0.392650E-01  0.424576E-01  0.473963E-01  0.547408E-01  0.654275E-01
  0.806154E-01  0.101444E+00  0.128641E+00  0.162145E+00  0.200956E+00  0.243278E+00
  0.286794E+00  0.328983E+00  0.367440E+00  0.400179E+00  0.425770E+00  0.443280E+00
  0.515483E+00  0.520024E+00  0.515483E+00  0.501898E+00  0.479423E+00  0.448466E+00
  0.409896E+00  0.365248E+00  0.316720E+00  0.266935E+00  0.218616E+00  0.174309E+00
  0.136077E+00  0.105121E+00  0.815465E-01  0.645142E-01  0.526775E-01  0.446415E-01
  0.392650E-01  0.357853E-01  0.337995E-01  0.331495E-01  0.337995E-01  0.357853E-01
  0.392650E-01  0.446415E-01  0.526775E-01  0.645142E-01  0.815465E-01  0.105121E+00
  0.136077E+00  0.174309E+00  0.218616E+00  0.266935E+00  0.316720E+00  0.365248E+00
  0.409896E+00  0.448466E+00  0.479423E+00  0.501898E+00  0.515483E+00  0.588943E+00
  0.588943E+00  0.580098E+00  0.562314E+00  0.535488E+00  0.499732E+00  0.455695E+00
  0.404853E+00  0.349566E+00  0.292839E+00  0.237903E+00  0.187755E+00  0.144694E+00
  0.109963E+00  0.836237E-01  0.647418E-01  0.517834E-01  0.431068E-01  0.373806E-01
  0.337995E-01  0.320403E-01  0.320403E-01  0.337995E-01  0.373806E-01  0.431068E-01
  0.517834E-01  0.647418E-01  0.836237E-01  0.109963E+00  0.144694E+00  0.187755E+00
  0.237903E+00  0.292839E+00  0.349566E+00  0.404853E+00  0.455695E+00  0.499732E+00
  0.535488E+00  0.562314E+00  0.580098E+00  0.588943E+00  0.657793E+00  0.653677E+00
  0.641220E+00  0.620109E+00  0.589921E+00  0.550355E+00  0.501643E+00  0.444999E+00
  0.382893E+00  0.318927E+00  0.257171E+00  0.201218E+00  0.153497E+00  0.115149E+00
  0.861746E-01  0.655683E-01  0.516051E-01  0.424063E-01  0.365169E-01  0.331495E-01
  0.320403E-01  0.331495E-01  0.365169E-01  0.424063E-01  0.516051E-01  0.655683E-01
  0.861746E-01  0.115149E+00  0.153497E+00  0.201218E+00  0.257171E+00  0.318927E+00
  0.382893E+00  0.444999E+00  0.501643E+00  0.550355E+00  0.589921E+00  0.620109E+00
  0.641220E+00  0.653677E+00  0.657793E+00  0.718204E+00  0.710722E+00  0.695483E+00
  0.671936E+00  0.639315E+00  0.596880E+00  0.544365E+00  0.482614E+00  0.414163E+00
  0.343291E+00  0.275028E+00  0.213582E+00  0.161478E+00  0.119777E+00  0.884513E-01
  0.663992E-01  0.516755E-01  0.422173E-01  0.365169E-01  0.337995E-01  0.337995E-01
  0.365169E-01  0.422173E-01  0.516755E-01  0.663992E-01  0.884513E-01  0.119777E+00
  0.161478E+00  0.213582E+00  0.275028E+00  0.343291E+00  0.414163E+00  0.482614E+00
  0.544365E+00  0.596880E+00  0.639315E+00  0.671936E+00  0.695483E+00  0.710722E+00
  0.718204E+00  0.718204E+00  0.768851E+00  0.758769E+00  0.741444E+00  0.716076E+00
  0.681606E+00  0.636936E+00  0.581373E+00  0.515378E+00  0.441462E+00  0.364464E+00
  0.290282E+00  0.223749E+00  0.167611E+00  0.122979E+00  0.897868E-01  0.667412E-01
  0.516755E-01  0.424063E-01  0.373806E-01  0.357853E-01  0.373806E-01  0.424063E-01
  0.516755E-01  0.667412E-01  0.897868E-01  0.122979E+00  0.167611E+00  0.223749E+00
  0.290282E+00  0.364464E+00  0.441462E+00  0.515378E+00  0.581373E+00  0.636936E+00
  0.681606E+00  0.716076E+00  0.741444E+00  0.758769E+00  0.768851E+00  0.772161E+00
  0.768851E+00  0.809983E+00  0.797923E+00  0.778972E+00  0.752108E+00  0.716074E+00
  0.669545E+00  0.611501E+00  0.542026E+00  0.463503E+00  0.381155E+00  0.301652E+00
  0.230540E+00  0.170962E+00  0.124123E+00  0.897868E-01  0.663992E-01  0.516051E-01
  0.431068E-01  0.392650E-01  0.392650E-01  0.431068E-01  0.516051E-01  0.663992E-01
  0.897868E-01  0.124123E+00  0.170962E+00  0.230540E+00  0.301652E+00  0.381155E+00
  0.463503E+00  0.542026E+00  0.611501E+00  0.669545E+00  0.716074E+00  0.752108E+00
  0.778972E+00  0.797923E+00  0.809983E+00  0.815843E+00  0.815843E+00  0.809983E+00
  0.842470E+00  0.828875E+00  0.808579E+00  0.780395E+00  0.742938E+00  0.694728E+00
  0.634458E+00  0.561858E+00  0.479172E+00  0.391990E+00  0.307796E+00  0.232940E+00
  0.170962E+00  0.122979E+00  0.884513E-01  0.655683E-01  0.517834E-01  0.446415E-01
  0.424576E-01  0.446415E-01  0.517834E-01  0.655683E-01  0.884513E-01  0.122979E+00
  0.170962E+00  0.232940E+00  0.307796E+00  0.391990E+00  0.479172E+00  0.561858E+00
  0.634458E+00  0.694728E+00  0.742938E+00  0.780395E+00  0.808579E+00  0.828875E+00
  0.842470E+00  0.850264E+00  0.852801E+00  0.850264E+00  0.842470E+00  0.867364E+00
  0.852525E+00  0.831057E+00  0.801637E+00  0.762759E+00  0.712770E+00  0.650093E+00
  0.574204E+00  0.487377E+00  0.395767E+00  0.307796E+00  0.230540E+00  0.167611E+00
  0.119777E+00  0.861746E-01  0.647418E-01  0.526775E-01  0.473963E-01  0.473963E-01
  0.526775E-01  0.647418E-01  0.861746E-01  0.119777E+00  0.167611E+00  0.230540E+00
  0.307796E+00  0.395767E+00  0.487377E+00  0.574204E+00  0.650093E+00  0.712770E+00
  0.762759E+00  0.801637E+00  0.831057E+00  0.852525E+00  0.867364E+00  0.876646E+00
  0.881105E+00  0.881105E+00  0.876646E+00  0.867364E+00  0.885756E+00  0.869821E+00
  0.847223E+00  0.816484E+00  0.775934E+00  0.723719E+00  0.658070E+00  0.578414E+00
  0.487377E+00  0.391990E+00  0.301652E+00  0.223749E+00  0.161478E+00  0.115149E+00
  0.836237E-01  0.645142E-01  0.547408E-01  0.517974E-01  0.547408E-01  0.645142E-01
  0.836237E-01  0.115149E+00  0.161478E+00  0.223749E+00  0.301652E+00  0.391990E+00
  0.487377E+00  0.578414E+00  0.658070E+00  0.723719E+00  0.775934E+00  0.816484E+00
  0.847223E+00  0.869821E+00  0.885756E+00  0.896254E+00  0.902206E+00  0.904133E+00
  0.902206E+00  0.896254E+00  0.885756E+00  0.898654E+00  0.881601E+00  0.857711E+00
  0.825316E+00  0.782550E+00  0.727405E+00  0.658070E+00  0.574204E+00  0.479172E+00
  0.381155E+00  0.290282E+00  0.213582E+00  0.153497E+00  0.109963E+00  0.815465E-01
  0.654275E-01  0.583947E-01  0.583947E-01  0.654275E-01  0.815465E-01  0.109963E+00
  0.153497E+00  0.213582E+00  0.290282E+00  0.381155E+00  0.479172E+00  0.574204E+00
  0.658070E+00  0.727405E+00  0.782550E+00  0.825316E+00  0.857711E+00  0.881601E+00
  0.898654E+00  0.910262E+00  0.917460E+00  0.920905E+00  0.920905E+00  0.917460E+00
  0.910262E+00  0.898654E+00  0.906842E+00  0.888457E+00  0.862883E+00  0.828254E+00
  0.782550E+00  0.723719E+00  0.650093E+00  0.561858E+00  0.463503E+00  0.364464E+00
  0.275028E+00  0.201218E+00  0.144694E+00  0.105121E+00  0.806154E-01  0.679457E-01
  0.641174E-01  0.679457E-01  0.806154E-01  0.105121E+00  0.144694E+00  0.201218E+00
  0.275028E+00  0.364464E+00  0.463503E+00  0.561858E+00  0.650093E+00  0.723719E+00
  0.782550E+00  0.828254E+00  0.862883E+00  0.888457E+00  0.906842E+00  0.919620E+00
  0.927986E+00  0.932723E+00  0.934258E+00  0.932723E+00  0.927986E+00  0.919620E+00
  0.906842E+00  0.910820E+00  0.890710E+00  0.862883E+00  0.825316E+00  0.775934E+00
  0.712770E+00  0.634458E+00  0.542026E+00  0.441462E+00  0.343291E+00  0.257171E+00
  0.187755E+00  0.136077E+00  0.101444E+00  0.813843E-01  0.725201E-01  0.725201E-01
  0.813843E-01  0.101444E+00  0.136077E+00  0.187755E+00  0.257171E+00  0.343291E+00
  0.441462E+00  0.542026E+00  0.634458E+00  0.712770E+00  0.775934E+00  0.825316E+00
  0.862883E+00  0.890710E+00  0.910820E+00  0.924990E+00  0.934591E+00  0.940551E+00
  0.943411E+00  0.943411E+00  0.940551E+00  0.934591E+00  0.924990E+00  0.910820E+00
  0.910820E+00  0.888457E+00  0.857711E+00  0.816484E+00  0.762759E+00  0.694728E+00
  0.611501E+00  0.515378E+00  0.414163E+00  0.318927E+00  0.237903E+00  0.174309E+00
  0.128641E+00  0.996392E-01  0.843371E-01  0.796607E-01  0.843371E-01  0.996392E-01
  0.128641E+00  0.174309E+00  0.237903E+00  0.318927E+00  0.414163E+00  0.515378E+00
  0.611501E+00  0.694728E+00  0.762759E+00  0.816484E+00  0.857711E+00  0.888457E+00
  0.910820E+00  0.926741E+00  0.937777E+00  0.945019E+00  0.949135E+00  0.950472E+00
  0.949135E+00  0.945019E+00  0.937777E+00  0.926741E+00  0.910820E+00  0.906842E+00
  0.881601E+00  0.847223E+00  0.801637E+00  0.742938E+00  0.669545E+00  0.581373E+00
  0.482614E+00  0.382893E+00  0.292839E+00  0.218616E+00  0.162145E+00  0.123344E+00
  0.100311E+00  0.899499E-01  0.899499E-01  0.100311E+00  0.123344E+00  0.162145E+00
  0.218616E+00  0.292839E+00  0.382893E+00  0.482614E+00  0.581373E+00  0.669545E+00
  0.742938E+00  0.801637E+00  0.847223E+00  0.881601E+00  0.906842E+00  0.924990E+00
  0.937777E+00  0.946471E+00  0.951891E+00  0.954499E+00  0.954499E+00  0.951891E+00
  0.946471E+00  0.937777E+00  0.924990E+00  0.906842E+00  0.898654E+00  0.869821E+00
  0.831057E+00  0.780395E+00  0.716074E+00  0.636936E+00  0.544365E+00  0.444999E+00
  0.349566E+00  0.266935E+00  0.200956E+00  0.152530E+00  0.120985E+00  0.103967E+00
  0.986993E-01  0.103967E+00  0.120985E+00  0.152530E+00  0.200956E+00  0.266935E+00
  0.349566E+00  0.444999E+00  0.544365E+00  0.636936E+00  0.716074E+00  0.780395E+00
  0.831057E+00  0.869821E+00  0.898654E+00  0.919620E+00  0.934591E+00  0.945019E+00
  0.951891E+00  0.955808E+00  0.957082E+00  0.955808E+00  0.951891E+00  0.945019E+00
  0.934591E+00  0.919620E+00  0.898654E+00  0.885756E+00  0.852525E+00  0.808579E+00
  0.752108E+00  0.681606E+00  0.596880E+00  0.501643E+00  0.404853E+00  0.316720E+00
  0.243278E+00  0.186427E+00  0.146428E+00  0.122110E+00  0.110986E+00  0.110986E+00
  0.122110E+00  0.146428E+00  0.186427E+00  0.243278E+00  0.316720E+00  0.404853E+00
  0.501643E+00  0.596880E+00  0.681606E+00  0.752108E+00  0.808579E+00  0.852525E+00
  0.885756E+00  0.910262E+00  0.927986E+00  0.940551E+00  0.949135E+00  0.954499E+00
  0.957082E+00  0.957082E+00  0.954499E+00  0.949135E+00  0.940551E+00  0.927986E+00
  0.910262E+00  0.885756E+00  0.867364E+00  0.828875E+00  0.778972E+00  0.716076E+00
  0.639315E+00  0.550355E+00  0.455695E+00  0.365248E+00  0.286794E+00  0.223437E+00
  0.175980E+00  0.144346E+00  0.126977E+00  0.121557E+00  0.126977E+00  0.144346E+00
  0.175980E+00  0.223437E+00  0.286794E+00  0.365248E+00  0.455695E+00  0.550355E+00
  0.639315E+00  0.716076E+00  0.778972E+00  0.828875E+00  0.867364E+00  0.896254E+00
  0.917460E+00  0.932723E+00  0.943411E+00  0.950472E+00  0.954499E+00  0.955808E+00
  0.954499E+00  0.950472E+00  0.943411E+00  0.932723E+00  0.917460E+00  0.896254E+00
  0.867364E+00  0.842470E+00  0.797923E+00  0.741444E+00  0.671936E+00  0.589921E+00
  0.499732E+00  0.409896E+00  0.328983E+00  0.261358E+00  0.208193E+00  0.170012E+00
  0.146428E+00  0.135569E+00  0.135569E+00  0.146428E+00  0.170012E+00  0.208193E+00
  0.261358E+00  0.328983E+00  0.409896E+00  0.499732E+00  0.589921E+00  0.671936E+00
  0.741444E+00  0.797923E+00  0.842470E+00  0.876646E+00  0.902206E+00  0.920905E+00
  0.934258E+00  0.943411E+00  0.949135E+00  0.951891E+00  0.951891E+00  0.949135E+00
  0.943411E+00  0.934258E+00  0.920905E+00  0.902206E+00  0.876646E+00  0.842470E+00
  0.809983E+00  0.758769E+00  0.695483E+00  0.620109E+00  0.535488E+00  0.448466E+00
  0.367440E+00  0.297772E+00  0.241029E+00  0.197805E+00  0.168606E+00  0.152530E+00
  0.147535E+00  0.152530E+00  0.168606E+00  0.197805E+00  0.241029E+00  0.297772E+00
  0.367440E+00  0.448466E+00  0.535488E+00  0.620109E+00  0.695483E+00  0.758769E+00
  0.809983E+00  0.850264E+00  0.881105E+00  0.904133E+00  0.920905E+00  0.932723E+00
  0.940551E+00  0.945019E+00  0.946471E+00  0.945019E+00  0.940551E+00  0.932723E+00
  0.920905E+00  0.904133E+00  0.881105E+00  0.850264E+00  0.809983E+00  0.768851E+00
  0.710722E+00  0.641220E+00  0.562314E+00  0.479423E+00  0.400179E+00  0.330442E+00
  0.272236E+00  0.225939E+00  0.192336E+00  0.171589E+00  0.162145E+00  0.162145E+00
  0.171589E+00  0.192336E+00  0.225939E+00  0.272236E+00  0.330442E+00  0.400179E+00
  0.479423E+00  0.562314E+00  0.641220E+00  0.710722E+00  0.768851E+00  0.815843E+00
  0.852801E+00  0.881105E+00  0.902206E+00  0.917460E+00  0.927986E+00  0.934591E+00
  0.937777E+00  0.937777E+00  0.934591E+00  0.927986E+00  0.917460E+00  0.902206E+00
  0.881105E+00  0.852801E+00  0.815843E+00  0.768851E+00  0.718204E+00  0.653677E+00
  0.580098E+00  0.501898E+00  0.425770E+00  0.357555E+00  0.299688E+00  0.252355E+00
  0.216060E+00  0.191606E+00  0.178353E+00  0.174309E+00  0.178353E+00  0.191606E+00
  0.216060E+00  0.252355E+00  0.299688E+00  0.357555E+00  0.425770E+00  0.501898E+00
  0.580098E+00  0.653677E+00  0.718204E+00  0.772161E+00  0.815843E+00  0.850264E+00
  0.876646E+00  0.896254E+00  0.910262E+00  0.919620E+00  0.924990E+00  0.926741E+00
  0.924990E+00  0.919620E+00  0.910262E+00  0.896254E+00  0.876646E+00  0.850264E+00
  0.815843E+00  0.772161E+00  0.718204E+00  0.657793E+00  0.588943E+00  0.515483E+00
  0.443280E+00  0.377787E+00  0.321634E+00  0.274993E+00  0.237906E+00  0.211179E+00
  0.194964E+00  0.187755E+00  0.187755E+00  0.194964E+00  0.211179E+00  0.237906E+00
  0.274993E+00  0.321634E+00  0.377787E+00  0.443280E+00  0.515483E+00  0.588943E+00
  0.657793E+00  0.718204E+00  0.768851E+00  0.809983E+00  0.842470E+00  0.867364E+00
  0.885756E+00  0.898654E+00  0.906842E+00  0.910820E+00  0.910820E+00  0.906842E+00
  0.898654E+00  0.885756E+00  0.867364E+00  0.842470E+00  0.809983E+00  0.768851E+00
  0.718204E+00  0.657793E+00  0.650001E+00  0.588943E+00  0.525357E+00  0.463843E+00
  0.408431E+00  0.360708E+00  0.320781E+00  0.289519E+00  0.268374E+00  0.257171E+00
  0.253862E+00  0.257171E+00  0.268374E+00  0.289519E+00  0.320781E+00  0.360708E+00
  0.408431E+00  0.463843E+00  0.525357E+00  0.588943E+00  0.650001E+00  0.705360E+00
  0.753494E+00  0.793862E+00  0.826500E+00  0.851943E+00  0.871116E+00  0.885046E+00
  0.894561E+00  0.900145E+00  0.901992E+00  0.900145E+00  0.894561E+00  0.885046E+00
  0.871116E+00  0.851943E+00  0.826500E+00  0.793862E+00  0.753494E+00  0.705360E+00
  0.650001E+00  0.588943E+00  0.529902E+00  0.472759E+00  0.421131E+00  0.376666E+00
  0.339367E+00  0.309412E+00  0.287831E+00  0.275028E+00  0.269569E+00  0.269569E+00
  0.275028E+00  0.287831E+00  0.309412E+00  0.339367E+00  0.376666E+00  0.421131E+00
  0.472759E+00  0.529902E+00  0.588943E+00  0.645890E+00  0.697879E+00  0.743384E+00
  0.781758E+00  0.812902E+00  0.837206E+00  0.855442E+00  0.868463E+00  0.876906E+00
  0.881083E+00  0.881083E+00  0.876906E+00  0.868463E+00  0.855442E+00  0.837206E+00
  0.812902E+00  0.781758E+00  0.743384E+00  0.697879E+00  0.645890E+00  0.588943E+00
  0.525357E+00  0.472759E+00  0.425375E+00  0.384671E+00  0.350727E+00  0.323448E+00
  0.303224E+00  0.290282E+00  0.283712E+00  0.281813E+00  0.283712E+00  0.290282E+00
  0.303224E+00  0.323448E+00  0.350727E+00  0.384671E+00  0.425375E+00  0.472759E+00
  0.525357E+00  0.580098E+00  0.633445E+00  0.682634E+00  0.726014E+00  0.762750E+00
  0.792597E+00  0.815850E+00  0.833164E+00  0.845200E+00  0.852350E+00  0.854731E+00
  0.852350E+00  0.845200E+00  0.833164E+00  0.815850E+00  0.792597E+00  0.762750E+00
  0.726014E+00  0.682634E+00  0.633445E+00  0.580098E+00  0.525357E+00  0.463843E+00
  0.421131E+00  0.384671E+00  0.354522E+00  0.330651E+00  0.313132E+00  0.301652E+00
  0.295194E+00  0.292422E+00  0.292422E+00  0.295194E+00  0.301652E+00  0.313132E+00
  0.330651E+00  0.354522E+00  0.384671E+00  0.421131E+00  0.463843E+00  0.511744E+00
  0.562314E+00  0.612350E+00  0.659087E+00  0.700629E+00  0.735872E+00  0.764434E+00
  0.786564E+00  0.802802E+00  0.813565E+00  0.818968E+00  0.818968E+00  0.813565E+00
  0.802802E+00  0.786564E+00  0.764434E+00  0.735872E+00  0.700629E+00  0.659087E+00
  0.612350E+00  0.562314E+00  0.511744E+00  0.463843E+00  0.408431E+00  0.376666E+00
  0.350727E+00  0.330651E+00  0.316554E+00  0.307796E+00  0.302838E+00  0.300233E+00
  0.299387E+00  0.300233E+00  0.302838E+00  0.307796E+00  0.316554E+00  0.330651E+00
  0.350727E+00  0.376666E+00  0.408431E+00  0.446147E+00  0.489174E+00  0.535488E+00
  0.582218E+00  0.626565E+00  0.666304E+00  0.700005E+00  0.727158E+00  0.747958E+00
  0.762783E+00  0.771764E+00  0.774789E+00  0.771764E+00  0.762783E+00  0.747958E+00
  0.727158E+00  0.700005E+00  0.666304E+00  0.626565E+00  0.582218E+00  0.535488E+00
  0.489174E+00  0.446147E+00  0.408431E+00  0.360708E+00  0.339367E+00  0.323448E+00
  0.313132E+00  0.307796E+00  0.305545E+00  0.304381E+00  0.303639E+00  0.303639E+00
  0.304381E+00  0.305545E+00  0.307796E+00  0.313132E+00  0.323448E+00  0.339367E+00
  0.360708E+00  0.387510E+00  0.420053E+00  0.457975E+00  0.499732E+00  0.542854E+00
  0.584524E+00  0.622169E+00  0.654046E+00  0.679514E+00  0.698642E+00  0.711558E+00
  0.718127E+00  0.718127E+00  0.711558E+00  0.698642E+00  0.679514E+00  0.654046E+00
  0.622169E+00  0.584524E+00  0.542854E+00  0.499732E+00  0.457975E+00  0.420053E+00
  0.387510E+00  0.360708E+00  0.320781E+00  0.309412E+00  0.303224E+00  0.301652E+00
  0.302838E+00  0.304381E+00  0.305030E+00  0.305100E+00  0.305030E+00  0.304381E+00
  0.302838E+00  0.301652E+00  0.303224E+00  0.309412E+00  0.320781E+00  0.337287E+00
  0.359064E+00  0.386346E+00  0.418915E+00  0.455695E+00  0.494630E+00  0.532914E+00
  0.567736E+00  0.597177E+00  0.620460E+00  0.637412E+00  0.647830E+00  0.651364E+00
  0.647830E+00  0.637412E+00  0.620460E+00  0.597177E+00  0.567736E+00  0.532914E+00
  0.494630E+00  0.455695E+00  0.418915E+00  0.386346E+00  0.359064E+00  0.337287E+00
  0.320781E+00  0.289519E+00  0.287831E+00  0.290282E+00  0.295194E+00  0.300233E+00
  0.303639E+00  0.305100E+00  0.305100E+00  0.303639E+00  0.300233E+00  0.295194E+00
  0.290282E+00  0.287831E+00  0.289519E+00  0.296061E+00  0.307662E+00  0.324419E+00
  0.346390E+00  0.373444E+00  0.404853E+00  0.438824E+00  0.472615E+00  0.503461E+00
  0.529505E+00  0.549852E+00  0.563964E+00  0.571254E+00  0.571254E+00  0.563964E+00
  0.549852E+00  0.529505E+00  0.503461E+00  0.472615E+00  0.438824E+00  0.404853E+00
  0.373444E+00  0.346390E+00  0.324419E+00  0.307662E+00  0.296061E+00  0.289519E+00
  0.268374E+00  0.275028E+00  0.283712E+00  0.292422E+00  0.299387E+00  0.303639E+00
  0.305030E+00  0.303639E+00  0.299387E+00  0.292422E+00  0.283712E+00  0.275028E+00
  0.268374E+00  0.265392E+00  0.267076E+00  0.273790E+00  0.285526E+00  0.302226E+00
  0.323795E+00  0.349566E+00  0.377786E+00  0.405907E+00  0.431556E+00  0.453165E+00
  0.469715E+00  0.480256E+00  0.483899E+00  0.480256E+00  0.469715E+00  0.453165E+00
  0.431556E+00  0.405907E+00  0.377786E+00  0.349566E+00  0.323795E+00  0.302226E+00
  0.285526E+00  0.273790E+00  0.267076E+00  0.265392E+00  0.268374E+00  0.257171E+00
  0.269569E+00  0.281813E+00  0.292422E+00  0.300233E+00  0.304381E+00  0.304381E+00
  0.300233E+00  0.292422E+00  0.281813E+00  0.269569E+00  0.257171E+00  0.246393E+00
  0.238960E+00  0.236029E+00  0.237996E+00  0.244835E+00  0.256494E+00  0.272786E+00
  0.292839E+00  0.314851E+00  0.336644E+00  0.356431E+00  0.372954E+00  0.385068E+00
  0.391563E+00  0.391563E+00  0.385068E+00  0.372954E+00  0.356431E+00  0.336644E+00
  0.314851E+00  0.292839E+00  0.272786E+00  0.256494E+00  0.244835E+00  0.237996E+00
  0.236029E+00  0.238960E+00  0.246393E+00  0.257171E+00  0.253862E+00  0.269569E+00
  0.283712E+00  0.295194E+00  0.302838E+00  0.305545E+00  0.302838E+00  0.295194E+00
  0.283712E+00  0.269569E+00  0.253862E+00  0.237903E+00  0.223408E+00  0.212083E+00
  0.205038E+00  0.202672E+00  0.205038E+00  0.212083E+00  0.223408E+00  0.237903E+00
  0.253862E+00  0.269569E+00  0.283712E+00  0.295194E+00  0.302838E+00  0.305545E+00
  0.302838E+00  0.295194E+00  0.283712E+00  0.269569E+00  0.253862E+00  0.237903E+00
  0.223408E+00  0.212083E+00  0.205038E+00  0.202672E+00  0.205038E+00  0.212083E+00
  0.223408E+00  0.237903E+00  0.253862E+00  0.257171E+00  0.275028E+00  0.290282E+00
  0.301652E+00  0.307796E+00  0.307796E+00  0.301652E+00  0.290282E+00  0.275028E+00
  0.257171E+00  0.237903E+00  0.218616E+00  0.200956E+00  0.186427E+00  0.175980E+00
  0.170012E+00  0.168606E+00  0.171589E+00  0.178353E+00  0.187755E+00  0.198370E+00
  0.208888E+00  0.218222E+00  0.225346E+00  0.229252E+00  0.229252E+00  0.225346E+00
  0.218222E+00  0.208888E+00  0.198370E+00  0.187755E+00  0.178353E+00  0.171589E+00
  0.168606E+00  0.170012E+00  0.175980E+00  0.186427E+00  0.200956E+00  0.218616E+00
  0.237903E+00  0.257171E+00  0.268374E+00  0.287831E+00  0.303224E+00  0.313132E+00
  0.316554E+00  0.313132E+00  0.303224E+00  0.287831E+00  0.268374E+00  0.246393E+00
  0.223408E+00  0.200956E+00  0.180547E+00  0.163427E+00  0.150368E+00  0.141671E+00
  0.137289E+00  0.136850E+00  0.139645E+00  0.144694E+00  0.150922E+00  0.157302E+00
  0.162867E+00  0.166701E+00  0.168074E+00  0.166701E+00  0.162867E+00  0.157302E+00
  0.150922E+00  0.144694E+00  0.139645E+00  0.136850E+00  0.137289E+00  0.141671E+00
  0.150368E+00  0.163427E+00  0.180547E+00  0.200956E+00  0.223408E+00  0.246393E+00
  0.268374E+00  0.289519E+00  0.309412E+00  0.323448E+00  0.330651E+00  0.330651E+00
  0.323448E+00  0.309412E+00  0.289519E+00  0.265392E+00  0.238960E+00  0.212083E+00
  0.186427E+00  0.163427E+00  0.144150E+00  0.129151E+00  0.118495E+00  0.111875E+00
  0.108730E+00  0.108348E+00  0.109963E+00  0.112804E+00  0.116081E+00  0.118956E+00
  0.120643E+00  0.120643E+00  0.118956E+00  0.116081E+00  0.112804E+00  0.109963E+00
  0.108348E+00  0.108730E+00  0.111875E+00  0.118495E+00  0.129151E+00  0.144150E+00
  0.163427E+00  0.186427E+00  0.212083E+00  0.238960E+00  0.265392E+00  0.289519E+00
  0.320781E+00  0.339367E+00  0.350727E+00  0.354522E+00  0.350727E+00  0.339367E+00
  0.320781E+00  0.296061E+00  0.267076E+00  0.236029E+00  0.205038E+00  0.175980E+00
  0.150368E+00  0.129151E+00  0.112620E+00  0.100519E+00  0.922641E-01  0.871398E-01
  0.844566E-01  0.836237E-01  0.841093E-01  0.853094E-01  0.864908E-01  0.869786E-01
  0.864908E-01  0.853094E-01  0.841093E-01  0.836237E-01  0.844566E-01  0.871398E-01
  0.922641E-01  0.100519E+00  0.112620E+00  0.129151E+00  0.150368E+00  0.175980E+00
  0.205038E+00  0.236029E+00  0.267076E+00  0.296061E+00  0.320781E+00  0.360708E+00
  0.376666E+00  0.384671E+00  0.384671E+00  0.376666E+00  0.360708E+00  0.337287E+00
  0.307662E+00  0.273790E+00  0.237996E+00  0.202672E+00  0.170012E+00  0.141671E+00
  0.118495E+00  0.100519E+00  0.872067E-01  0.777345E-01  0.712556E-01  0.670839E-01
  0.647418E-01  0.638323E-01  0.638341E-01  0.640868E-01  0.640868E-01  0.638341E-01
  0.638323E-01  0.647418E-01  0.670839E-01  0.712556E-01  0.777345E-01  0.872067E-01
  0.100519E+00  0.118495E+00  0.141671E+00  0.170012E+00  0.202672E+00  0.237996E+00
  0.273790E+00  0.307662E+00  0.337287E+00  0.360708E+00  0.408431E+00  0.421131E+00
  0.425375E+00  0.421131E+00  0.408431E+00  0.387510E+00  0.359064E+00  0.324419E+00
  0.285526E+00  0.244835E+00  0.205038E+00  0.168606E+00  0.137289E+00  0.111875E+00
  0.922641E-01  0.777345E-01  0.672720E-01  0.598989E-01  0.548912E-01  0.517834E-01
  0.501780E-01  0.495751E-01  0.494527E-01  0.495751E-01  0.501780E-01  0.517834E-01
  0.548912E-01  0.598989E-01  0.672720E-01  0.777345E-01  0.922641E-01  0.111875E+00
  0.137289E+00  0.168606E+00  0.205038E+00  0.244835E+00  0.285526E+00  0.324419E+00
  0.359064E+00  0.387510E+00  0.408431E+00  0.463843E+00  0.472759E+00  0.472759E+00
  0.463843E+00  0.446147E+00  0.420053E+00  0.386346E+00  0.346390E+00  0.302226E+00
  0.256494E+00  0.212083E+00  0.171589E+00  0.136850E+00  0.108730E+00  0.871398E-01
  0.712556E-01  0.598989E-01  0.519413E-01  0.465371E-01  0.431068E-01  0.411925E-01
  0.403780E-01  0.403780E-01  0.411925E-01  0.431068E-01  0.465371E-01  0.519413E-01
  0.598989E-01  0.712556E-01  0.871398E-01  0.108730E+00  0.136850E+00  0.171589E+00
  0.212083E+00  0.256494E+00  0.302226E+00  0.346390E+00  0.386346E+00  0.420053E+00
  0.446147E+00  0.463843E+00  0.525357E+00  0.529902E+00  0.525357E+00  0.511744E+00
  0.489174E+00  0.457975E+00  0.418915E+00  0.373444E+00  0.323795E+00  0.272786E+00
  0.223408E+00  0.178353E+00  0.139645E+00  0.108348E+00  0.844566E-01  0.670839E-01
  0.548912E-01  0.465371E-01  0.409461E-01  0.373806E-01  0.353952E-01  0.347576E-01
  0.353952E-01  0.373806E-01  0.409461E-01  0.465371E-01  0.548912E-01  0.670839E-01
  0.844566E-01  0.108348E+00  0.139645E+00  0.178353E+00  0.223408E+00  0.272786E+00
  0.323795E+00  0.373444E+00  0.418915E+00  0.457975E+00  0.489174E+00  0.511744E+00
  0.525357E+00  0.588943E+00  0.588943E+00  0.580098E+00  0.562314E+00  0.535488E+00
  0.499732E+00  0.455695E+00  0.404853E+00  0.349566E+00  0.292839E+00  0.237903E+00
  0.187755E+00  0.144694E+00  0.109963E+00  0.836237E-01  0.647418E-01  0.517834E-01
  0.431068E-01  0.373806E-01  0.337995E-01  0.320403E-01  0.320403E-01  0.337995E-01
  0.373806E-01  0.431068E-01  0.517834E-01  0.647418E-01  0.836237E-01  0.109963E+00
  0.144694E+00  0.187755E+00  0.237903E+00  0.292839E+00  0.349566E+00  0.404853E+00
  0.455695E+00  0.499732E+00  0.535488E+00  0.562314E+00  0.580098E+00  0.588943E+00
  0.650001E+00  0.645890E+00  0.633445E+00  0.612350E+00  0.582218E+00  0.542854E+00
  0.494630E+00  0.438824E+00  0.377786E+00  0.314851E+00  0.253862E+00  0.198370E+00
  0.150922E+00  0.112804E+00  0.841093E-01  0.638323E-01  0.501780E-01  0.411925E-01
  0.353952E-01  0.320403E-01  0.309262E-01  0.320403E-01  0.353952E-01  0.411925E-01
  0.501780E-01  0.638323E-01  0.841093E-01  0.112804E+00  0.150922E+00  0.198370E+00
  0.253862E+00  0.314851E+00  0.377786E+00  0.438824E+00  0.494630E+00  0.542854E+00
  0.582218E+00  0.612350E+00  0.633445E+00  0.645890E+00  0.650001E+00  0.705360E+00
  0.697879E+00  0.682634E+00  0.659087E+00  0.626565E+00  0.584524E+00  0.532914E+00
  0.472615E+00  0.405907E+00  0.336644E+00  0.269569E+00  0.208888E+00  0.157302E+00
  0.116081E+00  0.853094E-01  0.638341E-01  0.495751E-01  0.403780E-01  0.347576E-01
  0.320403E-01  0.320403E-01  0.347576E-01  0.403780E-01  0.495751E-01  0.638341E-01
  0.853094E-01  0.116081E+00  0.157302E+00  0.208888E+00  0.269569E+00  0.336644E+00
  0.405907E+00  0.472615E+00  0.532914E+00  0.584524E+00  0.626565E+00  0.659087E+00
  0.682634E+00  0.697879E+00  0.705360E+00  0.705360E+00  0.753494E+00  0.743384E+00
  0.726014E+00  0.700629E+00  0.666304E+00  0.622169E+00  0.567736E+00  0.503461E+00
  0.431556E+00  0.356431E+00  0.283712E+00  0.218222E+00  0.162867E+00  0.118956E+00
  0.864908E-01  0.640868E-01  0.494527E-01  0.403780E-01  0.353952E-01  0.337995E-01
  0.353952E-01  0.403780E-01  0.494527E-01  0.640868E-01  0.864908E-01  0.118956E+00
  0.162867E+00  0.218222E+00  0.283712E+00  0.356431E+00  0.431556E+00  0.503461E+00
  0.567736E+00  0.622169E+00  0.666304E+00  0.700629E+00  0.726014E+00  0.743384E+00
  0.753494E+00  0.756812E+00  0.753494E+00  0.793862E+00  0.781758E+00  0.762750E+00
  0.735872E+00  0.700005E+00  0.654046E+00  0.597177E+00  0.529505E+00  0.453165E+00
  0.372954E+00  0.295194E+00  0.225346E+00  0.166701E+00  0.120643E+00  0.869786E-01
  0.640868E-01  0.495751E-01  0.411925E-01  0.373806E-01  0.373806E-01  0.411925E-01
  0.495751E-01  0.640868E-01  0.869786E-01  0.120643E+00  0.166701E+00  0.225346E+00
  0.295194E+00  0.372954E+00  0.453165E+00  0.529505E+00  0.597177E+00  0.654046E+00
  0.700005E+00  0.735872E+00  0.762750E+00  0.781758E+00  0.793862E+00  0.799744E+00
  0.799744E+00  0.793862E+00  0.826500E+00  0.812902E+00  0.792597E+00  0.764434E+00
  0.727158E+00  0.679514E+00  0.620460E+00  0.549852E+00  0.469715E+00  0.385068E+00
  0.302838E+00  0.229252E+00  0.168074E+00  0.120643E+00  0.864908E-01  0.638341E-01
  0.501780E-01  0.431068E-01  0.409461E-01  0.431068E-01  0.501780E-01  0.638341E-01
  0.864908E-01  0.120643E+00  0.168074E+00  0.229252E+00  0.302838E+00  0.385068E+00
  0.469715E+00  0.549852E+00  0.620460E+00  0.679514E+00  0.727158E+00  0.764434E+00
  0.792597E+00  0.812902E+00  0.826500E+00  0.834291E+00  0.836827E+00  0.834291E+00
  0.826500E+00  0.851943E+00  0.837206E+00  0.815850E+00  0.786564E+00  0.747958E+00
  0.698642E+00  0.637412E+00  0.563964E+00  0.480256E+00  0.391563E+00  0.305545E+00
  0.229252E+00  0.166701E+00  0.118956E+00  0.853094E-01  0.638323E-01  0.517834E-01
  0.465371E-01  0.465371E-01  0.517834E-01  0.638323E-01  0.853094E-01  0.118956E+00
  0.166701E+00  0.229252E+00  0.305545E+00  0.391563E+00  0.480256E+00  0.563964E+00
  0.637412E+00  0.698642E+00  0.747958E+00  0.786564E+00  0.815850E+00  0.837206E+00
  0.851943E+00  0.861147E+00  0.865564E+00  0.865564E+00  0.861147E+00  0.851943E+00
  0.871116E+00  0.855442E+00  0.833164E+00  0.802802E+00  0.762783E+00  0.711558E+00
  0.647830E+00  0.571254E+00  0.483899E+00  0.391563E+00  0.302838E+00  0.225346E+00
  0.162867E+00  0.116081E+00  0.841093E-01  0.647418E-01  0.548912E-01  0.519413E-01
  0.548912E-01  0.647418E-01  0.841093E-01  0.116081E+00  0.162867E+00  0.225346E+00
  0.302838E+00  0.391563E+00  0.483899E+00  0.571254E+00  0.647830E+00  0.711558E+00
  0.762783E+00  0.802802E+00  0.833164E+00  0.855442E+00  0.871116E+00  0.881429E+00
  0.887273E+00  0.889167E+00  0.887273E+00  0.881429E+00  0.871116E+00  0.885046E+00
  0.868463E+00  0.845200E+00  0.813565E+00  0.771764E+00  0.718127E+00  0.651364E+00
  0.571254E+00  0.480256E+00  0.385068E+00  0.295194E+00  0.218222E+00  0.157302E+00
  0.112804E+00  0.836237E-01  0.670839E-01  0.598989E-01  0.598989E-01  0.670839E-01
  0.836237E-01  0.112804E+00  0.157302E+00  0.218222E+00  0.295194E+00  0.385068E+00
  0.480256E+00  0.571254E+00  0.651364E+00  0.718127E+00  0.771764E+00  0.813565E+00
  0.845200E+00  0.868463E+00  0.885046E+00  0.896349E+00  0.903380E+00  0.906756E+00
  0.906756E+00  0.903380E+00  0.896349E+00  0.885046E+00  0.894561E+00  0.876906E+00
  0.852350E+00  0.818968E+00  0.774789E+00  0.718127E+00  0.647830E+00  0.563964E+00
  0.469715E+00  0.372954E+00  0.283712E+00  0.208888E+00  0.150922E+00  0.109963E+00
  0.844566E-01  0.712556E-01  0.672720E-01  0.712556E-01  0.844566E-01  0.109963E+00
  0.150922E+00  0.208888E+00  0.283712E+00  0.372954E+00  0.469715E+00  0.563964E+00
  0.647830E+00  0.718127E+00  0.774789E+00  0.818968E+00  0.852350E+00  0.876906E+00
  0.894561E+00  0.906902E+00  0.915058E+00  0.919719E+00  0.921238E+00  0.919719E+00
  0.915058E+00  0.906902E+00  0.894561E+00  0.900145E+00  0.881083E+00  0.854731E+00
  0.818968E+00  0.771764E+00  0.711558E+00  0.637412E+00  0.549852E+00  0.453165E+00
  0.356431E+00  0.269569E+00  0.198370E+00  0.144694E+00  0.108348E+00  0.871398E-01
  0.777345E-01  0.777345E-01  0.871398E-01  0.108348E+00  0.144694E+00  0.198370E+00
  0.269569E+00  0.356431E+00  0.453165E+00  0.549852E+00  0.637412E+00  0.711558E+00
  0.771764E+00  0.818968E+00  0.854731E+00  0.881083E+00  0.900145E+00  0.913714E+00
  0.923065E+00  0.928973E+00  0.931846E+00  0.931846E+00  0.928973E+00  0.923065E+00
  0.913714E+00  0.900145E+00  0.901992E+00  0.881083E+00  0.852350E+00  0.813565E+00
  0.762783E+00  0.698642E+00  0.620460E+00  0.529505E+00  0.431556E+00  0.336644E+00
  0.253862E+00  0.187755E+00  0.139645E+00  0.108730E+00  0.922641E-01  0.872067E-01
  0.922641E-01  0.108730E+00  0.139645E+00  0.187755E+00  0.253862E+00  0.336644E+00
  0.431556E+00  0.529505E+00  0.620460E+00  0.698642E+00  0.762783E+00  0.813565E+00
  0.852350E+00  0.881083E+00  0.901992E+00  0.917075E+00  0.927781E+00  0.934999E+00
  0.939195E+00  0.940576E+00  0.939195E+00  0.934999E+00  0.927781E+00  0.917075E+00
  0.901992E+00  0.900145E+00  0.876906E+00  0.845200E+00  0.802802E+00  0.747958E+00
  0.679514E+00  0.597177E+00  0.503461E+00  0.405907E+00  0.314851E+00  0.237903E+00
  0.178353E+00  0.136850E+00  0.111875E+00  0.100519E+00  0.100519E+00  0.111875E+00
  0.136850E+00  0.178353E+00  0.237903E+00  0.314851E+00  0.405907E+00  0.503461E+00
  0.597177E+00  0.679514E+00  0.747958E+00  0.802802E+00  0.845200E+00  0.876906E+00
  0.900145E+00  0.917075E+00  0.929344E+00  0.937986E+00  0.943552E+00  0.946290E+00
  0.946290E+00  0.943552E+00  0.937986E+00  0.929344E+00  0.917075E+00  0.900145E+00
  0.894561E+00  0.868463E+00  0.833164E+00  0.786564E+00  0.727158E+00  0.654046E+00
  0.567736E+00  0.472615E+00  0.377786E+00  0.292839E+00  0.223408E+00  0.171589E+00
  0.137289E+00  0.118495E+00  0.112620E+00  0.118495E+00  0.137289E+00  0.171589E+00
  0.223408E+00  0.292839E+00  0.377786E+00  0.472615E+00  0.567736E+00  0.654046E+00
  0.727158E+00  0.786564E+00  0.833164E+00  0.868463E+00  0.894561E+00  0.913714E+00
  0.927781E+00  0.937986E+00  0.944999E+00  0.949128E+00  0.950494E+00  0.949128E+00
  0.944999E+00  0.937986E+00  0.927781E+00  0.913714E+00  0.894561E+00  0.885046E+00
  0.855442E+00  0.815850E+00  0.764434E+00  0.700005E+00  0.622169E+00  0.532914E+00
  0.438824E+00  0.349566E+00  0.272786E+00  0.212083E+00  0.168606E+00  0.141671E+00
  0.129151E+00  0.129151E+00  0.141671E+00  0.168606E+00  0.212083E+00  0.272786E+00
  0.349566E+00  0.438824E+00  0.532914E+00  0.622169E+00  0.700005E+00  0.764434E+00
  0.815850E+00  0.855442E+00  0.885046E+00  0.906902E+00  0.923065E+00  0.934999E+00
  0.943552E+00  0.949128E+00  0.951890E+00  0.951890E+00  0.949128E+00  0.943552E+00
  0.934999E+00  0.923065E+00  0.906902E+00  0.885046E+00  0.871116E+00  0.837206E+00
  0.792597E+00  0.735872E+00  0.666304E+00  0.584524E+00  0.494630E+00  0.404853E+00
  0.323795E+00  0.256494E+00  0.205038E+00  0.170012E+00  0.150368E+00  0.144150E+00
  0.150368E+00  0.170012E+00  0.205038E+00  0.256494E+00  0.323795E+00  0.404853E+00
  0.494630E+00  0.584524E+00  0.666304E+00  0.735872E+00  0.792597E+00  0.837206E+00
  0.871116E+00  0.896349E+00  0.915058E+00  0.928973E+00  0.939195E+00  0.946290E+00
  0.950494E+00  0.951890E+00  0.950494E+00  0.946290E+00  0.939195E+00  0.928973E+00
  0.915058E+00  0.896349E+00  0.871116E+00  0.851943E+00  0.812902E+00  0.762750E+00
  0.700629E+00  0.626565E+00  0.542854E+00  0.455695E+00  0.373444E+00  0.302226E+00
  0.244835E+00  0.202672E+00  0.175980E+00  0.163427E+00  0.163427E+00  0.175980E+00
  0.202672E+00  0.244835E+00  0.302226E+00  0.373444E+00  0.455695E+00  0.542854E+00
  0.626565E+00  0.700629E+00  0.762750E+00  0.812902E+00  0.851943E+00  0.881429E+00
  0.903380E+00  0.919719E+00  0.931846E+00  0.940576E+00  0.946290E+00  0.949128E+00
  0.949128E+00  0.946290E+00  0.940576E+00  0.931846E+00  0.919719E+00  0.903380E+00
  0.881429E+00  0.851943E+00  0.826500E+00  0.781758E+00  0.726014E+00  0.659087E+00
  0.582218E+00  0.499732E+00  0.418915E+00  0.346390E+00  0.285526E+00  0.237996E+00
  0.205038E+00  0.186427E+00  0.180547E+00  0.186427E+00  0.205038E+00  0.237996E+00
  0.285526E+00  0.346390E+00  0.418915E+00  0.499732E+00  0.582218E+00  0.659087E+00
  0.726014E+00  0.781758E+00  0.826500E+00  0.861147E+00  0.887273E+00  0.906756E+00
  0.921238E+00  0.931846E+00  0.939195E+00  0.943552E+00  0.944999E+00  0.943552E+00
  0.939195E+00  0.931846E+00  0.921238E+00  0.906756E+00  0.887273E+00  0.861147E+00
  0.826500E+00  0.793862E+00  0.743384E+00  0.682634E+00  0.612350E+00  0.535488E+00
  0.457975E+00  0.386346E+00  0.324419E+00  0.273790E+00  0.236029E+00  0.212083E+00
  0.200956E+00  0.200956E+00  0.212083E+00  0.236029E+00  0.273790E+00  0.324419E+00
  0.386346E+00  0.457975E+00  0.535488E+00  0.612350E+00  0.682634E+00  0.743384E+00
  0.793862E+00  0.834291E+00  0.865564E+00  0.889167E+00  0.906756E+00  0.919719E+00
  0.928973E+00  0.934999E+00  0.937986E+00  0.937986E+00  0.934999E+00  0.928973E+00
  0.919719E+00  0.906756E+00  0.889167E+00  0.865564E+00  0.834291E+00  0.793862E+00
  0.753494E+00  0.697879E+00  0.633445E+00  0.562314E+00  0.489174E+00  0.420053E+00
  0.359064E+00  0.307662E+00  0.267076E+00  0.238960E+00  0.223408E+00  0.218616E+00
  0.223408E+00  0.238960E+00  0.267076E+00  0.307662E+00  0.359064E+00  0.420053E+00
  0.489174E+00  0.562314E+00  0.633445E+00  0.697879E+00  0.753494E+00  0.799744E+00
  0.836827E+00  0.865564E+00  0.887273E+00  0.903380E+00  0.915058E+00  0.923065E+00
  0.927781E+00  0.929344E+00  0.927781E+00  0.923065E+00  0.915058E+00  0.903380E+00
  0.887273E+00  0.865564E+00  0.836827E+00  0.799744E+00  0.753494E+00  0.705360E+00
  0.645890E+00  0.580098E+00  0.511744E+00  0.446147E+00  0.387510E+00  0.337287E+00
  0.296061E+00  0.265392E+00  0.246393E+00  0.237903E+00  0.237903E+00  0.246393E+00
  0.265392E+00  0.296061E+00  0.337287E+00  0.387510E+00  0.446147E+00  0.511744E+00
  0.580098E+00  0.645890E+00  0.705360E+00  0.756812E+00  0.799744E+00  0.834291E+00
  0.861147E+00  0.881429E+00  0.896349E+00  0.906902E+00  0.913714E+00  0.917075E+00
  0.917075E+00  0.913714E+00  0.906902E+00  0.896349E+00  0.881429E+00  0.861147E+00
  0.834291E+00  0.799744E+00  0.756812E+00  0.705360E+00  0.650001E+00  0.588943E+00
  0.525357E+00  0.463843E+00  0.408431E+00  0.360708E+00  0.320781E+00  0.289519E+00
  0.268374E+00  0.257171E+00  0.253862E+00  0.257171E+00  0.268374E+00  0.289519E+00
  0.320781E+00  0.360708E+00  0.408431E+00  0.463843E+00  0.525357E+00  0.588943E+00
  0.650001E+00  0.705360E+00  0.753494E+00  0.793862E+00  0.826500E+00  0.851943E+00
  0.871116E+00  0.885046E+00  0.894561E+00  0.900145E+00  0.901992E+00  0.900145E+00
  0.894561E+00  0.885046E+00  0.871116E+00  0.851943E+00  0.826500E+00  0.793862E+00
  0.753494E+00  0.705360E+00  0.650001E+00  0.657793E+00  0.605827E+00  0.551933E+00
  0.500266E+00  0.454340E+00  0.415170E+00  0.382801E+00  0.358416E+00  0.343291E+00
  0.336644E+00  0.336644E+00  0.343291E+00  0.358416E+00  0.382801E+00  0.415170E+00
  0.454340E+00  0.500266E+00  0.551933E+00  0.605827E+00  0.657793E+00  0.705360E+00
  0.747656E+00  0.784218E+00  0.814591E+00  0.838692E+00  0.857044E+00  0.870561E+00
  0.880140E+00  0.886366E+00  0.889466E+00  0.889466E+00  0.886366E+00  0.880140E+00
  0.870561E+00  0.857044E+00  0.838692E+00  0.814591E+00  0.784218E+00  0.747656E+00
  0.705360E+00  0.657793E+00  0.605827E+00  0.556482E+00  0.509237E+00  0.467400E+00
  0.432080E+00  0.402850E+00  0.379937E+00  0.364464E+00  0.356431E+00  0.354127E+00
  0.356431E+00  0.364464E+00  0.379937E+00  0.402850E+00  0.432080E+00  0.467400E+00
  0.509237E+00  0.556482E+00  0.605827E+00  0.653677E+00  0.697879E+00  0.737540E+00
  0.772116E+00  0.801086E+00  0.824240E+00  0.841911E+00  0.854811E+00  0.863649E+00
  0.868861E+00  0.870592E+00  0.868861E+00  0.863649E+00  0.854811E+00  0.841911E+00
  0.824240E+00  0.801086E+00  0.772116E+00  0.737540E+00  0.697879E+00  0.653677E+00
  0.605827E+00  0.551933E+00  0.509237E+00  0.471731E+00  0.440537E+00  0.415208E+00
  0.395294E+00  0.381155E+00  0.372954E+00  0.369580E+00  0.369580E+00  0.372954E+00
  0.381155E+00  0.395294E+00  0.415208E+00  0.440537E+00  0.471731E+00  0.509237E+00
  0.551933E+00  0.596964E+00  0.641220E+00  0.682634E+00  0.720167E+00  0.753143E+00
  0.780953E+00  0.803281E+00  0.820310E+00  0.832564E+00  0.840541E+00  0.844500E+00
  0.844500E+00  0.840541E+00  0.832564E+00  0.820310E+00  0.803281E+00  0.780953E+00
  0.753143E+00  0.720167E+00  0.682634E+00  0.641220E+00  0.596964E+00  0.551933E+00
  0.500266E+00  0.467400E+00  0.440537E+00  0.419363E+00  0.403295E+00  0.391990E+00
  0.385068E+00  0.381671E+00  0.380709E+00  0.381671E+00  0.385068E+00  0.391990E+00
  0.403295E+00  0.419363E+00  0.440537E+00  0.467400E+00  0.500266E+00  0.538271E+00
  0.579136E+00  0.620109E+00  0.659087E+00  0.694809E+00  0.726396E+00  0.753104E+00
  0.774528E+00  0.790746E+00  0.802094E+00  0.808848E+00  0.811098E+00  0.808848E+00
  0.802094E+00  0.790746E+00  0.774528E+00  0.753104E+00  0.726396E+00  0.694809E+00
  0.659087E+00  0.620109E+00  0.579136E+00  0.538271E+00  0.500266E+00  0.454340E+00
  0.432080E+00  0.415208E+00  0.403295E+00  0.395767E+00  0.391563E+00  0.389399E+00
  0.388443E+00  0.388443E+00  0.389399E+00  0.391563E+00  0.395767E+00  0.403295E+00
  0.415208E+00  0.432080E+00  0.454340E+00  0.482304E+00  0.515507E+00  0.552194E+00
  0.589921E+00  0.626565E+00  0.660614E+00  0.690872E+00  0.716386E+00  0.736668E+00
  0.751702E+00  0.761664E+00  0.766647E+00  0.766647E+00  0.761664E+00  0.751702E+00
  0.736668E+00  0.716386E+00  0.690872E+00  0.660614E+00  0.626565E+00  0.589921E+00
  0.552194E+00  0.515507E+00  0.482304E+00  0.454340E+00  0.415170E+00  0.402850E+00
  0.395294E+00  0.391990E+00  0.391563E+00  0.392064E+00  0.392291E+00  0.392282E+00
  0.392291E+00  0.392064E+00  0.391563E+00  0.391990E+00  0.395294E+00  0.402850E+00
  0.415170E+00  0.432594E+00  0.455541E+00  0.483824E+00  0.516110E+00  0.550355E+00
  0.584524E+00  0.616815E+00  0.645610E+00  0.669691E+00  0.688468E+00  0.701843E+00
  0.709869E+00  0.712551E+00  0.709869E+00  0.701843E+00  0.688468E+00  0.669691E+00
  0.645610E+00  0.616815E+00  0.584524E+00  0.550355E+00  0.516110E+00  0.483824E+00
  0.455541E+00  0.432594E+00  0.415170E+00  0.382801E+00  0.379937E+00  0.381155E+00
  0.385068E+00  0.389399E+00  0.392291E+00  0.393448E+00  0.393448E+00  0.392291E+00
  0.389399E+00  0.385068E+00  0.381155E+00  0.379937E+00  0.382801E+00  0.390274E+00
  0.402757E+00  0.420642E+00  0.443801E+00  0.471310E+00  0.501643E+00  0.532914E+00
  0.563000E+00  0.589867E+00  0.612065E+00  0.628900E+00  0.640172E+00  0.645828E+00
  0.645828E+00  0.640172E+00  0.628900E+00  0.612065E+00  0.589867E+00  0.563000E+00
  0.532914E+00  0.501643E+00  0.471310E+00  0.443801E+00  0.420642E+00  0.402757E+00
  0.390274E+00  0.382801E+00  0.358416E+00  0.364464E+00  0.372954E+00  0.381671E+00
  0.388443E+00  0.392282E+00  0.393448E+00  0.392282E+00  0.388443E+00  0.381671E+00
  0.372954E+00  0.364464E+00  0.358416E+00  0.356242E+00  0.358688E+00  0.366183E+00
  0.378901E+00  0.396706E+00  0.419092E+00  0.444999E+00  0.472615E+00  0.499575E+00
  0.523636E+00  0.543259E+00  0.557648E+00  0.566423E+00  0.569373E+00  0.566423E+00
  0.557648E+00  0.543259E+00  0.523636E+00  0.499575E+00  0.472615E+00  0.444999E+00
  0.419092E+00  0.396706E+00  0.378901E+00  0.366183E+00  0.358688E+00  0.356242E+00
  0.358416E+00  0.343291E+00  0.356431E+00  0.369580E+00  0.380709E+00  0.388443E+00
  0.392291E+00  0.392291E+00  0.388443E+00  0.380709E+00  0.369580E+00  0.356431E+00
  0.343291E+00  0.332251E+00  0.324964E+00  0.322397E+00  0.324864E+00  0.332334E+00
  0.344747E+00  0.361893E+00  0.382893E+00  0.405907E+00  0.428559E+00  0.448723E+00
  0.464936E+00  0.476271E+00  0.482113E+00  0.482113E+00  0.476271E+00  0.464936E+00
  0.448723E+00  0.428559E+00  0.405907E+00  0.382893E+00  0.361893E+00  0.344747E+00
  0.332334E+00  0.324864E+00  0.322397E+00  0.324964E+00  0.332251E+00  0.343291E+00
  0.336644E+00  0.354127E+00  0.369580E+00  0.381671E+00  0.389399E+00  0.392064E+00
  0.389399E+00  0.381671E+00  0.369580E+00  0.354127E+00  0.336644E+00  0.318927E+00
  0.303102E+00  0.291019E+00  0.283667E+00  0.281231E+00  0.283667E+00  0.291019E+00
  0.303102E+00  0.318927E+00  0.336644E+00  0.354127E+00  0.369580E+00  0.381671E+00
  0.389399E+00  0.392064E+00  0.389399E+00  0.381671E+00  0.369580E+00  0.354127E+00
  0.336644E+00  0.318927E+00  0.303102E+00  0.291019E+00  0.283667E+00  0.281231E+00
  0.283667E+00  0.291019E+00  0.303102E+00  0.318927E+00  0.336644E+00  0.336644E+00
  0.356431E+00  0.372954E+00  0.385068E+00  0.391563E+00  0.391563E+00  0.385068E+00
  0.372954E+00  0.356431E+00  0.336644E+00  0.314851E+00  0.292839E+00  0.272786E+00
  0.256494E+00  0.244835E+00  0.237996E+00  0.236029E+00  0.238960E+00  0.246393E+00
  0.257171E+00  0.269569E+00  0.281813E+00  0.292422E+00  0.300233E+00  0.304381E+00
  0.304381E+00  0.300233E+00  0.292422E+00  0.281813E+00  0.269569E+00  0.257171E+00
  0.246393E+00  0.238960E+00  0.236029E+00  0.237996E+00  0.244835E+00  0.256494E+00
  0.272786E+00  0.292839E+00  0.314851E+00  0.336644E+00  0.343291E+00  0.364464E+00
  0.381155E+00  0.391990E+00  0.395767E+00  0.391990E+00  0.381155E+00  0.364464E+00
  0.343291E+00  0.318927E+00  0.292839E+00  0.266935E+00  0.243278E+00  0.223437E+00
  0.208193E+00  0.197805E+00  0.192336E+00  0.191606E+00  0.194964E+00  0.201218E+00
  0.208888E+00  0.216525E+00  0.222906E+00  0.227113E+00  0.228580E+00  0.227113E+00
  0.222906E+00  0.216525E+00  0.208888E+00  0.201218E+00  0.194964E+00  0.191606E+00
  0.192336E+00  0.197805E+00  0.208193E+00  0.223437E+00  0.243278E+00  0.266935E+00
  0.292839E+00  0.318927E+00  0.343291E+00  0.358416E+00  0.379937E+00  0.395294E+00
  0.403295E+00  0.403295E+00  0.395294E+00  0.379937E+00  0.358416E+00  0.332251E+00
  0.303102E+00  0.272786E+00  0.243278E+00  0.216448E+00  0.193676E+00  0.175696E+00
  0.162744E+00  0.154692E+00  0.151066E+00  0.151029E+00  0.153497E+00  0.157302E+00
  0.161323E+00  0.164596E+00  0.166420E+00  0.166420E+00  0.164596E+00  0.161323E+00
  0.157302E+00  0.153497E+00  0.151029E+00  0.151066E+00  0.154692E+00  0.162744E+00
  0.175696E+00  0.193676E+00  0.216448E+00  0.243278E+00  0.272786E+00  0.303102E+00
  0.332251E+00  0.358416E+00  0.382801E+00  0.402850E+00  0.415208E+00  0.419363E+00
  0.415208E+00  0.402850E+00  0.382801E+00  0.356242E+00  0.324964E+00  0.291019E+00
  0.256494E+00  0.223437E+00  0.193676E+00  0.168522E+00  0.148609E+00  0.133960E+00
  0.124122E+00  0.118317E+00  0.115623E+00  0.115149E+00  0.116081E+00  0.117626E+00
  0.118992E+00  0.119534E+00  0.118992E+00  0.117626E+00  0.116081E+00  0.115149E+00
  0.115623E+00  0.118317E+00  0.124122E+00  0.133960E+00  0.148609E+00  0.168522E+00
  0.193676E+00  0.223437E+00  0.256494E+00  0.291019E+00  0.324964E+00  0.356242E+00
  0.382801E+00  0.415170E+00  0.432080E+00  0.440537E+00  0.440537E+00  0.432080E+00
  0.415170E+00  0.390274E+00  0.358688E+00  0.322397E+00  0.283667E+00  0.244835E+00
  0.208193E+00  0.175696E+00  0.148609E+00  0.127353E+00  0.111615E+00  0.100578E+00
  0.932255E-01  0.886433E-01  0.861746E-01  0.853094E-01  0.854345E-01  0.857884E-01
  0.857884E-01  0.854345E-01  0.853094E-01  0.861746E-01  0.886433E-01  0.932255E-01
  0.100578E+00  0.111615E+00  0.127353E+00  0.148609E+00  0.175696E+00  0.208193E+00
  0.244835E+00  0.283667E+00  0.322397E+00  0.358688E+00  0.390274E+00  0.415170E+00
  0.454340E+00  0.467400E+00  0.471731E+00  0.467400E+00  0.454340E+00  0.432594E+00
  0.402757E+00  0.366183E+00  0.324864E+00  0.281231E+00  0.237996E+00  0.197805E+00
  0.162744E+00  0.133960E+00  0.111615E+00  0.950581E-01  0.831669E-01  0.747895E-01
  0.690849E-01  0.655683E-01  0.638341E-01  0.632778E-01  0.632015E-01  0.632778E-01
  0.638341E-01  0.655683E-01  0.690849E-01  0.747895E-01  0.831669E-01  0.950581E-01
  0.111615E+00  0.133960E+00  0.162744E+00  0.197805E+00  0.237996E+00  0.281231E+00
  0.324864E+00  0.366183E+00  0.402757E+00  0.432594E+00  0.454340E+00  0.500266E+00
  0.509237E+00  0.509237E+00  0.500266E+00  0.482304E+00  0.455541E+00  0.420642E+00
  0.378901E+00  0.332334E+00  0.283667E+00  0.236029E+00  0.192336E+00  0.154692E+00
  0.124122E+00  0.100578E+00  0.831669E-01  0.705824E-01  0.616181E-01  0.554598E-01
  0.516051E-01  0.495751E-01  0.487902E-01  0.487902E-01  0.495751E-01  0.516051E-01
  0.554598E-01  0.616181E-01  0.705824E-01  0.831669E-01  0.100578E+00  0.124122E+00
  0.154692E+00  0.192336E+00  0.236029E+00  0.283667E+00  0.332334E+00  0.378901E+00
  0.420642E+00  0.455541E+00  0.482304E+00  0.500266E+00  0.551933E+00  0.556482E+00
  0.551933E+00  0.538271E+00  0.515507E+00  0.483824E+00  0.443801E+00  0.396706E+00
  0.344747E+00  0.291019E+00  0.238960E+00  0.191606E+00  0.151066E+00  0.118317E+00
  0.932255E-01  0.747895E-01  0.616181E-01  0.524217E-01  0.462436E-01  0.424063E-01
  0.403780E-01  0.397553E-01  0.403780E-01  0.424063E-01  0.462436E-01  0.524217E-01
  0.616181E-01  0.747895E-01  0.932255E-01  0.118317E+00  0.151066E+00  0.191606E+00
  0.238960E+00  0.291019E+00  0.344747E+00  0.396706E+00  0.443801E+00  0.483824E+00
  0.515507E+00  0.538271E+00  0.551933E+00  0.605827E+00  0.605827E+00  0.596964E+00
  0.579136E+00  0.552194E+00  0.516110E+00  0.471310E+00  0.419092E+00  0.361893E+00
  0.303102E+00  0.246393E+00  0.194964E+00  0.151029E+00  0.115623E+00  0.886433E-01
  0.690849E-01  0.554598E-01  0.462436E-01  0.402011E-01  0.365169E-01  0.347576E-01
  0.347576E-01  0.365169E-01  0.402011E-01  0.462436E-01  0.554598E-01  0.690849E-01
  0.886433E-01  0.115623E+00  0.151029E+00  0.194964E+00  0.246393E+00  0.303102E+00
  0.361893E+00  0.419092E+00  0.471310E+00  0.516110E+00  0.552194E+00  0.579136E+00
  0.596964E+00  0.605827E+00  0.657793E+00  0.653677E+00  0.641220E+00  0.620109E+00
  0.589921E+00  0.550355E+00  0.501643E+00  0.444999E+00  0.382893E+00  0.318927E+00
  0.257171E+00  0.201218E+00  0.153497E+00  0.115149E+00  0.861746E-01  0.655683E-01
  0.516051E-01  0.424063E-01  0.365169E-01  0.331495E-01  0.320403E-01  0.331495E-01
  0.365169E-01  0.424063E-01  0.516051E-01  0.655683E-01  0.861746E-01  0.115149E+00
  0.153497E+00  0.201218E+00  0.257171E+00  0.318927E+00  0.382893E+00  0.444999E+00
  0.501643E+00  0.550355E+00  0.589921E+00  0.620109E+00  0.641220E+00  0.653677E+00
  0.657793E+00  0.705360E+00  0.697879E+00  0.682634E+00  0.659087E+00  0.626565E+00
  0.584524E+00  0.532914E+00  0.472615E+00  0.405907E+00  0.336644E+00  0.269569E+00
  0.208888E+00  0.157302E+00  0.116081E+00  0.853094E-01  0.638341E-01  0.495751E-01
  0.403780E-01  0.347576E-01  0.320403E-01  0.320403E-01  0.347576E-01  0.403780E-01
  0.495751E-01  0.638341E-01  0.853094E-01  0.116081E+00  0.157302E+00  0.208888E+00
  0.269569E+00  0.336644E+00  0.405907E+00  0.472615E+00  0.532914E+00  0.584524E+00
  0.626565E+00  0.659087E+00  0.682634E+00  0.697879E+00  0.705360E+00  0.705360E+00
  0.747656E+00  0.737540E+00  0.720167E+00  0.694809E+00  0.660614E+00  0.616815E+00
  0.563000E+00  0.499575E+00  0.428559E+00  0.354127E+00  0.281813E+00  0.216525E+00
  0.161323E+00  0.117626E+00  0.854345E-01  0.632778E-01  0.487902E-01  0.397553E-01
  0.347576E-01  0.331495E-01  0.347576E-01  0.397553E-01  0.487902E-01  0.632778E-01
  0.854345E-01  0.117626E+00  0.161323E+00  0.216525E+00  0.281813E+00  0.354127E+00
  0.428559E+00  0.499575E+00  0.563000E+00  0.616815E+00  0.660614E+00  0.694809E+00
  0.720167E+00  0.737540E+00  0.747656E+00  0.750976E+00  0.747656E+00  0.784218E+00
  0.772116E+00  0.753143E+00  0.726396E+00  0.690872E+00  0.645610E+00  0.589867E+00
  0.523636E+00  0.448723E+00  0.369580E+00  0.292422E+00  0.222906E+00  0.164596E+00
  0.118992E+00  0.857884E-01  0.632015E-01  0.487902E-01  0.403780E-01  0.365169E-01
  0.365169E-01  0.403780E-01  0.487902E-01  0.632015E-01  0.857884E-01  0.118992E+00
  0.164596E+00  0.222906E+00  0.292422E+00  0.369580E+00  0.448723E+00  0.523636E+00
  0.589867E+00  0.645610E+00  0.690872E+00  0.726396E+00  0.753143E+00  0.772116E+00
  0.784218E+00  0.790103E+00  0.790103E+00  0.784218E+00  0.814591E+00  0.801086E+00
  0.780953E+00  0.753104E+00  0.716386E+00  0.669691E+00  0.612065E+00  0.543259E+00
  0.464936E+00  0.381671E+00  0.300233E+00  0.227113E+00  0.166420E+00  0.119534E+00
  0.857884E-01  0.632778E-01  0.495751E-01  0.424063E-01  0.402011E-01  0.424063E-01
  0.495751E-01  0.632778E-01  0.857884E-01  0.119534E+00  0.166420E+00  0.227113E+00
  0.300233E+00  0.381671E+00  0.464936E+00  0.543259E+00  0.612065E+00  0.669691E+00
  0.716386E+00  0.753104E+00  0.780953E+00  0.801086E+00  0.814591E+00  0.822339E+00
  0.824863E+00  0.822339E+00  0.814591E+00  0.838692E+00  0.824240E+00  0.803281E+00
  0.774528E+00  0.736668E+00  0.688468E+00  0.628900E+00  0.557648E+00  0.476271E+00
  0.389399E+00  0.304381E+00  0.228580E+00  0.166420E+00  0.118992E+00  0.854345E-01
  0.638341E-01  0.516051E-01  0.462436E-01  0.462436E-01  0.516051E-01  0.638341E-01
  0.854345E-01  0.118992E+00  0.166420E+00  0.228580E+00  0.304381E+00  0.389399E+00
  0.476271E+00  0.557648E+00  0.628900E+00  0.688468E+00  0.736668E+00  0.774528E+00
  0.803281E+00  0.824240E+00  0.838692E+00  0.847717E+00  0.852050E+00  0.852050E+00
  0.847717E+00  0.838692E+00  0.857044E+00  0.841911E+00  0.820310E+00  0.790746E+00
  0.751702E+00  0.701843E+00  0.640172E+00  0.566423E+00  0.482113E+00  0.392064E+00
  0.304381E+00  0.227113E+00  0.164596E+00  0.117626E+00  0.853094E-01  0.655683E-01
  0.554598E-01  0.524217E-01  0.554598E-01  0.655683E-01  0.853094E-01  0.117626E+00
  0.164596E+00  0.227113E+00  0.304381E+00  0.392064E+00  0.482113E+00  0.566423E+00
  0.640172E+00  0.701843E+00  0.751702E+00  0.790746E+00  0.820310E+00  0.841911E+00
  0.857044E+00  0.866972E+00  0.872592E+00  0.874411E+00  0.872592E+00  0.866972E+00
  0.857044E+00  0.870561E+00  0.854811E+00  0.832564E+00  0.802094E+00  0.761664E+00
  0.709869E+00  0.645828E+00  0.569373E+00  0.482113E+00  0.389399E+00  0.300233E+00
  0.222906E+00  0.161323E+00  0.116081E+00  0.861746E-01  0.690849E-01  0.616181E-01
  0.616181E-01  0.690849E-01  0.861746E-01  0.116081E+00  0.161323E+00  0.222906E+00
  0.300233E+00  0.389399E+00  0.482113E+00  0.569373E+00  0.645828E+00  0.709869E+00
  0.761664E+00  0.802094E+00  0.832564E+00  0.854811E+00  0.870561E+00  0.881245E+00
  0.887875E+00  0.891056E+00  0.891056E+00  0.887875E+00  0.881245E+00  0.870561E+00
  0.880140E+00  0.863649E+00  0.840541E+00  0.808848E+00  0.766647E+00  0.712551E+00
  0.645828E+00  0.566423E+00  0.476271E+00  0.381671E+00  0.292422E+00  0.216525E+00
  0.157302E+00  0.115149E+00  0.886433E-01  0.747895E-01  0.705824E-01  0.747895E-01
  0.886433E-01  0.115149E+00  0.157302E+00  0.216525E+00  0.292422E+00  0.381671E+00
  0.476271E+00  0.566423E+00  0.645828E+00  0.712551E+00  0.766647E+00  0.808848E+00
  0.840541E+00  0.863649E+00  0.880140E+00  0.891621E+00  0.899201E+00  0.903537E+00
  0.904952E+00  0.903537E+00  0.899201E+00  0.891621E+00  0.880140E+00  0.886366E+00
  0.868861E+00  0.844500E+00  0.811098E+00  0.766647E+00  0.709869E+00  0.640172E+00
  0.557648E+00  0.464936E+00  0.369580E+00  0.281813E+00  0.208888E+00  0.153497E+00
  0.115623E+00  0.932255E-01  0.831669E-01  0.831669E-01  0.932255E-01  0.115623E+00
  0.153497E+00  0.208888E+00  0.281813E+00  0.369580E+00  0.464936E+00  0.557648E+00
  0.640172E+00  0.709869E+00  0.766647E+00  0.811098E+00  0.844500E+00  0.868861E+00
  0.886366E+00  0.898819E+00  0.907438E+00  0.912918E+00  0.915596E+00  0.915596E+00
  0.912918E+00  0.907438E+00  0.898819E+00  0.886366E+00  0.889466E+00  0.870592E+00
  0.844500E+00  0.808848E+00  0.761664E+00  0.701843E+00  0.628900E+00  0.543259E+00
  0.448723E+00  0.354127E+00  0.269569E+00  0.201218E+00  0.151029E+00  0.118317E+00
  0.100578E+00  0.950581E-01  0.100578E+00  0.118317E+00  0.151029E+00  0.201218E+00
  0.269569E+00  0.354127E+00  0.448723E+00  0.543259E+00  0.628900E+00  0.701843E+00
  0.761664E+00  0.808848E+00  0.844500E+00  0.870592E+00  0.889466E+00  0.903133E+00
  0.912953E+00  0.919677E+00  0.923640E+00  0.924954E+00  0.923640E+00  0.919677E+00
  0.912953E+00  0.903133E+00  0.889466E+00  0.889466E+00  0.868861E+00  0.840541E+00
  0.802094E+00  0.751702E+00  0.688468E+00  0.612065E+00  0.523636E+00  0.428559E+00
  0.336644E+00  0.257171E+00  0.194964E+00  0.151066E+00  0.124122E+00  0.111615E+00
  0.111615E+00  0.124122E+00  0.151066E+00  0.194964E+00  0.257171E+00  0.336644E+00
  0.428559E+00  0.523636E+00  0.612065E+00  0.688468E+00  0.751702E+00  0.802094E+00
  0.840541E+00  0.868861E+00  0.889466E+00  0.904581E+00  0.915757E+00  0.923845E+00
  0.929192E+00  0.931873E+00  0.931873E+00  0.929192E+00  0.923845E+00  0.915757E+00
  0.904581E+00  0.889466E+00  0.886366E+00  0.863649E+00  0.832564E+00  0.790746E+00
  0.736668E+00  0.669691E+00  0.589867E+00  0.499575E+00  0.405907E+00  0.318927E+00
  0.246393E+00  0.191606E+00  0.154692E+00  0.133960E+00  0.127353E+00  0.133960E+00
  0.154692E+00  0.191606E+00  0.246393E+00  0.318927E+00  0.405907E+00  0.499575E+00
  0.589867E+00  0.669691E+00  0.736668E+00  0.790746E+00  0.832564E+00  0.863649E+00
  0.886366E+00  0.903133E+00  0.915757E+00  0.925265E+00  0.932065E+00  0.936207E+00
  0.937604E+00  0.936207E+00  0.932065E+00  0.925265E+00  0.915757E+00  0.903133E+00
  0.886366E+00  0.880140E+00  0.854811E+00  0.820310E+00  0.774528E+00  0.716386E+00
  0.645610E+00  0.563000E+00  0.472615E+00  0.382893E+00  0.303102E+00  0.238960E+00
  0.192336E+00  0.162744E+00  0.148609E+00  0.148609E+00  0.162744E+00  0.192336E+00
  0.238960E+00  0.303102E+00  0.382893E+00  0.472615E+00  0.563000E+00  0.645610E+00
  0.716386E+00  0.774528E+00  0.820310E+00  0.854811E+00  0.880140E+00  0.898819E+00
  0.912953E+00  0.923845E+00  0.932065E+00  0.937692E+00  0.940579E+00  0.940579E+00
  0.937692E+00  0.932065E+00  0.923845E+00  0.912953E+00  0.898819E+00  0.880140E+00
  0.870561E+00  0.841911E+00  0.803281E+00  0.753104E+00  0.690872E+00  0.616815E+00
  0.532914E+00  0.444999E+00  0.361893E+00  0.291019E+00  0.236029E+00  0.197805E+00
  0.175696E+00  0.168522E+00  0.175696E+00  0.197805E+00  0.236029E+00  0.291019E+00
  0.361893E+00  0.444999E+00  0.532914E+00  0.616815E+00  0.690872E+00  0.753104E+00
  0.803281E+00  0.841911E+00  0.870561E+00  0.891621E+00  0.907438E+00  0.919677E+00
  0.929192E+00  0.936207E+00  0.940579E+00  0.942073E+00  0.940579E+00  0.936207E+00
  0.929192E+00  0.919677E+00  0.907438E+00  0.891621E+00  0.870561E+00  0.857044E+00
  0.824240E+00  0.780953E+00  0.726396E+00  0.660614E+00  0.584524E+00  0.501643E+00
  0.419092E+00  0.344747E+00  0.283667E+00  0.237996E+00  0.208193E+00  0.193676E+00
  0.193676E+00  0.208193E+00  0.237996E+00  0.283667E+00  0.344747E+00  0.419092E+00
  0.501643E+00  0.584524E+00  0.660614E+00  0.726396E+00  0.780953E+00  0.824240E+00
  0.857044E+00  0.881245E+00  0.899201E+00  0.912918E+00  0.923640E+00  0.931873E+00
  0.937604E+00  0.940579E+00  0.940579E+00  0.937604E+00  0.931873E+00  0.923640E+00
  0.912918E+00  0.899201E+00  0.881245E+00  0.857044E+00  0.838692E+00  0.801086E+00
  0.753143E+00  0.694809E+00  0.626565E+00  0.550355E+00  0.471310E+00  0.396706E+00
  0.332334E+00  0.281231E+00  0.244835E+00  0.223437E+00  0.216448E+00  0.223437E+00
  0.244835E+00  0.281231E+00  0.332334E+00  0.396706E+00  0.471310E+00  0.550355E+00
  0.626565E+00  0.694809E+00  0.753143E+00  0.801086E+00  0.838692E+00  0.866972E+00
  0.887875E+00  0.903537E+00  0.915596E+00  0.924954E+00  0.931873E+00  0.936207E+00
  0.937692E+00  0.936207E+00  0.931873E+00  0.924954E+00  0.915596E+00  0.903537E+00
  0.887875E+00  0.866972E+00  0.838692E+00  0.814591E+00  0.772116E+00  0.720167E+00
  0.659087E+00  0.589921E+00  0.516110E+00  0.443801E+00  0.378901E+00  0.324864E+00
  0.283667E+00  0.256494E+00  0.243278E+00  0.243278E+00  0.256494E+00  0.283667E+00
  0.324864E+00  0.378901E+00  0.443801E+00  0.516110E+00  0.589921E+00  0.659087E+00
  0.720167E+00  0.772116E+00  0.814591E+00  0.847717E+00  0.872592E+00  0.891056E+00
  0.904952E+00  0.915596E+00  0.923640E+00  0.929192E+00  0.932065E+00  0.932065E+00
  0.929192E+00  0.923640E+00  0.915596E+00  0.904952E+00  0.891056E+00  0.872592E+00
  0.847717E+00  0.814591E+00  0.784218E+00  0.737540E+00  0.682634E+00  0.620109E+00
  0.552194E+00  0.483824E+00  0.420642E+00  0.366183E+00  0.322397E+00  0.291019E+00
  0.272786E+00  0.266935E+00  0.272786E+00  0.291019E+00  0.322397E+00  0.366183E+00
  0.420642E+00  0.483824E+00  0.552194E+00  0.620109E+00  0.682634E+00  0.737540E+00
  0.784218E+00  0.822339E+00  0.852050E+00  0.874411E+00  0.891056E+00  0.903537E+00
  0.912918E+00  0.919677E+00  0.923845E+00  0.925265E+00  0.923845E+00  0.919677E+00
  0.912918E+00  0.903537E+00  0.891056E+00  0.874411E+00  0.852050E+00  0.822339E+00
  0.784218E+00  0.747656E+00  0.697879E+00  0.641220E+00  0.579136E+00  0.515507E+00
  0.455541E+00  0.402757E+00  0.358688E+00  0.324964E+00  0.303102E+00  0.292839E+00
  0.292839E+00  0.303102E+00  0.324964E+00  0.358688E+00  0.402757E+00  0.455541E+00
  0.515507E+00  0.579136E+00  0.641220E+00  0.697879E+00  0.747656E+00  0.790103E+00
  0.824863E+00  0.852050E+00  0.872592E+00  0.887875E+00  0.899201E+00  0.907438E+00
  0.912953E+00  0.915757E+00  0.915757E+00  0.912953E+00  0.907438E+00  0.899201E+00
  0.887875E+00  0.872592E+00  0.852050E+00  0.824863E+00  0.790103E+00  0.747656E+00
  0.705360E+00  0.653677E+00  0.596964E+00  0.538271E+00  0.482304E+00  0.432594E+00
  0.390274E+00  0.356242E+00  0.332251E+00  0.318927E+00  0.314851E+00  0.318927E+00
  0.332251E+00  0.356242E+00  0.390274E+00  0.432594E+00  0.482304E+00  0.538271E+00
  0.596964E+00  0.653677E+00  0.705360E+00  0.750976E+00  0.790103E+00  0.822339E+00
  0.847717E+00  0.866972E+00  0.881245E+00  0.891621E+00  0.898819E+00  0.903133E+00
  0.904581E+00  0.903133E+00  0.898819E+00  0.891621E+00  0.881245E+00  0.866972E+00
  0.847717E+00  0.822339E+00  0.790103E+00  0.750976E+00  0.705360E+00  0.657793E+00
  0.605827E+00  0.551933E+00  0.500266E+00  0.454340E+00  0.415170E+00  0.382801E+00
  0.358416E+00  0.343291E+00  0.336644E+00  0.336644E+00  0.343291E+00  0.358416E+00
  0.382801E+00  0.415170E+00  0.454340E+00  0.500266E+00  0.551933E+00  0.605827E+00
  0.657793E+00  0.705360E+00  0.747656E+00  0.784218E+00  0.814591E+00  0.838692E+00
  0.857044E+00  0.870561E+00  0.880140E+00  0.886366E+00  0.889466E+00  0.889466E+00
  0.886366E+00  0.880140E+00  0.870561E+00  0.857044E+00  0.838692E+00  0.814591E+00
  0.784218E+00  0.747656E+00  0.705360E+00  0.657793E+00  0.678452E+00  0.634974E+00
  0.590561E+00  0.549350E+00  0.513817E+00  0.483816E+00  0.459218E+00  0.441462E+00
  0.431556E+00  0.428559E+00  0.431556E+00  0.441462E+00  0.459218E+00  0.483816E+00
  0.513817E+00  0.549350E+00  0.590561E+00  0.634974E+00  0.678452E+00  0.718204E+00
  0.753494E+00  0.784218E+00  0.810027E+00  0.830641E+00  0.846287E+00  0.857663E+00
  0.865620E+00  0.870887E+00  0.873920E+00  0.874916E+00  0.873920E+00  0.870887E+00
  0.865620E+00  0.857663E+00  0.846287E+00  0.830641E+00  0.810027E+00  0.784218E+00
  0.753494E+00  0.718204E+00  0.678452E+00  0.634974E+00  0.595102E+00  0.558414E+00
  0.527332E+00  0.501562E+00  0.480079E+00  0.463503E+00  0.453165E+00  0.448723E+00
  0.448723E+00  0.453165E+00  0.463503E+00  0.480079E+00  0.501562E+00  0.527332E+00
  0.558414E+00  0.595102E+00  0.634974E+00  0.674329E+00  0.710722E+00  0.743384E+00
  0.772116E+00  0.796581E+00  0.816460E+00  0.831783E+00  0.842981E+00  0.850692E+00
  0.855510E+00  0.857832E+00  0.857832E+00  0.855510E+00  0.850692E+00  0.842981E+00
  0.831783E+00  0.816460E+00  0.796581E+00  0.772116E+00  0.743384E+00  0.710722E+00
  0.674329E+00  0.634974E+00  0.590561E+00  0.558414E+00  0.531810E+00  0.510505E+00
  0.493075E+00  0.479172E+00  0.469715E+00  0.464936E+00  0.463627E+00  0.464936E+00
  0.469715E+00  0.479172E+00  0.493075E+00  0.510505E+00  0.531810E+00  0.558414E+00
  0.590561E+00  0.626109E+00  0.661859E+00  0.695483E+00  0.726014E+00  0.753143E+00
  0.776565E+00  0.795912E+00  0.811007E+00  0.822024E+00  0.829402E+00  0.833611E+00
  0.834977E+00  0.833611E+00  0.829402E+00  0.822024E+00  0.811007E+00  0.795912E+00
  0.776565E+00  0.753143E+00  0.726014E+00  0.695483E+00  0.661859E+00  0.626109E+00
  0.590561E+00  0.549350E+00  0.527332E+00  0.510505E+00  0.497490E+00  0.487377E+00
  0.480256E+00  0.476271E+00  0.474742E+00  0.474742E+00  0.476271E+00  0.480256E+00
  0.487377E+00  0.497490E+00  0.510505E+00  0.527332E+00  0.549350E+00  0.576863E+00
  0.608249E+00  0.640735E+00  0.671936E+00  0.700629E+00  0.726396E+00  0.748922E+00
  0.767738E+00  0.782459E+00  0.793042E+00  0.799767E+00  0.803006E+00  0.803006E+00
  0.799767E+00  0.793042E+00  0.782459E+00  0.767738E+00  0.748922E+00  0.726396E+00
  0.700629E+00  0.671936E+00  0.640735E+00  0.608249E+00  0.576863E+00  0.549350E+00
  0.513817E+00  0.501562E+00  0.493075E+00  0.487377E+00  0.483899E+00  0.482113E+00
  0.481393E+00  0.481219E+00  0.481393E+00  0.482113E+00  0.483899E+00  0.487377E+00
  0.493075E+00  0.501562E+00  0.513817E+00  0.531078E+00  0.553899E+00  0.581188E+00
  0.610475E+00  0.639315E+00  0.666304E+00  0.690872E+00  0.712544E+00  0.730654E+00
  0.744625E+00  0.754289E+00  0.759861E+00  0.761669E+00  0.759861E+00  0.754289E+00
  0.744625E+00  0.730654E+00  0.712544E+00  0.690872E+00  0.666304E+00  0.639315E+00
  0.610475E+00  0.581188E+00  0.553899E+00  0.531078E+00  0.513817E+00  0.483816E+00
  0.480079E+00  0.479172E+00  0.480256E+00  0.482113E+00  0.483575E+00  0.484233E+00
  0.484233E+00  0.483575E+00  0.482113E+00  0.480256E+00  0.479172E+00  0.480079E+00
  0.483816E+00  0.491273E+00  0.503663E+00  0.521752E+00  0.544784E+00  0.570593E+00
  0.596880E+00  0.622169E+00  0.645610E+00  0.666361E+00  0.683457E+00  0.696193E+00
  0.704408E+00  0.708367E+00  0.708367E+00  0.704408E+00  0.696193E+00  0.683457E+00
  0.666361E+00  0.645610E+00  0.622169E+00  0.596880E+00  0.570593E+00  0.544784E+00
  0.521752E+00  0.503663E+00  0.491273E+00  0.483816E+00  0.459218E+00  0.463503E+00
  0.469715E+00  0.476271E+00  0.481393E+00  0.484233E+00  0.485071E+00  0.484233E+00
  0.481393E+00  0.476271E+00  0.469715E+00  0.463503E+00  0.459218E+00  0.457827E+00
  0.460270E+00  0.467733E+00  0.480923E+00  0.499257E+00  0.521037E+00  0.544365E+00
  0.567736E+00  0.589867E+00  0.609407E+00  0.625093E+00  0.636177E+00  0.642597E+00
  0.644672E+00  0.642597E+00  0.636177E+00  0.625093E+00  0.609407E+00  0.589867E+00
  0.567736E+00  0.544365E+00  0.521037E+00  0.499257E+00  0.480923E+00  0.467733E+00
  0.460270E+00  0.457827E+00  0.459218E+00  0.441462E+00  0.453165E+00  0.464936E+00
  0.474742E+00  0.481219E+00  0.484233E+00  0.484233E+00  0.481219E+00  0.474742E+00
  0.464936E+00  0.453165E+00  0.441462E+00  0.431585E+00  0.424778E+00  0.422125E+00
  0.424581E+00  0.432565E+00  0.445675E+00  0.462829E+00  0.482614E+00  0.503461E+00
  0.523636E+00  0.541336E+00  0.555094E+00  0.564183E+00  0.568600E+00  0.568600E+00
  0.564183E+00  0.555094E+00  0.541336E+00  0.523636E+00  0.503461E+00  0.482614E+00
  0.462829E+00  0.445675E+00  0.432565E+00  0.424581E+00  0.422125E+00  0.424778E+00
  0.431585E+00  0.441462E+00  0.431556E+00  0.448723E+00  0.463627E+00  0.474742E+00
  0.481393E+00  0.483575E+00  0.481393E+00  0.474742E+00  0.463627E+00  0.448723E+00
  0.431556E+00  0.414163E+00  0.398564E+00  0.386391E+00  0.378727E+00  0.376120E+00
  0.378727E+00  0.386391E+00  0.398564E+00  0.414163E+00  0.431556E+00  0.448723E+00
  0.463627E+00  0.474742E+00  0.481393E+00  0.483575E+00  0.481393E+00  0.474742E+00
  0.463627E+00  0.448723E+00  0.431556E+00  0.414163E+00  0.398564E+00  0.386391E+00
  0.378727E+00  0.376120E+00  0.378727E+00  0.386391E+00  0.398564E+00  0.414163E+00
  0.431556E+00  0.428559E+00  0.448723E+00  0.464936E+00  0.476271E+00  0.482113E+00
  0.482113E+00  0.476271E+00  0.464936E+00  0.448723E+00  0.428559E+00  0.405907E+00
  0.382893E+00  0.361893E+00  0.344747E+00  0.332334E+00  0.324864E+00  0.322397E+00
  0.324964E+00  0.332251E+00  0.343291E+00  0.356431E+00  0.369580E+00  0.380709E+00
  0.388443E+00  0.392291E+00  0.392291E+00  0.388443E+00  0.380709E+00  0.369580E+00
  0.356431E+00  0.343291E+00  0.332251E+00  0.324964E+00  0.322397E+00  0.324864E+00
  0.332334E+00  0.344747E+00  0.361893E+00  0.382893E+00  0.405907E+00  0.428559E+00
  0.431556E+00  0.453165E+00  0.469715E+00  0.480256E+00  0.483899E+00  0.480256E+00
  0.469715E+00  0.453165E+00  0.431556E+00  0.405907E+00  0.377786E+00  0.349566E+00
  0.323795E+00  0.302226E+00  0.285526E+00  0.273790E+00  0.267076E+00  0.265392E+00
  0.268374E+00  0.275028E+00  0.283712E+00  0.292422E+00  0.299387E+00  0.303639E+00
  0.305030E+00  0.303639E+00  0.299387E+00  0.292422E+00  0.283712E+00  0.275028E+00
  0.268374E+00  0.265392E+00  0.267076E+00  0.273790E+00  0.285526E+00  0.302226E+00
  0.323795E+00  0.349566E+00  0.377786E+00  0.405907E+00  0.431556E+00  0.441462E+00
  0.463503E+00  0.479172E+00  0.487377E+00  0.487377E+00  0.479172E+00  0.463503E+00
  0.441462E+00  0.414163E+00  0.382893E+00  0.349566E+00  0.316720E+00  0.286794E+00
  0.261358E+00  0.241029E+00  0.225939E+00  0.216060E+00  0.211179E+00  0.210714E+00
  0.213582E+00  0.218222E+00  0.222906E+00  0.226340E+00  0.228041E+00  0.228041E+00
  0.226340E+00  0.222906E+00  0.218222E+00  0.213582E+00  0.210714E+00  0.211179E+00
  0.216060E+00  0.225939E+00  0.241029E+00  0.261358E+00  0.286794E+00  0.316720E+00
  0.349566E+00  0.382893E+00  0.414163E+00  0.441462E+00  0.459218E+00  0.480079E+00
  0.493075E+00  0.497490E+00  0.493075E+00  0.480079E+00  0.459218E+00  0.431585E+00
  0.398564E+00  0.361893E+00  0.323795E+00  0.286794E+00  0.253167E+00  0.224427E+00
  0.201282E+00  0.183852E+00  0.171875E+00  0.164771E+00  0.161678E+00  0.161478E+00
  0.162867E+00  0.164596E+00  0.165832E+00  0.166259E+00  0.165832E+00  0.164596E+00
  0.162867E+00  0.161478E+00  0.161678E+00  0.164771E+00  0.171875E+00  0.183852E+00
  0.201282E+00  0.224427E+00  0.253167E+00  0.286794E+00  0.323795E+00  0.361893E+00
  0.398564E+00  0.431585E+00  0.459218E+00  0.483816E+00  0.501562E+00  0.510505E+00
  0.510505E+00  0.501562E+00  0.483816E+00  0.457827E+00  0.424778E+00  0.386391E+00
  0.344747E+00  0.302226E+00  0.261358E+00  0.224427E+00  0.193044E+00  0.167962E+00
  0.149139E+00  0.135927E+00  0.127329E+00  0.122273E+00  0.119777E+00  0.118956E+00
  0.118992E+00  0.119207E+00  0.119207E+00  0.118992E+00  0.118956E+00  0.119777E+00
  0.122273E+00  0.127329E+00  0.135927E+00  0.149139E+00  0.167962E+00  0.193044E+00
  0.224427E+00  0.261358E+00  0.302226E+00  0.344747E+00  0.386391E+00  0.424778E+00
  0.457827E+00  0.483816E+00  0.513817E+00  0.527332E+00  0.531810E+00  0.527332E+00
  0.513817E+00  0.491273E+00  0.460270E+00  0.422125E+00  0.378727E+00  0.332334E+00
  0.285526E+00  0.241029E+00  0.201282E+00  0.167962E+00  0.141725E+00  0.122207E+00
  0.108313E+00  0.987199E-01  0.923386E-01  0.884513E-01  0.864908E-01  0.857884E-01
  0.856575E-01  0.857884E-01  0.864908E-01  0.884513E-01  0.923386E-01  0.987199E-01
  0.108313E+00  0.122207E+00  0.141725E+00  0.167962E+00  0.201282E+00  0.241029E+00
  0.285526E+00  0.332334E+00  0.378727E+00  0.422125E+00  0.460270E+00  0.491273E+00
  0.513817E+00  0.549350E+00  0.558414E+00  0.558414E+00  0.549350E+00  0.531078E+00
  0.503663E+00  0.467733E+00  0.424581E+00  0.376120E+00  0.324864E+00  0.273790E+00
  0.225939E+00  0.183852E+00  0.149139E+00  0.122207E+00  0.102303E+00  0.879811E-01
  0.778040E-01  0.707981E-01  0.663992E-01  0.640868E-01  0.632015E-01  0.632015E-01
  0.640868E-01  0.663992E-01  0.707981E-01  0.778040E-01  0.879811E-01  0.102303E+00
  0.122207E+00  0.149139E+00  0.183852E+00  0.225939E+00  0.273790E+00  0.324864E+00
  0.376120E+00  0.424581E+00  0.467733E+00  0.503663E+00  0.531078E+00  0.549350E+00
  0.590561E+00  0.595102E+00  0.590561E+00  0.576863E+00  0.553899E+00  0.521752E+00
  0.480923E+00  0.432565E+00  0.378727E+00  0.322397E+00  0.267076E+00  0.216060E+00
  0.171875E+00  0.135927E+00  0.108313E+00  0.879811E-01  0.733511E-01  0.630070E-01
  0.559970E-01  0.516755E-01  0.494527E-01  0.487902E-01  0.494527E-01  0.516755E-01
  0.559970E-01  0.630070E-01  0.733511E-01  0.879811E-01  0.108313E+00  0.135927E+00
  0.171875E+00  0.216060E+00  0.267076E+00  0.322397E+00  0.378727E+00  0.432565E+00
  0.480923E+00  0.521752E+00  0.553899E+00  0.576863E+00  0.590561E+00  0.634974E+00
  0.634974E+00  0.626109E+00  0.608249E+00  0.581188E+00  0.544784E+00  0.499257E+00
  0.445675E+00  0.386391E+00  0.324964E+00  0.265392E+00  0.211179E+00  0.164771E+00
  0.127329E+00  0.987199E-01  0.778040E-01  0.630070E-01  0.528488E-01  0.461896E-01
  0.422173E-01  0.403780E-01  0.403780E-01  0.422173E-01  0.461896E-01  0.528488E-01
  0.630070E-01  0.778040E-01  0.987199E-01  0.127329E+00  0.164771E+00  0.211179E+00
  0.265392E+00  0.324964E+00  0.386391E+00  0.445675E+00  0.499257E+00  0.544784E+00
  0.581188E+00  0.608249E+00  0.626109E+00  0.634974E+00  0.678452E+00  0.674329E+00
  0.661859E+00  0.640735E+00  0.610475E+00  0.570593E+00  0.521037E+00  0.462829E+00
  0.398564E+00  0.332251E+00  0.268374E+00  0.210714E+00  0.161678E+00  0.122273E+00
  0.923386E-01  0.707981E-01  0.559970E-01  0.461896E-01  0.399832E-01  0.365169E-01
  0.353952E-01  0.365169E-01  0.399832E-01  0.461896E-01  0.559970E-01  0.707981E-01
  0.923386E-01  0.122273E+00  0.161678E+00  0.210714E+00  0.268374E+00  0.332251E+00
  0.398564E+00  0.462829E+00  0.521037E+00  0.570593E+00  0.610475E+00  0.640735E+00
  0.661859E+00  0.674329E+00  0.678452E+00  0.718204E+00  0.710722E+00  0.695483E+00
  0.671936E+00  0.639315E+00  0.596880E+00  0.544365E+00  0.482614E+00  0.414163E+00
  0.343291E+00  0.275028E+00  0.213582E+00  0.161478E+00  0.119777E+00  0.884513E-01
  0.663992E-01  0.516755E-01  0.422173E-01  0.365169E-01  0.337995E-01  0.337995E-01
  0.365169E-01  0.422173E-01  0.516755E-01  0.663992E-01  0.884513E-01  0.119777E+00
  0.161478E+00  0.213582E+00  0.275028E+00  0.343291E+00  0.414163E+00  0.482614E+00
  0.544365E+00  0.596880E+00  0.639315E+00  0.671936E+00  0.695483E+00  0.710722E+00
  0.718204E+00  0.718204E+00  0.753494E+00  0.743384E+00  0.726014E+00  0.700629E+00
  0.666304E+00  0.622169E+00  0.567736E+00  0.503461E+00  0.431556E+00  0.356431E+00
  0.283712E+00  0.218222E+00  0.162867E+00  0.118956E+00  0.864908E-01  0.640868E-01
  0.494527E-01  0.403780E-01  0.353952E-01  0.337995E-01  0.353952E-01  0.403780E-01
  0.494527E-01  0.640868E-01  0.864908E-01  0.118956E+00  0.162867E+00  0.218222E+00
  0.283712E+00  0.356431E+00  0.431556E+00  0.503461E+00  0.567736E+00  0.622169E+00
  0.666304E+00  0.700629E+00  0.726014E+00  0.743384E+00  0.753494E+00  0.756812E+00
  0.753494E+00  0.784218E+00  0.772116E+00  0.753143E+00  0.726396E+00  0.690872E+00
  0.645610E+00  0.589867E+00  0.523636E+00  0.448723E+00  0.369580E+00  0.292422E+00
  0.222906E+00  0.164596E+00  0.118992E+00  0.857884E-01  0.632015E-01  0.487902E-01
  0.403780E-01  0.365169E-01  0.365169E-01  0.403780E-01  0.487902E-01  0.632015E-01
  0.857884E-01  0.118992E+00  0.164596E+00  0.222906E+00  0.292422E+00  0.369580E+00
  0.448723E+00  0.523636E+00  0.589867E+00  0.645610E+00  0.690872E+00  0.726396E+00
  0.753143E+00  0.772116E+00  0.784218E+00  0.790103E+00  0.790103E+00  0.784218E+00
  0.810027E+00  0.796581E+00  0.776565E+00  0.748922E+00  0.712544E+00  0.666361E+00
  0.609407E+00  0.541336E+00  0.463627E+00  0.380709E+00  0.299387E+00  0.226340E+00
  0.165832E+00  0.119207E+00  0.856575E-01  0.632015E-01  0.494527E-01  0.422173E-01
  0.399832E-01  0.422173E-01  0.494527E-01  0.632015E-01  0.856575E-01  0.119207E+00
  0.165832E+00  0.226340E+00  0.299387E+00  0.380709E+00  0.463627E+00  0.541336E+00
  0.609407E+00  0.666361E+00  0.712544E+00  0.748922E+00  0.776565E+00  0.796581E+00
  0.810027E+00  0.817749E+00  0.820266E+00  0.817749E+00  0.810027E+00  0.830641E+00
  0.816460E+00  0.795912E+00  0.767738E+00  0.730654E+00  0.683457E+00  0.625093E+00
  0.555094E+00  0.474742E+00  0.388443E+00  0.303639E+00  0.228041E+00  0.166259E+00
  0.119207E+00  0.857884E-01  0.640868E-01  0.516755E-01  0.461896E-01  0.461896E-01
  0.516755E-01  0.640868E-01  0.857884E-01  0.119207E+00  0.166259E+00  0.228041E+00
  0.303639E+00  0.388443E+00  0.474742E+00  0.555094E+00  0.625093E+00  0.683457E+00
  0.730654E+00  0.767738E+00  0.795912E+00  0.816460E+00  0.830641E+00  0.839508E+00
  0.843770E+00  0.843770E+00  0.839508E+00  0.830641E+00  0.846287E+00  0.831783E+00
  0.811007E+00  0.782459E+00  0.744625E+00  0.696193E+00  0.636177E+00  0.564183E+00
  0.481393E+00  0.392291E+00  0.305030E+00  0.228041E+00  0.165832E+00  0.118992E+00
  0.864908E-01  0.663992E-01  0.559970E-01  0.528488E-01  0.559970E-01  0.663992E-01
  0.864908E-01  0.118992E+00  0.165832E+00  0.228041E+00  0.305030E+00  0.392291E+00
  0.481393E+00  0.564183E+00  0.636177E+00  0.696193E+00  0.744625E+00  0.782459E+00
  0.811007E+00  0.831783E+00  0.846287E+00  0.855783E+00  0.861154E+00  0.862894E+00
  0.861154E+00  0.855783E+00  0.846287E+00  0.857663E+00  0.842981E+00  0.822024E+00
  0.793042E+00  0.754289E+00  0.704408E+00  0.642597E+00  0.568600E+00  0.483575E+00
  0.392291E+00  0.303639E+00  0.226340E+00  0.164596E+00  0.118956E+00  0.884513E-01
  0.707981E-01  0.630070E-01  0.630070E-01  0.707981E-01  0.884513E-01  0.118956E+00
  0.164596E+00  0.226340E+00  0.303639E+00  0.392291E+00  0.483575E+00  0.568600E+00
  0.642597E+00  0.704408E+00  0.754289E+00  0.793042E+00  0.822024E+00  0.842981E+00
  0.857663E+00  0.867526E+00  0.873600E+00  0.876501E+00  0.876501E+00  0.873600E+00
  0.867526E+00  0.857663E+00  0.865620E+00  0.850692E+00  0.829402E+00  0.799767E+00
  0.759861E+00  0.708367E+00  0.644672E+00  0.568600E+00  0.481393E+00  0.388443E+00
  0.299387E+00  0.222906E+00  0.162867E+00  0.119777E+00  0.923386E-01  0.778040E-01
  0.733511E-01  0.778040E-01  0.923386E-01  0.119777E+00  0.162867E+00  0.222906E+00
  0.299387E+00  0.388443E+00  0.481393E+00  0.568600E+00  0.644672E+00  0.708367E+00
  0.759861E+00  0.799767E+00  0.829402E+00  0.850692E+00  0.865620E+00  0.875814E+00
  0.882418E+00  0.886138E+00  0.887341E+00  0.886138E+00  0.882418E+00  0.875814E+00
  0.865620E+00  0.870887E+00  0.855510E+00  0.833611E+00  0.803006E+00  0.761669E+00
  0.708367E+00  0.642597E+00  0.564183E+00  0.474742E+00  0.380709E+00  0.292422E+00
  0.218222E+00  0.161478E+00  0.122273E+00  0.987199E-01  0.879811E-01  0.879811E-01
  0.987199E-01  0.122273E+00  0.161478E+00  0.218222E+00  0.292422E+00  0.380709E+00
  0.474742E+00  0.564183E+00  0.642597E+00  0.708367E+00  0.761669E+00  0.803006E+00
  0.833611E+00  0.855510E+00  0.870887E+00  0.881525E+00  0.888661E+00  0.893062E+00
  0.895165E+00  0.895165E+00  0.893062E+00  0.888661E+00  0.881525E+00  0.870887E+00
  0.873920E+00  0.857832E+00  0.834977E+00  0.803006E+00  0.759861E+00  0.704408E+00
  0.636177E+00  0.555094E+00  0.463627E+00  0.369580E+00  0.283712E+00  0.213582E+00
  0.161678E+00  0.127329E+00  0.108313E+00  0.102303E+00  0.108313E+00  0.127329E+00
  0.161678E+00  0.213582E+00  0.283712E+00  0.369580E+00  0.463627E+00  0.555094E+00
  0.636177E+00  0.704408E+00  0.759861E+00  0.803006E+00  0.834977E+00  0.857832E+00
  0.873920E+00  0.885191E+00  0.892974E+00  0.898084E+00  0.900993E+00  0.901939E+00
  0.900993E+00  0.898084E+00  0.892974E+00  0.885191E+00  0.873920E+00  0.874916E+00
  0.857832E+00  0.833611E+00  0.799767E+00  0.754289E+00  0.696193E+00  0.625093E+00
  0.541336E+00  0.448723E+00  0.356431E+00  0.275028E+00  0.210714E+00  0.164771E+00
  0.135927E+00  0.122207E+00  0.122207E+00  0.135927E+00  0.164771E+00  0.210714E+00
  0.275028E+00  0.356431E+00  0.448723E+00  0.541336E+00  0.625093E+00  0.696193E+00
  0.754289E+00  0.799767E+00  0.833611E+00  0.857832E+00  0.874916E+00  0.887013E+00
  0.895593E+00  0.901539E+00  0.905338E+00  0.907208E+00  0.907208E+00  0.905338E+00
  0.901539E+00  0.895593E+00  0.887013E+00  0.874916E+00  0.873920E+00  0.855510E+00
  0.829402E+00  0.793042E+00  0.744625E+00  0.683457E+00  0.609407E+00  0.523636E+00
  0.431556E+00  0.343291E+00  0.268374E+00  0.211179E+00  0.171875E+00  0.149139E+00
  0.141725E+00  0.149139E+00  0.171875E+00  0.211179E+00  0.268374E+00  0.343291E+00
  0.431556E+00  0.523636E+00  0.609407E+00  0.683457E+00  0.744625E+00  0.793042E+00
  0.829402E+00  0.855510E+00  0.873920E+00  0.887013E+00  0.896485E+00  0.903361E+00
  0.908190E+00  0.911146E+00  0.912156E+00  0.911146E+00  0.908190E+00  0.903361E+00
  0.896485E+00  0.887013E+00  0.873920E+00  0.870887E+00  0.850692E+00  0.822024E+00
  0.782459E+00  0.730654E+00  0.666361E+00  0.589867E+00  0.503461E+00  0.414163E+00
  0.332251E+00  0.265392E+00  0.216060E+00  0.183852E+00  0.167962E+00  0.167962E+00
  0.183852E+00  0.216060E+00  0.265392E+00  0.332251E+00  0.414163E+00  0.503461E+00
  0.589867E+00  0.666361E+00  0.730654E+00  0.782459E+00  0.822024E+00  0.850692E+00
  0.870887E+00  0.885191E+00  0.895593E+00  0.903361E+00  0.909209E+00  0.913362E+00
  0.915600E+00  0.915600E+00  0.913362E+00  0.909209E+00  0.903361E+00  0.895593E+00
  0.885191E+00  0.870887E+00  0.865620E+00  0.842981E+00  0.811007E+00  0.767738E+00
  0.712544E+00  0.645610E+00  0.567736E+00  0.482614E+00  0.398564E+00  0.324964E+00
  0.267076E+00  0.225939E+00  0.201282E+00  0.193044E+00  0.201282E+00  0.225939E+00
  0.267076E+00  0.324964E+00  0.398564E+00  0.482614E+00  0.567736E+00  0.645610E+00
  0.712544E+00  0.767738E+00  0.811007E+00  0.842981E+00  0.865620E+00  0.881525E+00
  0.892974E+00  0.901539E+00  0.908190E+00  0.913362E+00  0.916871E+00  0.918146E+00
  0.916871E+00  0.913362E+00  0.908190E+00  0.901539E+00  0.892974E+00  0.881525E+00
  0.865620E+00  0.857663E+00  0.831783E+00  0.795912E+00  0.748922E+00  0.690872E+00
  0.622169E+00  0.544365E+00  0.462829E+00  0.386391E+00  0.322397E+00  0.273790E+00
  0.241029E+00  0.224427E+00  0.224427E+00  0.241029E+00  0.273790E+00  0.322397E+00
  0.386391E+00  0.462829E+00  0.544365E+00  0.622169E+00  0.690872E+00  0.748922E+00
  0.795912E+00  0.831783E+00  0.857663E+00  0.875814E+00  0.888661E+00  0.898084E+00
  0.905338E+00  0.911146E+00  0.915600E+00  0.918146E+00  0.918146E+00  0.915600E+00
  0.911146E+00  0.905338E+00  0.898084E+00  0.888661E+00  0.875814E+00  0.857663E+00
  0.846287E+00  0.816460E+00  0.776565E+00  0.726396E+00  0.666304E+00  0.596880E+00
  0.521037E+00  0.445675E+00  0.378727E+00  0.324864E+00  0.285526E+00  0.261358E+00
  0.253167E+00  0.261358E+00  0.285526E+00  0.324864E+00  0.378727E+00  0.445675E+00
  0.521037E+00  0.596880E+00  0.666304E+00  0.726396E+00  0.776565E+00  0.816460E+00
  0.846287E+00  0.867526E+00  0.882418E+00  0.893062E+00  0.900993E+00  0.907208E+00
  0.912156E+00  0.915600E+00  0.916871E+00  0.915600E+00  0.912156E+00  0.907208E+00
  0.900993E+00  0.893062E+00  0.882418E+00  0.867526E+00  0.846287E+00  0.830641E+00
  0.796581E+00  0.753143E+00  0.700629E+00  0.639315E+00  0.570593E+00  0.499257E+00
  0.432565E+00  0.376120E+00  0.332334E+00  0.302226E+00  0.286794E+00  0.286794E+00
  0.302226E+00  0.332334E+00  0.376120E+00  0.432565E+00  0.499257E+00  0.570593E+00
  0.639315E+00  0.700629E+00  0.753143E+00  0.796581E+00  0.830641E+00  0.855783E+00
  0.873600E+00  0.886138E+00  0.895165E+00  0.901939E+00  0.907208E+00  0.911146E+00
  0.913362E+00  0.913362E+00  0.911146E+00  0.907208E+00  0.901939E+00  0.895165E+00
  0.886138E+00  0.873600E+00  0.855783E+00  0.830641E+00  0.810027E+00  0.772116E+00
  0.726014E+00  0.671936E+00  0.610475E+00  0.544784E+00  0.480923E+00  0.424581E+00
  0.378727E+00  0.344747E+00  0.323795E+00  0.316720E+00  0.323795E+00  0.344747E+00
  0.378727E+00  0.424581E+00  0.480923E+00  0.544784E+00  0.610475E+00  0.671936E+00
  0.726014E+00  0.772116E+00  0.810027E+00  0.839508E+00  0.861154E+00  0.876501E+00
  0.887341E+00  0.895165E+00  0.900993E+00  0.905338E+00  0.908190E+00  0.909209E+00
  0.908190E+00  0.905338E+00  0.900993E+00  0.895165E+00  0.887341E+00  0.876501E+00
  0.861154E+00  0.839508E+00  0.810027E+00  0.784218E+00  0.743384E+00  0.695483E+00
  0.640735E+00  0.581188E+00  0.521752E+00  0.467733E+00  0.422125E+00  0.386391E+00
  0.361893E+00  0.349566E+00  0.349566E+00  0.361893E+00  0.386391E+00  0.422125E+00
  0.467733E+00  0.521752E+00  0.581188E+00  0.640735E+00  0.695483E+00  0.743384E+00
  0.784218E+00  0.817749E+00  0.843770E+00  0.862894E+00  0.876501E+00  0.886138E+00
  0.893062E+00  0.898084E+00  0.901539E+00  0.903361E+00  0.903361E+00  0.901539E+00
  0.898084E+00  0.893062E+00  0.886138E+00  0.876501E+00  0.862894E+00  0.843770E+00
  0.817749E+00  0.784218E+00  0.753494E+00  0.710722E+00  0.661859E+00  0.608249E+00
  0.553899E+00  0.503663E+00  0.460270E+00  0.424778E+00  0.398564E+00  0.382893E+00
  0.377786E+00  0.382893E+00  0.398564E+00  0.424778E+00  0.460270E+00  0.503663E+00
  0.553899E+00  0.608249E+00  0.661859E+00  0.710722E+00  0.753494E+00  0.790103E+00
  0.820266E+00  0.843770E+00  0.861154E+00  0.873600E+00  0.882418E+00  0.888661E+00
  0.892974E+00  0.895593E+00  0.896485E+00  0.895593E+00  0.892974E+00  0.888661E+00
  0.882418E+00  0.873600E+00  0.861154E+00  0.843770E+00  0.820266E+00  0.790103E+00
  0.753494E+00  0.718204E+00  0.674329E+00  0.626109E+00  0.576863E+00  0.531078E+00
  0.491273E+00  0.457827E+00  0.431585E+00  0.414163E+00  0.405907E+00  0.405907E+00
  0.414163E+00  0.431585E+00  0.457827E+00  0.491273E+00  0.531078E+00  0.576863E+00
  0.626109E+00  0.674329E+00  0.718204E+00  0.756812E+00  0.790103E+00  0.817749E+00
  0.839508E+00  0.855783E+00  0.867526E+00  0.875814E+00  0.881525E+00  0.885191E+00
  0.887013E+00  0.887013E+00  0.885191E+00  0.881525E+00  0.875814E+00  0.867526E+00
  0.855783E+00  0.839508E+00  0.817749E+00  0.790103E+00  0.756812E+00  0.718204E+00
  0.678452E+00  0.634974E+00  0.590561E+00  0.549350E+00  0.513817E+00  0.483816E+00
  0.459218E+00  0.441462E+00  0.431556E+00  0.428559E+00  0.431556E+00  0.441462E+00
  0.459218E+00  0.483816E+00  0.513817E+00  0.549350E+00  0.590561E+00  0.634974E+00
  0.678452E+00  0.718204E+00  0.753494E+00  0.784218E+00  0.810027E+00  0.830641E+00
  0.846287E+00  0.857663E+00  0.865620E+00  0.870887E+00  0.873920E+00  0.874916E+00
  0.873920E+00  0.870887E+00  0.865620E+00  0.857663E+00  0.846287E+00  0.830641E+00
  0.810027E+00  0.784218E+00  0.753494E+00  0.718204E+00  0.678452E+00  0.707659E+00
  0.673034E+00  0.639113E+00  0.608913E+00  0.583011E+00  0.560514E+00  0.542026E+00
  0.529505E+00  0.523636E+00  0.523636E+00  0.529505E+00  0.542026E+00  0.560514E+00
  0.583011E+00  0.608913E+00  0.639113E+00  0.673034E+00  0.707659E+00  0.740010E+00
  0.768851E+00  0.793862E+00  0.814591E+00  0.830641E+00  0.842175E+00  0.849857E+00
  0.854517E+00  0.856974E+00  0.858014E+00  0.858323E+00  0.858323E+00  0.858014E+00
  0.856974E+00  0.854517E+00  0.849857E+00  0.842175E+00  0.830641E+00  0.814591E+00
  0.793862E+00  0.768851E+00  0.740010E+00  0.707659E+00  0.673034E+00  0.643594E+00
  0.617943E+00  0.596559E+00  0.577993E+00  0.561858E+00  0.549852E+00  0.543259E+00
  0.541336E+00  0.543259E+00  0.549852E+00  0.561858E+00  0.577993E+00  0.596559E+00
  0.617943E+00  0.643594E+00  0.673034E+00  0.703554E+00  0.732543E+00  0.758769E+00
  0.781758E+00  0.801086E+00  0.816460E+00  0.827966E+00  0.836001E+00  0.841125E+00
  0.843999E+00  0.845328E+00  0.845694E+00  0.845328E+00  0.843999E+00  0.841125E+00
  0.836001E+00  0.827966E+00  0.816460E+00  0.801086E+00  0.781758E+00  0.758769E+00
  0.732543E+00  0.703554E+00  0.673034E+00  0.639113E+00  0.617943E+00  0.601064E+00
  0.586874E+00  0.574204E+00  0.563964E+00  0.557648E+00  0.555094E+00  0.555094E+00
  0.557648E+00  0.563964E+00  0.574204E+00  0.586874E+00  0.601064E+00  0.617943E+00
  0.639113E+00  0.664254E+00  0.691126E+00  0.717344E+00  0.741444E+00  0.762750E+00
  0.780953E+00  0.795912E+00  0.807585E+00  0.816039E+00  0.821545E+00  0.824632E+00
  0.825947E+00  0.825947E+00  0.824632E+00  0.821545E+00  0.816039E+00  0.807585E+00
  0.795912E+00  0.780953E+00  0.762750E+00  0.741444E+00  0.717344E+00  0.691126E+00
  0.664254E+00  0.639113E+00  0.608913E+00  0.596559E+00  0.586874E+00  0.578414E+00
  0.571254E+00  0.566423E+00  0.564183E+00  0.563643E+00  0.564183E+00  0.566423E+00
  0.571254E+00  0.578414E+00  0.586874E+00  0.596559E+00  0.608913E+00  0.625527E+00
  0.646469E+00  0.670036E+00  0.693853E+00  0.716076E+00  0.735872E+00  0.753104E+00
  0.767738E+00  0.779529E+00  0.788194E+00  0.793768E+00  0.796707E+00  0.797597E+00
  0.796707E+00  0.793768E+00  0.788194E+00  0.779529E+00  0.767738E+00  0.753104E+00
  0.735872E+00  0.716076E+00  0.693853E+00  0.670036E+00  0.646469E+00  0.625527E+00
  0.608913E+00  0.583011E+00  0.577993E+00  0.574204E+00  0.571254E+00  0.569373E+00
  0.568600E+00  0.568473E+00  0.568473E+00  0.568600E+00  0.569373E+00  0.571254E+00
  0.574204E+00  0.577993E+00  0.583011E+00  0.590640E+00  0.602559E+00  0.619366E+00
  0.639758E+00  0.661224E+00  0.681606E+00  0.700005E+00  0.716386E+00  0.730654E+00
  0.742273E+00  0.750675E+00  0.755803E+00  0.758124E+00  0.758124E+00  0.755803E+00
  0.750675E+00  0.742273E+00  0.730654E+00  0.716386E+00  0.700005E+00  0.681606E+00
  0.661224E+00  0.639758E+00  0.619366E+00  0.602559E+00  0.590640E+00  0.583011E+00
  0.560514E+00  0.561858E+00  0.563964E+00  0.566423E+00  0.568600E+00  0.569979E+00
  0.570430E+00  0.569979E+00  0.568600E+00  0.566423E+00  0.563964E+00  0.561858E+00
  0.560514E+00  0.560470E+00  0.563063E+00  0.570169E+00  0.582755E+00  0.599719E+00
  0.618521E+00  0.636936E+00  0.654046E+00  0.669691E+00  0.683457E+00  0.694472E+00
  0.702050E+00  0.706227E+00  0.707519E+00  0.706227E+00  0.702050E+00  0.694472E+00
  0.683457E+00  0.669691E+00  0.654046E+00  0.636936E+00  0.618521E+00  0.599719E+00
  0.582755E+00  0.570169E+00  0.563063E+00  0.560470E+00  0.560514E+00  0.542026E+00
  0.549852E+00  0.557648E+00  0.564183E+00  0.568473E+00  0.570430E+00  0.570430E+00
  0.568473E+00  0.564183E+00  0.557648E+00  0.549852E+00  0.542026E+00  0.534954E+00
  0.529349E+00  0.526663E+00  0.528830E+00  0.536835E+00  0.549718E+00  0.565225E+00
  0.581373E+00  0.597177E+00  0.612065E+00  0.625093E+00  0.635089E+00  0.641433E+00
  0.644356E+00  0.644356E+00  0.641433E+00  0.635089E+00  0.625093E+00  0.612065E+00
  0.597177E+00  0.581373E+00  0.565225E+00  0.549718E+00  0.536835E+00  0.528830E+00
  0.526663E+00  0.529349E+00  0.534954E+00  0.542026E+00  0.529505E+00  0.543259E+00
  0.555094E+00  0.563643E+00  0.568473E+00  0.569979E+00  0.568473E+00  0.563643E+00
  0.555094E+00  0.543259E+00  0.529505E+00  0.515378E+00  0.502036E+00  0.490587E+00
  0.482585E+00  0.479674E+00  0.482585E+00  0.490587E+00  0.502036E+00  0.515378E+00
  0.529505E+00  0.543259E+00  0.555094E+00  0.563643E+00  0.568473E+00  0.569979E+00
  0.568473E+00  0.563643E+00  0.555094E+00  0.543259E+00  0.529505E+00  0.515378E+00
  0.502036E+00  0.490587E+00  0.482585E+00  0.479674E+00  0.482585E+00  0.490587E+00
  0.502036E+00  0.515378E+00  0.529505E+00  0.523636E+00  0.541336E+00  0.555094E+00
  0.564183E+00  0.568600E+00  0.568600E+00  0.564183E+00  0.555094E+00  0.541336E+00
  0.523636E+00  0.503461E+00  0.482614E+00  0.462829E+00  0.445675E+00  0.432565E+00
  0.424581E+00  0.422125E+00  0.424778E+00  0.431585E+00  0.441462E+00  0.453165E+00
  0.464936E+00  0.474742E+00  0.481219E+00  0.484233E+00  0.484233E+00  0.481219E+00
  0.474742E+00  0.464936E+00  0.453165E+00  0.441462E+00  0.431585E+00  0.424778E+00
  0.422125E+00  0.424581E+00  0.432565E+00  0.445675E+00  0.462829E+00  0.482614E+00
  0.503461E+00  0.523636E+00  0.523636E+00  0.543259E+00  0.557648E+00  0.566423E+00
  0.569373E+00  0.566423E+00  0.557648E+00  0.543259E+00  0.523636E+00  0.499575E+00
  0.472615E+00  0.444999E+00  0.419092E+00  0.396706E+00  0.378901E+00  0.366183E+00
  0.358688E+00  0.356242E+00  0.358416E+00  0.364464E+00  0.372954E+00  0.381671E+00
  0.388443E+00  0.392282E+00  0.393448E+00  0.392282E+00  0.388443E+00  0.381671E+00
  0.372954E+00  0.364464E+00  0.358416E+00  0.356242E+00  0.358688E+00  0.366183E+00
  0.378901E+00  0.396706E+00  0.419092E+00  0.444999E+00  0.472615E+00  0.499575E+00
  0.523636E+00  0.529505E+00  0.549852E+00  0.563964E+00  0.571254E+00  0.571254E+00
  0.563964E+00  0.549852E+00  0.529505E+00  0.503461E+00  0.472615E+00  0.438824E+00
  0.404853E+00  0.373444E+00  0.346390E+00  0.324419E+00  0.307662E+00  0.296061E+00
  0.289519E+00  0.287831E+00  0.290282E+00  0.295194E+00  0.300233E+00  0.303639E+00
  0.305100E+00  0.305100E+00  0.303639E+00  0.300233E+00  0.295194E+00  0.290282E+00
  0.287831E+00  0.289519E+00  0.296061E+00  0.307662E+00  0.324419E+00  0.346390E+00
  0.373444E+00  0.404853E+00  0.438824E+00  0.472615E+00  0.503461E+00  0.529505E+00
  0.542026E+00  0.561858E+00  0.574204E+00  0.578414E+00  0.574204E+00  0.561858E+00
  0.542026E+00  0.515378E+00  0.482614E+00  0.444999E+00  0.404853E+00  0.365248E+00
  0.328983E+00  0.297772E+00  0.272236E+00  0.252355E+00  0.237906E+00  0.228664E+00
  0.224264E+00  0.223749E+00  0.225346E+00  0.227113E+00  0.228041E+00  0.228259E+00
  0.228041E+00  0.227113E+00  0.225346E+00  0.223749E+00  0.224264E+00  0.228664E+00
  0.237906E+00  0.252355E+00  0.272236E+00  0.297772E+00  0.328983E+00  0.365248E+00
  0.404853E+00  0.444999E+00  0.482614E+00  0.515378E+00  0.542026E+00  0.560514E+00
  0.577993E+00  0.586874E+00  0.586874E+00  0.577993E+00  0.560514E+00  0.534954E+00
  0.502036E+00  0.462829E+00  0.419092E+00  0.373444E+00  0.328983E+00  0.288456E+00
  0.253648E+00  0.225285E+00  0.203313E+00  0.187277E+00  0.176571E+00  0.170405E+00
  0.167611E+00  0.166701E+00  0.166420E+00  0.166259E+00  0.166259E+00  0.166420E+00
  0.166701E+00  0.167611E+00  0.170405E+00  0.176571E+00  0.187277E+00  0.203313E+00
  0.225285E+00  0.253648E+00  0.288456E+00  0.328983E+00  0.373444E+00  0.419092E+00
  0.462829E+00  0.502036E+00  0.534954E+00  0.560514E+00  0.583011E+00  0.596559E+00
  0.601064E+00  0.596559E+00  0.583011E+00  0.560470E+00  0.529349E+00  0.490587E+00
  0.445675E+00  0.396706E+00  0.346390E+00  0.297772E+00  0.253648E+00  0.216009E+00
  0.185748E+00  0.162718E+00  0.146065E+00  0.134650E+00  0.127318E+00  0.122979E+00
  0.120643E+00  0.119534E+00  0.119207E+00  0.119534E+00  0.120643E+00  0.122979E+00
  0.127318E+00  0.134650E+00  0.146065E+00  0.162718E+00  0.185748E+00  0.216009E+00
  0.253648E+00  0.297772E+00  0.346390E+00  0.396706E+00  0.445675E+00  0.490587E+00
  0.529349E+00  0.560470E+00  0.583011E+00  0.608913E+00  0.617943E+00  0.617943E+00
  0.608913E+00  0.590640E+00  0.563063E+00  0.526663E+00  0.482585E+00  0.432565E+00
  0.378901E+00  0.324419E+00  0.272236E+00  0.225285E+00  0.185748E+00  0.154555E+00
  0.131269E+00  0.114535E+00  0.102802E+00  0.948361E-01  0.897868E-01  0.869786E-01
  0.857884E-01  0.857884E-01  0.869786E-01  0.897868E-01  0.948361E-01  0.102802E+00
  0.114535E+00  0.131269E+00  0.154555E+00  0.185748E+00  0.225285E+00  0.272236E+00
  0.324419E+00  0.378901E+00  0.432565E+00  0.482585E+00  0.526663E+00  0.563063E+00
  0.590640E+00  0.608913E+00  0.639113E+00  0.643594E+00  0.639113E+00  0.625527E+00
  0.602559E+00  0.570169E+00  0.528830E+00  0.479674E+00  0.424581E+00  0.366183E+00
  0.307662E+00  0.252355E+00  0.203313E+00  0.162718E+00  0.131269E+00  0.108104E+00
  0.914953E-01  0.797680E-01  0.717654E-01  0.667412E-01  0.640868E-01  0.632778E-01
  0.640868E-01  0.667412E-01  0.717654E-01  0.797680E-01  0.914953E-01  0.108104E+00
  0.131269E+00  0.162718E+00  0.203313E+00  0.252355E+00  0.307662E+00  0.366183E+00
  0.424581E+00  0.479674E+00  0.528830E+00  0.570169E+00  0.602559E+00  0.625527E+00
  0.639113E+00  0.673034E+00  0.673034E+00  0.664254E+00  0.646469E+00  0.619366E+00
  0.582755E+00  0.536835E+00  0.482585E+00  0.422125E+00  0.358688E+00  0.296061E+00
  0.237906E+00  0.187277E+00  0.146065E+00  0.114535E+00  0.914953E-01  0.751196E-01
  0.637526E-01  0.562090E-01  0.516755E-01  0.495751E-01  0.495751E-01  0.516755E-01
  0.562090E-01  0.637526E-01  0.751196E-01  0.914953E-01  0.114535E+00  0.146065E+00
  0.187277E+00  0.237906E+00  0.296061E+00  0.358688E+00  0.422125E+00  0.482585E+00
  0.536835E+00  0.582755E+00  0.619366E+00  0.646469E+00  0.664254E+00  0.673034E+00
  0.707659E+00  0.703554E+00  0.691126E+00  0.670036E+00  0.639758E+00  0.599719E+00
  0.549718E+00  0.490587E+00  0.424778E+00  0.356242E+00  0.289519E+00  0.228664E+00
  0.176571E+00  0.134650E+00  0.102802E+00  0.797680E-01  0.637526E-01  0.530109E-01
  0.461896E-01  0.424063E-01  0.411925E-01  0.424063E-01  0.461896E-01  0.530109E-01
  0.637526E-01  0.797680E-01  0.102802E+00  0.134650E+00  0.176571E+00  0.228664E+00
  0.289519E+00  0.356242E+00  0.424778E+00  0.490587E+00  0.549718E+00  0.599719E+00
  0.639758E+00  0.670036E+00  0.691126E+00  0.703554E+00  0.707659E+00  0.740010E+00
  0.732543E+00  0.717344E+00  0.693853E+00  0.661224E+00  0.618521E+00  0.565225E+00
  0.502036E+00  0.431585E+00  0.358416E+00  0.287831E+00  0.224264E+00  0.170405E+00
  0.127318E+00  0.948361E-01  0.717654E-01  0.562090E-01  0.461896E-01  0.402011E-01
  0.373806E-01  0.373806E-01  0.402011E-01  0.461896E-01  0.562090E-01  0.717654E-01
  0.948361E-01  0.127318E+00  0.170405E+00  0.224264E+00  0.287831E+00  0.358416E+00
  0.431585E+00  0.502036E+00  0.565225E+00  0.618521E+00  0.661224E+00  0.693853E+00
  0.717344E+00  0.732543E+00  0.740010E+00  0.740010E+00  0.768851E+00  0.758769E+00
  0.741444E+00  0.716076E+00  0.681606E+00  0.636936E+00  0.581373E+00  0.515378E+00
  0.441462E+00  0.364464E+00  0.290282E+00  0.223749E+00  0.167611E+00  0.122979E+00
  0.897868E-01  0.667412E-01  0.516755E-01  0.424063E-01  0.373806E-01  0.357853E-01
  0.373806E-01  0.424063E-01  0.516755E-01  0.667412E-01  0.897868E-01  0.122979E+00
  0.167611E+00  0.223749E+00  0.290282E+00  0.364464E+00  0.441462E+00  0.515378E+00
  0.581373E+00  0.636936E+00  0.681606E+00  0.716076E+00  0.741444E+00  0.758769E+00
  0.768851E+00  0.772161E+00  0.768851E+00  0.793862E+00  0.781758E+00  0.762750E+00
  0.735872E+00  0.700005E+00  0.654046E+00  0.597177E+00  0.529505E+00  0.453165E+00
  0.372954E+00  0.295194E+00  0.225346E+00  0.166701E+00  0.120643E+00  0.869786E-01
  0.640868E-01  0.495751E-01  0.411925E-01  0.373806E-01  0.373806E-01  0.411925E-01
  0.495751E-01  0.640868E-01  0.869786E-01  0.120643E+00  0.166701E+00  0.225346E+00
  0.295194E+00  0.372954E+00  0.453165E+00  0.529505E+00  0.597177E+00  0.654046E+00
  0.700005E+00  0.735872E+00  0.762750E+00  0.781758E+00  0.793862E+00  0.799744E+00
  0.799744E+00  0.793862E+00  0.814591E+00  0.801086E+00  0.780953E+00  0.753104E+00
  0.716386E+00  0.669691E+00  0.612065E+00  0.543259E+00  0.464936E+00  0.381671E+00
  0.300233E+00  0.227113E+00  0.166420E+00  0.119534E+00  0.857884E-01  0.632778E-01
  0.495751E-01  0.424063E-01  0.402011E-01  0.424063E-01  0.495751E-01  0.632778E-01
  0.857884E-01  0.119534E+00  0.166420E+00  0.227113E+00  0.300233E+00  0.381671E+00
  0.464936E+00  0.543259E+00  0.612065E+00  0.669691E+00  0.716386E+00  0.753104E+00
  0.780953E+00  0.801086E+00  0.814591E+00  0.822339E+00  0.824863E+00  0.822339E+00
  0.814591E+00  0.830641E+00  0.816460E+00  0.795912E+00  0.767738E+00  0.730654E+00
  0.683457E+00  0.625093E+00  0.555094E+00  0.474742E+00  0.388443E+00  0.303639E+00
  0.228041E+00  0.166259E+00  0.119207E+00  0.857884E-01  0.640868E-01  0.516755E-01
  0.461896E-01  0.461896E-01  0.516755E-01  0.640868E-01  0.857884E-01  0.119207E+00
  0.166259E+00  0.228041E+00  0.303639E+00  0.388443E+00  0.474742E+00  0.555094E+00
  0.625093E+00  0.683457E+00  0.730654E+00  0.767738E+00  0.795912E+00  0.816460E+00
  0.830641E+00  0.839508E+00  0.843770E+00  0.843770E+00  0.839508E+00  0.830641E+00
  0.842175E+00  0.827966E+00  0.807585E+00  0.779529E+00  0.742273E+00  0.694472E+00
  0.635089E+00  0.563643E+00  0.481219E+00  0.392282E+00  0.305100E+00  0.228259E+00
  0.166259E+00  0.119534E+00  0.869786E-01  0.667412E-01  0.562090E-01  0.530109E-01
  0.562090E-01  0.667412E-01  0.869786E-01  0.119534E+00  0.166259E+00  0.228259E+00
  0.305100E+00  0.392282E+00  0.481219E+00  0.563643E+00  0.635089E+00  0.694472E+00
  0.742273E+00  0.779529E+00  0.807585E+00  0.827966E+00  0.842175E+00  0.851470E+00
  0.856728E+00  0.858431E+00  0.856728E+00  0.851470E+00  0.842175E+00  0.849857E+00
  0.836001E+00  0.816039E+00  0.788194E+00  0.750675E+00  0.702050E+00  0.641433E+00
  0.568473E+00  0.484233E+00  0.393448E+00  0.305100E+00  0.228041E+00  0.166420E+00
  0.120643E+00  0.897868E-01  0.717654E-01  0.637526E-01  0.637526E-01  0.717654E-01
  0.897868E-01  0.120643E+00  0.166420E+00  0.228041E+00  0.305100E+00  0.393448E+00
  0.484233E+00  0.568473E+00  0.641433E+00  0.702050E+00  0.750675E+00  0.788194E+00
  0.816039E+00  0.836001E+00  0.849857E+00  0.859078E+00  0.864712E+00  0.867388E+00
  0.867388E+00  0.864712E+00  0.859078E+00  0.849857E+00  0.854517E+00  0.841125E+00
  0.821545E+00  0.793768E+00  0.755803E+00  0.706227E+00  0.644356E+00  0.569979E+00
  0.484233E+00  0.392282E+00  0.303639E+00  0.227113E+00  0.166701E+00  0.122979E+00
  0.948361E-01  0.797680E-01  0.751196E-01  0.797680E-01  0.948361E-01  0.122979E+00
  0.166701E+00  0.227113E+00  0.303639E+00  0.392282E+00  0.484233E+00  0.569979E+00
  0.644356E+00  0.706227E+00  0.755803E+00  0.793768E+00  0.821545E+00  0.841125E+00
  0.854517E+00  0.863373E+00  0.868905E+00  0.871918E+00  0.872873E+00  0.871918E+00
  0.868905E+00  0.863373E+00  0.854517E+00  0.856974E+00  0.843999E+00  0.824632E+00
  0.796707E+00  0.758124E+00  0.707519E+00  0.644356E+00  0.568473E+00  0.481219E+00
  0.388443E+00  0.300233E+00  0.225346E+00  0.167611E+00  0.127318E+00  0.102802E+00
  0.914953E-01  0.914953E-01  0.102802E+00  0.127318E+00  0.167611E+00  0.225346E+00
  0.300233E+00  0.388443E+00  0.481219E+00  0.568473E+00  0.644356E+00  0.707519E+00
  0.758124E+00  0.796707E+00  0.824632E+00  0.843999E+00  0.856974E+00  0.865327E+00
  0.870384E+00  0.873142E+00  0.874324E+00  0.874324E+00  0.873142E+00  0.870384E+00
  0.865327E+00  0.856974E+00  0.858014E+00  0.845328E+00  0.825947E+00  0.797597E+00
  0.758124E+00  0.706227E+00  0.641433E+00  0.563643E+00  0.474742E+00  0.381671E+00
  0.295194E+00  0.223749E+00  0.170405E+00  0.134650E+00  0.114535E+00  0.108104E+00
  0.114535E+00  0.134650E+00  0.170405E+00  0.223749E+00  0.295194E+00  0.381671E+00
  0.474742E+00  0.563643E+00  0.641433E+00  0.706227E+00  0.758124E+00  0.797597E+00
  0.825947E+00  0.845328E+00  0.858014E+00  0.865837E+00  0.870166E+00  0.872146E+00
  0.872810E+00  0.872933E+00  0.872810E+00  0.872146E+00  0.870166E+00  0.865837E+00
  0.858014E+00  0.858323E+00  0.845694E+00  0.825947E+00  0.796707E+00  0.755803E+00
  0.702050E+00  0.635089E+00  0.555094E+00  0.464936E+00  0.372954E+00  0.290282E+00
  0.224264E+00  0.176571E+00  0.146065E+00  0.131269E+00  0.131269E+00  0.146065E+00
  0.176571E+00  0.224264E+00  0.290282E+00  0.372954E+00  0.464936E+00  0.555094E+00
  0.635089E+00  0.702050E+00  0.755803E+00  0.796707E+00  0.825947E+00  0.845694E+00
  0.858323E+00  0.865726E+00  0.869270E+00  0.870177E+00  0.869747E+00  0.869175E+00
  0.869175E+00  0.869747E+00  0.870177E+00  0.869270E+00  0.865726E+00  0.858323E+00
  0.858323E+00  0.845328E+00  0.824632E+00  0.793768E+00  0.750675E+00  0.694472E+00
  0.625093E+00  0.543259E+00  0.453165E+00  0.364464E+00  0.287831E+00  0.228664E+00
  0.187277E+00  0.162718E+00  0.154555E+00  0.162718E+00  0.187277E+00  0.228664E+00
  0.287831E+00  0.364464E+00  0.453165E+00  0.543259E+00  0.625093E+00  0.694472E+00
  0.750675E+00  0.793768E+00  0.824632E+00  0.845328E+00  0.858323E+00  0.865612E+00
  0.868573E+00  0.868461E+00  0.866788E+00  0.865091E+00  0.864412E+00  0.865091E+00
  0.866788E+00  0.868461E+00  0.868573E+00  0.865612E+00  0.858323E+00  0.858014E+00
  0.843999E+00  0.821545E+00  0.788194E+00  0.742273E+00  0.683457E+00  0.612065E+00
  0.529505E+00  0.441462E+00  0.358416E+00  0.289519E+00  0.237906E+00  0.203313E+00
  0.185748E+00  0.185748E+00  0.203313E+00  0.237906E+00  0.289519E+00  0.358416E+00
  0.441462E+00  0.529505E+00  0.612065E+00  0.683457E+00  0.742273E+00  0.788194E+00
  0.821545E+00  0.843999E+00  0.858014E+00  0.865726E+00  0.868573E+00  0.867806E+00
  0.865110E+00  0.862387E+00  0.860868E+00  0.860868E+00  0.862387E+00  0.865110E+00
  0.867806E+00  0.868573E+00  0.865726E+00  0.858014E+00  0.856974E+00  0.841125E+00
  0.816039E+00  0.779529E+00  0.730654E+00  0.669691E+00  0.597177E+00  0.515378E+00
  0.431585E+00  0.356242E+00  0.296061E+00  0.252355E+00  0.225285E+00  0.216009E+00
  0.225285E+00  0.252355E+00  0.296061E+00  0.356242E+00  0.431585E+00  0.515378E+00
  0.597177E+00  0.669691E+00  0.730654E+00  0.779529E+00  0.816039E+00  0.841125E+00
  0.856974E+00  0.865837E+00  0.869270E+00  0.868461E+00  0.865110E+00  0.861526E+00
  0.859381E+00  0.858780E+00  0.859381E+00  0.861526E+00  0.865110E+00  0.868461E+00
  0.869270E+00  0.865837E+00  0.856974E+00  0.854517E+00  0.836001E+00  0.807585E+00
  0.767738E+00  0.716386E+00  0.654046E+00  0.581373E+00  0.502036E+00  0.424778E+00
  0.358688E+00  0.307662E+00  0.272236E+00  0.253648E+00  0.253648E+00  0.272236E+00
  0.307662E+00  0.358688E+00  0.424778E+00  0.502036E+00  0.581373E+00  0.654046E+00
  0.716386E+00  0.767738E+00  0.807585E+00  0.836001E+00  0.854517E+00  0.865327E+00
  0.870166E+00  0.870177E+00  0.866788E+00  0.862387E+00  0.859381E+00  0.858340E+00
  0.858340E+00  0.859381E+00  0.862387E+00  0.866788E+00  0.870177E+00  0.870166E+00
  0.865327E+00  0.854517E+00  0.849857E+00  0.827966E+00  0.795912E+00  0.753104E+00
  0.700005E+00  0.636936E+00  0.565225E+00  0.490587E+00  0.422125E+00  0.366183E+00
  0.324419E+00  0.297772E+00  0.288456E+00  0.297772E+00  0.324419E+00  0.366183E+00
  0.422125E+00  0.490587E+00  0.565225E+00  0.636936E+00  0.700005E+00  0.753104E+00
  0.795912E+00  0.827966E+00  0.849857E+00  0.863373E+00  0.870384E+00  0.872146E+00
  0.869747E+00  0.865091E+00  0.860868E+00  0.858780E+00  0.858340E+00  0.858780E+00
  0.860868E+00  0.865091E+00  0.869747E+00  0.872146E+00  0.870384E+00  0.863373E+00
  0.849857E+00  0.842175E+00  0.816460E+00  0.780953E+00  0.735872E+00  0.681606E+00
  0.618521E+00  0.549718E+00  0.482585E+00  0.424581E+00  0.378901E+00  0.346390E+00
  0.328983E+00  0.328983E+00  0.346390E+00  0.378901E+00  0.424581E+00  0.482585E+00
  0.549718E+00  0.618521E+00  0.681606E+00  0.735872E+00  0.780953E+00  0.816460E+00
  0.842175E+00  0.859078E+00  0.868905E+00  0.873142E+00  0.872810E+00  0.869175E+00
  0.864412E+00  0.860868E+00  0.859381E+00  0.859381E+00  0.860868E+00  0.864412E+00
  0.869175E+00  0.872810E+00  0.873142E+00  0.868905E+00  0.859078E+00  0.842175E+00
  0.830641E+00  0.801086E+00  0.762750E+00  0.716076E+00  0.661224E+00  0.599719E+00
  0.536835E+00  0.479674E+00  0.432565E+00  0.396706E+00  0.373444E+00  0.365248E+00
  0.373444E+00  0.396706E+00  0.432565E+00  0.479674E+00  0.536835E+00  0.599719E+00
  0.661224E+00  0.716076E+00  0.762750E+00  0.801086E+00  0.830641E+00  0.851470E+00
  0.864712E+00  0.871918E+00  0.874324E+00  0.872933E+00  0.869175E+00  0.865091E+00
  0.862387E+00  0.861526E+00  0.862387E+00  0.865091E+00  0.869175E+00  0.872933E+00
  0.874324E+00  0.871918E+00  0.864712E+00  0.851470E+00  0.830641E+00  0.814591E+00
  0.781758E+00  0.741444E+00  0.693853E+00  0.639758E+00  0.582755E+00  0.528830E+00
  0.482585E+00  0.445675E+00  0.419092E+00  0.404853E+00  0.404853E+00  0.419092E+00
  0.445675E+00  0.482585E+00  0.528830E+00  0.582755E+00  0.639758E+00  0.693853E+00
  0.741444E+00  0.781758E+00  0.814591E+00  0.839508E+00  0.856728E+00  0.867388E+00
  0.872873E+00  0.874324E+00  0.872810E+00  0.869747E+00  0.866788E+00  0.865110E+00
  0.865110E+00  0.866788E+00  0.869747E+00  0.872810E+00  0.874324E+00  0.872873E+00
  0.867388E+00  0.856728E+00  0.839508E+00  0.814591E+00  0.793862E+00  0.758769E+00
  0.717344E+00  0.670036E+00  0.619366E+00  0.570169E+00  0.526663E+00  0.490587E+00
  0.462829E+00  0.444999E+00  0.438824E+00  0.444999E+00  0.462829E+00  0.490587E+00
  0.526663E+00  0.570169E+00  0.619366E+00  0.670036E+00  0.717344E+00  0.758769E+00
  0.793862E+00  0.822339E+00  0.843770E+00  0.858431E+00  0.867388E+00  0.871918E+00
  0.873142E+00  0.872146E+00  0.870177E+00  0.868461E+00  0.867806E+00  0.868461E+00
  0.870177E+00  0.872146E+00  0.873142E+00  0.871918E+00  0.867388E+00  0.858431E+00
  0.843770E+00  0.822339E+00  0.793862E+00  0.768851E+00  0.732543E+00  0.691126E+00
  0.646469E+00  0.602559E+00  0.563063E+00  0.529349E+00  0.502036E+00  0.482614E+00
  0.472615E+00  0.472615E+00  0.482614E+00  0.502036E+00  0.529349E+00  0.563063E+00
  0.602559E+00  0.646469E+00  0.691126E+00  0.732543E+00  0.768851E+00  0.799744E+00
  0.824863E+00  0.843770E+00  0.856728E+00  0.864712E+00  0.868905E+00  0.870384E+00
  0.870166E+00  0.869270E+00  0.868573E+00  0.868573E+00  0.869270E+00  0.870166E+00
  0.870384E+00  0.868905E+00  0.864712E+00  0.856728E+00  0.843770E+00  0.824863E+00
  0.799744E+00  0.768851E+00  0.740010E+00  0.703554E+00  0.664254E+00  0.625527E+00
  0.590640E+00  0.560470E+00  0.534954E+00  0.515378E+00  0.503461E+00  0.499575E+00
  0.503461E+00  0.515378E+00  0.534954E+00  0.560470E+00  0.590640E+00  0.625527E+00
  0.664254E+00  0.703554E+00  0.740010E+00  0.772161E+00  0.799744E+00  0.822339E+00
  0.839508E+00  0.851470E+00  0.859078E+00  0.863373E+00  0.865327E+00  0.865837E+00
  0.865726E+00  0.865612E+00  0.865726E+00  0.865837E+00  0.865327E+00  0.863373E+00
  0.859078E+00  0.851470E+00  0.839508E+00  0.822339E+00  0.799744E+00  0.772161E+00
  0.740010E+00  0.707659E+00  0.673034E+00  0.639113E+00  0.608913E+00  0.583011E+00
  0.560514E+00  0.542026E+00  0.529505E+00  0.523636E+00  0.523636E+00  0.529505E+00
  0.542026E+00  0.560514E+00  0.583011E+00  0.608913E+00  0.639113E+00  0.673034E+00
  0.707659E+00  0.740010E+00  0.768851E+00  0.793862E+00  0.814591E+00  0.830641E+00
  0.842175E+00  0.849857E+00  0.854517E+00  0.856974E+00  0.858014E+00  0.858323E+00
  0.858323E+00  0.858014E+00  0.856974E+00  0.854517E+00  0.849857E+00  0.842175E+00
  0.830641E+00  0.814591E+00  0.793862E+00  0.768851E+00  0.740010E+00  0.707659E+00
  0.743123E+00  0.717638E+00  0.693413E+00  0.671757E+00  0.652157E+00  0.634458E+00
  0.620460E+00  0.612065E+00  0.609407E+00  0.612065E+00  0.620460E+00  0.634458E+00
  0.652157E+00  0.671757E+00  0.693413E+00  0.717638E+00  0.743123E+00  0.767678E+00
  0.790112E+00  0.809983E+00  0.826500E+00  0.838692E+00  0.846287E+00  0.849857E+00
  0.850325E+00  0.848647E+00  0.845901E+00  0.843404E+00  0.842395E+00  0.843404E+00
  0.845901E+00  0.848647E+00  0.850325E+00  0.849857E+00  0.846287E+00  0.838692E+00
  0.826500E+00  0.809983E+00  0.790112E+00  0.767678E+00  0.743123E+00  0.717638E+00
  0.697670E+00  0.680319E+00  0.664777E+00  0.650093E+00  0.637412E+00  0.628900E+00
  0.625093E+00  0.625093E+00  0.628900E+00  0.637412E+00  0.650093E+00  0.664777E+00
  0.680319E+00  0.697670E+00  0.717638E+00  0.739124E+00  0.760302E+00  0.780106E+00
  0.797923E+00  0.812902E+00  0.824240E+00  0.831783E+00  0.836001E+00  0.837603E+00
  0.837372E+00  0.836261E+00  0.835329E+00  0.835329E+00  0.836261E+00  0.837372E+00
  0.837603E+00  0.836001E+00  0.831783E+00  0.824240E+00  0.812902E+00  0.797923E+00
  0.780106E+00  0.760302E+00  0.739124E+00  0.717638E+00  0.693413E+00  0.680319E+00
  0.668999E+00  0.658070E+00  0.647830E+00  0.640172E+00  0.636177E+00  0.635089E+00
  0.636177E+00  0.640172E+00  0.647830E+00  0.658070E+00  0.668999E+00  0.680319E+00
  0.693413E+00  0.709199E+00  0.726956E+00  0.745250E+00  0.762906E+00  0.778972E+00
  0.792597E+00  0.803281E+00  0.811007E+00  0.816039E+00  0.818748E+00  0.819690E+00
  0.819684E+00  0.819562E+00  0.819684E+00  0.819690E+00  0.818748E+00  0.816039E+00
  0.811007E+00  0.803281E+00  0.792597E+00  0.778972E+00  0.762906E+00  0.745250E+00
  0.726956E+00  0.709199E+00  0.693413E+00  0.671757E+00  0.664777E+00  0.658070E+00
  0.651364E+00  0.645828E+00  0.642597E+00  0.641433E+00  0.641433E+00  0.642597E+00
  0.645828E+00  0.651364E+00  0.658070E+00  0.664777E+00  0.671757E+00  0.680442E+00
  0.691944E+00  0.706145E+00  0.721908E+00  0.737684E+00  0.752108E+00  0.764434E+00
  0.774528E+00  0.782459E+00  0.788194E+00  0.791738E+00  0.793441E+00  0.794000E+00
  0.794000E+00  0.793441E+00  0.791738E+00  0.788194E+00  0.782459E+00  0.774528E+00
  0.764434E+00  0.752108E+00  0.737684E+00  0.721908E+00  0.706145E+00  0.691944E+00
  0.680442E+00  0.671757E+00  0.652157E+00  0.650093E+00  0.647830E+00  0.645828E+00
  0.644672E+00  0.644356E+00  0.644355E+00  0.644356E+00  0.644672E+00  0.645828E+00
  0.647830E+00  0.650093E+00  0.652157E+00  0.654443E+00  0.658326E+00  0.665346E+00
  0.676045E+00  0.689370E+00  0.703281E+00  0.716074E+00  0.727158E+00  0.736668E+00
  0.744625E+00  0.750675E+00  0.754539E+00  0.756457E+00  0.756997E+00  0.756457E+00
  0.754539E+00  0.750675E+00  0.744625E+00  0.736668E+00  0.727158E+00  0.716074E+00
  0.703281E+00  0.689370E+00  0.676045E+00  0.665346E+00  0.658326E+00  0.654443E+00
  0.652157E+00  0.634458E+00  0.637412E+00  0.640172E+00  0.642597E+00  0.644356E+00
  0.645249E+00  0.645249E+00  0.644356E+00  0.642597E+00  0.640172E+00  0.637412E+00
  0.634458E+00  0.631253E+00  0.628195E+00  0.626776E+00  0.629060E+00  0.636052E+00
  0.646636E+00  0.658420E+00  0.669545E+00  0.679514E+00  0.688468E+00  0.696193E+00
  0.702050E+00  0.705657E+00  0.707249E+00  0.707249E+00  0.705657E+00  0.702050E+00
  0.696193E+00  0.688468E+00  0.679514E+00  0.669545E+00  0.658420E+00  0.646636E+00
  0.636052E+00  0.629060E+00  0.626776E+00  0.628195E+00  0.631253E+00  0.634458E+00
  0.620460E+00  0.628900E+00  0.636177E+00  0.641433E+00  0.644355E+00  0.645249E+00
  0.644355E+00  0.641433E+00  0.636177E+00  0.628900E+00  0.620460E+00  0.611501E+00
  0.602198E+00  0.593101E+00  0.585990E+00  0.583241E+00  0.585990E+00  0.593101E+00
  0.602198E+00  0.611501E+00  0.620460E+00  0.628900E+00  0.636177E+00  0.641433E+00
  0.644355E+00  0.645249E+00  0.644355E+00  0.641433E+00  0.636177E+00  0.628900E+00
  0.620460E+00  0.611501E+00  0.602198E+00  0.593101E+00  0.585990E+00  0.583241E+00
  0.585990E+00  0.593101E+00  0.602198E+00  0.611501E+00  0.620460E+00  0.612065E+00
  0.625093E+00  0.635089E+00  0.641433E+00  0.644356E+00  0.644356E+00  0.641433E+00
  0.635089E+00  0.625093E+00  0.612065E+00  0.597177E+00  0.581373E+00  0.565225E+00
  0.549718E+00  0.536835E+00  0.528830E+00  0.526663E+00  0.529349E+00  0.534954E+00
  0.542026E+00  0.549852E+00  0.557648E+00  0.564183E+00  0.568473E+00  0.570430E+00
  0.570430E+00  0.568473E+00  0.564183E+00  0.557648E+00  0.549852E+00  0.542026E+00
  0.534954E+00  0.529349E+00  0.526663E+00  0.528830E+00  0.536835E+00  0.549718E+00
  0.565225E+00  0.581373E+00  0.597177E+00  0.612065E+00  0.609407E+00  0.625093E+00
  0.636177E+00  0.642597E+00  0.644672E+00  0.642597E+00  0.636177E+00  0.625093E+00
  0.609407E+00  0.589867E+00  0.567736E+00  0.544365E+00  0.521037E+00  0.499257E+00
  0.480923E+00  0.467733E+00  0.460270E+00  0.457827E+00  0.459218E+00  0.463503E+00
  0.469715E+00  0.476271E+00  0.481393E+00  0.484233E+00  0.485071E+00  0.484233E+00
  0.481393E+00  0.476271E+00  0.469715E+00  0.463503E+00  0.459218E+00  0.457827E+00
  0.460270E+00  0.467733E+00  0.480923E+00  0.499257E+00  0.521037E+00  0.544365E+00
  0.567736E+00  0.589867E+00  0.609407E+00  0.612065E+00  0.628900E+00  0.640172E+00
  0.645828E+00  0.645828E+00  0.640172E+00  0.628900E+00  0.612065E+00  0.589867E+00
  0.563000E+00  0.532914E+00  0.501643E+00  0.471310E+00  0.443801E+00  0.420642E+00
  0.402757E+00  0.390274E+00  0.382801E+00  0.379937E+00  0.381155E+00  0.385068E+00
  0.389399E+00  0.392291E+00  0.393448E+00  0.393448E+00  0.392291E+00  0.389399E+00
  0.385068E+00  0.381155E+00  0.379937E+00  0.382801E+00  0.390274E+00  0.402757E+00
  0.420642E+00  0.443801E+00  0.471310E+00  0.501643E+00  0.532914E+00  0.563000E+00
  0.589867E+00  0.612065E+00  0.620460E+00  0.637412E+00  0.647830E+00  0.651364E+00
  0.647830E+00  0.637412E+00  0.620460E+00  0.597177E+00  0.567736E+00  0.532914E+00
  0.494630E+00  0.455695E+00  0.418915E+00  0.386346E+00  0.359064E+00  0.337287E+00
  0.320781E+00  0.309412E+00  0.303224E+00  0.301652E+00  0.302838E+00  0.304381E+00
  0.305030E+00  0.305100E+00  0.305030E+00  0.304381E+00  0.302838E+00  0.301652E+00
  0.303224E+00  0.309412E+00  0.320781E+00  0.337287E+00  0.359064E+00  0.386346E+00
  0.418915E+00  0.455695E+00  0.494630E+00  0.532914E+00  0.567736E+00  0.597177E+00
  0.620460E+00  0.634458E+00  0.650093E+00  0.658070E+00  0.658070E+00  0.650093E+00
  0.634458E+00  0.611501E+00  0.581373E+00  0.544365E+00  0.501643E+00  0.455695E+00
  0.409896E+00  0.367440E+00  0.330442E+00  0.299688E+00  0.274993E+00  0.255937E+00
  0.242401E+00  0.234262E+00  0.230540E+00  0.229252E+00  0.228580E+00  0.228041E+00
  0.228041E+00  0.228580E+00  0.229252E+00  0.230540E+00  0.234262E+00  0.242401E+00
  0.255937E+00  0.274993E+00  0.299688E+00  0.330442E+00  0.367440E+00  0.409896E+00
  0.455695E+00  0.501643E+00  0.544365E+00  0.581373E+00  0.611501E+00  0.634458E+00
  0.652157E+00  0.664777E+00  0.668999E+00  0.664777E+00  0.652157E+00  0.631253E+00
  0.602198E+00  0.565225E+00  0.521037E+00  0.471310E+00  0.418915E+00  0.367440E+00
  0.320222E+00  0.279474E+00  0.245980E+00  0.219479E+00  0.199384E+00  0.185174E+00
  0.176133E+00  0.170962E+00  0.168074E+00  0.166420E+00  0.165832E+00  0.166420E+00
  0.168074E+00  0.170962E+00  0.176133E+00  0.185174E+00  0.199384E+00  0.219479E+00
  0.245980E+00  0.279474E+00  0.320222E+00  0.367440E+00  0.418915E+00  0.471310E+00
  0.521037E+00  0.565225E+00  0.602198E+00  0.631253E+00  0.652157E+00  0.671757E+00
  0.680319E+00  0.680319E+00  0.671757E+00  0.654443E+00  0.628195E+00  0.593101E+00
  0.549718E+00  0.499257E+00  0.443801E+00  0.386346E+00  0.330442E+00  0.279474E+00
  0.235866E+00  0.200622E+00  0.173474E+00  0.153454E+00  0.139386E+00  0.130025E+00
  0.124123E+00  0.120643E+00  0.118992E+00  0.118992E+00  0.120643E+00  0.124123E+00
  0.130025E+00  0.139386E+00  0.153454E+00  0.173474E+00  0.200622E+00  0.235866E+00
  0.279474E+00  0.330442E+00  0.386346E+00  0.443801E+00  0.499257E+00  0.549718E+00
  0.593101E+00  0.628195E+00  0.654443E+00  0.671757E+00  0.693413E+00  0.697670E+00
  0.693413E+00  0.680442E+00  0.658326E+00  0.626776E+00  0.585990E+00  0.536835E+00
  0.480923E+00  0.420642E+00  0.359064E+00  0.299688E+00  0.245980E+00  0.200622E+00
  0.164763E+00  0.137906E+00  0.118539E+00  0.104952E+00  0.957126E-01  0.897868E-01
  0.864908E-01  0.854345E-01  0.864908E-01  0.897868E-01  0.957126E-01  0.104952E+00
  0.118539E+00  0.137906E+00  0.164763E+00  0.200622E+00  0.245980E+00  0.299688E+00
  0.359064E+00  0.420642E+00  0.480923E+00  0.536835E+00  0.585990E+00  0.626776E+00
  0.658326E+00  0.680442E+00  0.693413E+00  0.717638E+00  0.717638E+00  0.709199E+00
  0.691944E+00  0.665346E+00  0.629060E+00  0.583241E+00  0.528830E+00  0.467733E+00
  0.402757E+00  0.337287E+00  0.274993E+00  0.219479E+00  0.173474E+00  0.137906E+00
  0.111834E+00  0.933217E-01  0.804409E-01  0.717654E-01  0.663992E-01  0.638341E-01
  0.638341E-01  0.663992E-01  0.717654E-01  0.804409E-01  0.933217E-01  0.111834E+00
  0.137906E+00  0.173474E+00  0.219479E+00  0.274993E+00  0.337287E+00  0.402757E+00
  0.467733E+00  0.528830E+00  0.583241E+00  0.629060E+00  0.665346E+00  0.691944E+00
  0.709199E+00  0.717638E+00  0.743123E+00  0.739124E+00  0.726956E+00  0.706145E+00
  0.676045E+00  0.636052E+00  0.585990E+00  0.526663E+00  0.460270E+00  0.390274E+00
  0.320781E+00  0.255937E+00  0.199384E+00  0.153454E+00  0.118539E+00  0.933217E-01
  0.757171E-01  0.637526E-01  0.559970E-01  0.516051E-01  0.501780E-01  0.516051E-01
  0.559970E-01  0.637526E-01  0.757171E-01  0.933217E-01  0.118539E+00  0.153454E+00
  0.199384E+00  0.255937E+00  0.320781E+00  0.390274E+00  0.460270E+00  0.526663E+00
  0.585990E+00  0.636052E+00  0.676045E+00  0.706145E+00  0.726956E+00  0.739124E+00
  0.743123E+00  0.767678E+00  0.760302E+00  0.745250E+00  0.721908E+00  0.689370E+00
  0.646636E+00  0.593101E+00  0.529349E+00  0.457827E+00  0.382801E+00  0.309412E+00
  0.242401E+00  0.185174E+00  0.139386E+00  0.104952E+00  0.804409E-01  0.637526E-01
  0.528488E-01  0.462436E-01  0.431068E-01  0.431068E-01  0.462436E-01  0.528488E-01
  0.637526E-01  0.804409E-01  0.104952E+00  0.139386E+00  0.185174E+00  0.242401E+00
  0.309412E+00  0.382801E+00  0.457827E+00  0.529349E+00  0.593101E+00  0.646636E+00
  0.689370E+00  0.721908E+00  0.745250E+00  0.760302E+00  0.767678E+00  0.767678E+00
  0.790112E+00  0.780106E+00  0.762906E+00  0.737684E+00  0.703281E+00  0.658420E+00
  0.602198E+00  0.534954E+00  0.459218E+00  0.379937E+00  0.303224E+00  0.234262E+00
  0.176133E+00  0.130025E+00  0.957126E-01  0.717654E-01  0.559970E-01  0.462436E-01
  0.409461E-01  0.392650E-01  0.409461E-01  0.462436E-01  0.559970E-01  0.717654E-01
  0.957126E-01  0.130025E+00  0.176133E+00  0.234262E+00  0.303224E+00  0.379937E+00
  0.459218E+00  0.534954E+00  0.602198E+00  0.658420E+00  0.703281E+00  0.737684E+00
  0.762906E+00  0.780106E+00  0.790112E+00  0.793397E+00  0.790112E+00  0.809983E+00
  0.797923E+00  0.778972E+00  0.752108E+00  0.716074E+00  0.669545E+00  0.611501E+00
  0.542026E+00  0.463503E+00  0.381155E+00  0.301652E+00  0.230540E+00  0.170962E+00
  0.124123E+00  0.897868E-01  0.663992E-01  0.516051E-01  0.431068E-01  0.392650E-01
  0.392650E-01  0.431068E-01  0.516051E-01  0.663992E-01  0.897868E-01  0.124123E+00
  0.170962E+00  0.230540E+00  0.301652E+00  0.381155E+00  0.463503E+00  0.542026E+00
  0.611501E+00  0.669545E+00  0.716074E+00  0.752108E+00  0.778972E+00  0.797923E+00
  0.809983E+00  0.815843E+00  0.815843E+00  0.809983E+00  0.826500E+00  0.812902E+00
  0.792597E+00  0.764434E+00  0.727158E+00  0.679514E+00  0.620460E+00  0.549852E+00
  0.469715E+00  0.385068E+00  0.302838E+00  0.229252E+00  0.168074E+00  0.120643E+00
  0.864908E-01  0.638341E-01  0.501780E-01  0.431068E-01  0.409461E-01  0.431068E-01
  0.501780E-01  0.638341E-01  0.864908E-01  0.120643E+00  0.168074E+00  0.229252E+00
  0.302838E+00  0.385068E+00  0.469715E+00  0.549852E+00  0.620460E+00  0.679514E+00
  0.727158E+00  0.764434E+00  0.792597E+00  0.812902E+00  0.826500E+00  0.834291E+00
  0.836827E+00  0.834291E+00  0.826500E+00  0.838692E+00  0.824240E+00  0.803281E+00
  0.774528E+00  0.736668E+00  0.688468E+00  0.628900E+00  0.557648E+00  0.476271E+00
  0.389399E+00  0.304381E+00  0.228580E+00  0.166420E+00  0.118992E+00  0.854345E-01
  0.638341E-01  0.516051E-01  0.462436E-01  0.462436E-01  0.516051E-01  0.638341E-01
  0.854345E-01  0.118992E+00  0.166420E+00  0.228580E+00  0.304381E+00  0.389399E+00
  0.476271E+00  0.557648E+00  0.628900E+00  0.688468E+00  0.736668E+00  0.774528E+00
  0.803281E+00  0.824240E+00  0.838692E+00  0.847717E+00  0.852050E+00  0.852050E+00
  0.847717E+00  0.838692E+00  0.846287E+00  0.831783E+00  0.811007E+00  0.782459E+00
  0.744625E+00  0.696193E+00  0.636177E+00  0.564183E+00  0.481393E+00  0.392291E+00
  0.305030E+00  0.228041E+00  0.165832E+00  0.118992E+00  0.864908E-01  0.663992E-01
  0.559970E-01  0.528488E-01  0.559970E-01  0.663992E-01  0.864908E-01  0.118992E+00
  0.165832E+00  0.228041E+00  0.305030E+00  0.392291E+00  0.481393E+00  0.564183E+00
  0.636177E+00  0.696193E+00  0.744625E+00  0.782459E+00  0.811007E+00  0.831783E+00
  0.846287E+00  0.855783E+00  0.861154E+00  0.862894E+00  0.861154E+00  0.855783E+00
  0.846287E+00  0.849857E+00  0.836001E+00  0.816039E+00  0.788194E+00  0.750675E+00
  0.702050E+00  0.641433E+00  0.568473E+00  0.484233E+00  0.393448E+00  0.305100E+00
  0.228041E+00  0.166420E+00  0.120643E+00  0.897868E-01  0.717654E-01  0.637526E-01
  0.637526E-01  0.717654E-01  0.897868E-01  0.120643E+00  0.166420E+00  0.228041E+00
  0.305100E+00  0.393448E+00  0.484233E+00  0.568473E+00  0.641433E+00  0.702050E+00
  0.750675E+00  0.788194E+00  0.816039E+00  0.836001E+00  0.849857E+00  0.859078E+00
  0.864712E+00  0.867388E+00  0.867388E+00  0.864712E+00  0.859078E+00  0.849857E+00
  0.850325E+00  0.837603E+00  0.818748E+00  0.791738E+00  0.754539E+00  0.705657E+00
  0.644355E+00  0.570430E+00  0.485071E+00  0.393448E+00  0.305030E+00  0.228580E+00
  0.168074E+00  0.124123E+00  0.957126E-01  0.804409E-01  0.757171E-01  0.804409E-01
  0.957126E-01  0.124123E+00  0.168074E+00  0.228580E+00  0.305030E+00  0.393448E+00
  0.485071E+00  0.570430E+00  0.644355E+00  0.705657E+00  0.754539E+00  0.791738E+00
  0.818748E+00  0.837603E+00  0.850325E+00  0.858585E+00  0.863628E+00  0.866314E+00
  0.867154E+00  0.866314E+00  0.863628E+00  0.858585E+00  0.850325E+00  0.848647E+00
  0.837372E+00  0.819690E+00  0.793441E+00  0.756457E+00  0.707249E+00  0.645249E+00
  0.570430E+00  0.484233E+00  0.392291E+00  0.304381E+00  0.229252E+00  0.170962E+00
  0.130025E+00  0.104952E+00  0.933217E-01  0.933217E-01  0.104952E+00  0.130025E+00
  0.170962E+00  0.229252E+00  0.304381E+00  0.392291E+00  0.484233E+00  0.570430E+00
  0.645249E+00  0.707249E+00  0.756457E+00  0.793441E+00  0.819690E+00  0.837372E+00
  0.848647E+00  0.855284E+00  0.858699E+00  0.860108E+00  0.860515E+00  0.860515E+00
  0.860108E+00  0.858699E+00  0.855284E+00  0.848647E+00  0.845901E+00  0.836261E+00
  0.819684E+00  0.794000E+00  0.756997E+00  0.707249E+00  0.644355E+00  0.568473E+00
  0.481393E+00  0.389399E+00  0.302838E+00  0.230540E+00  0.176133E+00  0.139386E+00
  0.118539E+00  0.111834E+00  0.118539E+00  0.139386E+00  0.176133E+00  0.230540E+00
  0.302838E+00  0.389399E+00  0.481393E+00  0.568473E+00  0.644355E+00  0.707249E+00
  0.756997E+00  0.794000E+00  0.819684E+00  0.836261E+00  0.845901E+00  0.850303E+00
  0.850890E+00  0.849241E+00  0.847174E+00  0.846272E+00  0.847174E+00  0.849241E+00
  0.850890E+00  0.850303E+00  0.845901E+00  0.843404E+00  0.835329E+00  0.819562E+00
  0.794000E+00  0.756457E+00  0.705657E+00  0.641433E+00  0.564183E+00  0.476271E+00
  0.385068E+00  0.301652E+00  0.234262E+00  0.185174E+00  0.153454E+00  0.137906E+00
  0.137906E+00  0.153454E+00  0.185174E+00  0.234262E+00  0.301652E+00  0.385068E+00
  0.476271E+00  0.564183E+00  0.641433E+00  0.705657E+00  0.756457E+00  0.794000E+00
  0.819562E+00  0.835329E+00  0.843404E+00  0.845242E+00  0.841991E+00  0.835344E+00
  0.828034E+00  0.823267E+00  0.823267E+00  0.828034E+00  0.835344E+00  0.841991E+00
  0.845242E+00  0.843404E+00  0.842395E+00  0.835329E+00  0.819684E+00  0.793441E+00
  0.754539E+00  0.702050E+00  0.636177E+00  0.557648E+00  0.469715E+00  0.381155E+00
  0.303224E+00  0.242401E+00  0.199384E+00  0.173474E+00  0.164763E+00  0.173474E+00
  0.199384E+00  0.242401E+00  0.303224E+00  0.381155E+00  0.469715E+00  0.557648E+00
  0.636177E+00  0.702050E+00  0.754539E+00  0.793441E+00  0.819684E+00  0.835329E+00
  0.842395E+00  0.842014E+00  0.834759E+00  0.821954E+00  0.806911E+00  0.794686E+00
  0.789978E+00  0.794686E+00  0.806911E+00  0.821954E+00  0.834759E+00  0.842014E+00
  0.842395E+00  0.843404E+00  0.836261E+00  0.819690E+00  0.791738E+00  0.750675E+00
  0.696193E+00  0.628900E+00  0.549852E+00  0.463503E+00  0.379937E+00  0.309412E+00
  0.255937E+00  0.219479E+00  0.200622E+00  0.200622E+00  0.219479E+00  0.255937E+00
  0.309412E+00  0.379937E+00  0.463503E+00  0.549852E+00  0.628900E+00  0.696193E+00
  0.750675E+00  0.791738E+00  0.819690E+00  0.836261E+00  0.843404E+00  0.842014E+00
  0.831954E+00  0.813633E+00  0.790219E+00  0.768275E+00  0.755109E+00  0.755109E+00
  0.768275E+00  0.790219E+00  0.813633E+00  0.831954E+00  0.842014E+00  0.843404E+00
  0.845901E+00  0.837372E+00  0.818748E+00  0.788194E+00  0.744625E+00  0.688468E+00
  0.620460E+00  0.542026E+00  0.459218E+00  0.382801E+00  0.320781E+00  0.274993E+00
  0.245980E+00  0.235866E+00  0.245980E+00  0.274993E+00  0.320781E+00  0.382801E+00
  0.459218E+00  0.542026E+00  0.620460E+00  0.688468E+00  0.744625E+00  0.788194E+00
  0.818748E+00  0.837372E+00  0.845901E+00  0.845242E+00  0.834759E+00  0.813633E+00
  0.783885E+00  0.752692E+00  0.729812E+00  0.721640E+00  0.729812E+00  0.752692E+00
  0.783885E+00  0.813633E+00  0.834759E+00  0.845242E+00  0.845901E+00  0.848647E+00
  0.837603E+00  0.816039E+00  0.782459E+00  0.736668E+00  0.679514E+00  0.611501E+00
  0.534954E+00  0.457827E+00  0.390274E+00  0.337287E+00  0.299688E+00  0.279474E+00
  0.279474E+00  0.299688E+00  0.337287E+00  0.390274E+00  0.457827E+00  0.534954E+00
  0.611501E+00  0.679514E+00  0.736668E+00  0.782459E+00  0.816039E+00  0.837603E+00
  0.848647E+00  0.850303E+00  0.841991E+00  0.821954E+00  0.790219E+00  0.752692E+00
  0.720928E+00  0.704060E+00  0.704060E+00  0.720928E+00  0.752692E+00  0.790219E+00
  0.821954E+00  0.841991E+00  0.850303E+00  0.848647E+00  0.850325E+00  0.836001E+00
  0.811007E+00  0.774528E+00  0.727158E+00  0.669545E+00  0.602198E+00  0.529349E+00
  0.460270E+00  0.402757E+00  0.359064E+00  0.330442E+00  0.320222E+00  0.330442E+00
  0.359064E+00  0.402757E+00  0.460270E+00  0.529349E+00  0.602198E+00  0.669545E+00
  0.727158E+00  0.774528E+00  0.811007E+00  0.836001E+00  0.850325E+00  0.855284E+00
  0.850890E+00  0.835344E+00  0.806911E+00  0.768275E+00  0.729812E+00  0.704060E+00
  0.695689E+00  0.704060E+00  0.729812E+00  0.768275E+00  0.806911E+00  0.835344E+00
  0.850890E+00  0.855284E+00  0.850325E+00  0.849857E+00  0.831783E+00  0.803281E+00
  0.764434E+00  0.716074E+00  0.658420E+00  0.593101E+00  0.526663E+00  0.467733E+00
  0.420642E+00  0.386346E+00  0.367440E+00  0.367440E+00  0.386346E+00  0.420642E+00
  0.467733E+00  0.526663E+00  0.593101E+00  0.658420E+00  0.716074E+00  0.764434E+00
  0.803281E+00  0.831783E+00  0.849857E+00  0.858585E+00  0.858699E+00  0.849241E+00
  0.828034E+00  0.794686E+00  0.755109E+00  0.721640E+00  0.704060E+00  0.704060E+00
  0.721640E+00  0.755109E+00  0.794686E+00  0.828034E+00  0.849241E+00  0.858699E+00
  0.858585E+00  0.849857E+00  0.846287E+00  0.824240E+00  0.792597E+00  0.752108E+00
  0.703281E+00  0.646636E+00  0.585990E+00  0.528830E+00  0.480923E+00  0.443801E+00
  0.418915E+00  0.409896E+00  0.418915E+00  0.443801E+00  0.480923E+00  0.528830E+00
  0.585990E+00  0.646636E+00  0.703281E+00  0.752108E+00  0.792597E+00  0.824240E+00
  0.846287E+00  0.859078E+00  0.863628E+00  0.860108E+00  0.847174E+00  0.823267E+00
  0.789978E+00  0.755109E+00  0.729812E+00  0.720928E+00  0.729812E+00  0.755109E+00
  0.789978E+00  0.823267E+00  0.847174E+00  0.860108E+00  0.863628E+00  0.859078E+00
  0.846287E+00  0.838692E+00  0.812902E+00  0.778972E+00  0.737684E+00  0.689370E+00
  0.636052E+00  0.583241E+00  0.536835E+00  0.499257E+00  0.471310E+00  0.455695E+00
  0.455695E+00  0.471310E+00  0.499257E+00  0.536835E+00  0.583241E+00  0.636052E+00
  0.689370E+00  0.737684E+00  0.778972E+00  0.812902E+00  0.838692E+00  0.855783E+00
  0.864712E+00  0.866314E+00  0.860515E+00  0.846272E+00  0.823267E+00  0.794686E+00
  0.768275E+00  0.752692E+00  0.752692E+00  0.768275E+00  0.794686E+00  0.823267E+00
  0.846272E+00  0.860515E+00  0.866314E+00  0.864712E+00  0.855783E+00  0.838692E+00
  0.826500E+00  0.797923E+00  0.762906E+00  0.721908E+00  0.676045E+00  0.629060E+00
  0.585990E+00  0.549718E+00  0.521037E+00  0.501643E+00  0.494630E+00  0.501643E+00
  0.521037E+00  0.549718E+00  0.585990E+00  0.629060E+00  0.676045E+00  0.721908E+00
  0.762906E+00  0.797923E+00  0.826500E+00  0.847717E+00  0.861154E+00  0.867388E+00
  0.867154E+00  0.860515E+00  0.847174E+00  0.828034E+00  0.806911E+00  0.790219E+00
  0.783885E+00  0.790219E+00  0.806911E+00  0.828034E+00  0.847174E+00  0.860515E+00
  0.867154E+00  0.867388E+00  0.861154E+00  0.847717E+00  0.826500E+00  0.809983E+00
  0.780106E+00  0.745250E+00  0.706145E+00  0.665346E+00  0.626776E+00  0.593101E+00
  0.565225E+00  0.544365E+00  0.532914E+00  0.532914E+00  0.544365E+00  0.565225E+00
  0.593101E+00  0.626776E+00  0.665346E+00  0.706145E+00  0.745250E+00  0.780106E+00
  0.809983E+00  0.834291E+00  0.852050E+00  0.862894E+00  0.867388E+00  0.866314E+00
  0.860108E+00  0.849241E+00  0.835344E+00  0.821954E+00  0.813633E+00  0.813633E+00
  0.821954E+00  0.835344E+00  0.849241E+00  0.860108E+00  0.866314E+00  0.867388E+00
  0.862894E+00  0.852050E+00  0.834291E+00  0.809983E+00  0.790112E+00  0.760302E+00
  0.726956E+00  0.691944E+00  0.658326E+00  0.628195E+00  0.602198E+00  0.581373E+00
  0.567736E+00  0.563000E+00  0.567736E+00  0.581373E+00  0.602198E+00  0.628195E+00
  0.658326E+00  0.691944E+00  0.726956E+00  0.760302E+00  0.790112E+00  0.815843E+00
  0.836827E+00  0.852050E+00  0.861154E+00  0.864712E+00  0.863628E+00  0.858699E+00
  0.850890E+00  0.841991E+00  0.834759E+00  0.831954E+00  0.834759E+00  0.841991E+00
  0.850890E+00  0.858699E+00  0.863628E+00  0.864712E+00  0.861154E+00  0.852050E+00
  0.836827E+00  0.815843E+00  0.790112E+00  0.767678E+00  0.739124E+00  0.709199E+00
  0.680442E+00  0.654443E+00  0.631253E+00  0.611501E+00  0.597177E+00  0.589867E+00
  0.589867E+00  0.597177E+00  0.611501E+00  0.631253E+00  0.654443E+00  0.680442E+00
  0.709199E+00  0.739124E+00  0.767678E+00  0.793397E+00  0.815843E+00  0.834291E+00
  0.847717E+00  0.855783E+00  0.859078E+00  0.858585E+00  0.855284E+00  0.850303E+00
  0.845242E+00  0.842014E+00  0.842014E+00  0.845242E+00  0.850303E+00  0.855284E+00
  0.858585E+00  0.859078E+00  0.855783E+00  0.847717E+00  0.834291E+00  0.815843E+00
  0.793397E+00  0.767678E+00  0.743123E+00  0.717638E+00  0.693413E+00  0.671757E+00
  0.652157E+00  0.634458E+00  0.620460E+00  0.612065E+00  0.609407E+00  0.612065E+00
  0.620460E+00  0.634458E+00  0.652157E+00  0.671757E+00  0.693413E+00  0.717638E+00
  0.743123E+00  0.767678E+00  0.790112E+00  0.809983E+00  0.826500E+00  0.838692E+00
  0.846287E+00  0.849857E+00  0.850325E+00  0.848647E+00  0.845901E+00  0.843404E+00
  0.842395E+00  0.843404E+00  0.845901E+00  0.848647E+00  0.850325E+00  0.849857E+00
  0.846287E+00  0.838692E+00  0.826500E+00  0.809983E+00  0.790112E+00  0.767678E+00
  0.743123E+00  0.781454E+00  0.763046E+00  0.745330E+00  0.728674E+00  0.712770E+00
  0.698642E+00  0.688468E+00  0.683457E+00  0.683457E+00  0.688468E+00  0.698642E+00
  0.712770E+00  0.728674E+00  0.745330E+00  0.763046E+00  0.781454E+00  0.799126E+00
  0.815211E+00  0.829785E+00  0.842470E+00  0.851943E+00  0.857044E+00  0.857663E+00
  0.854517E+00  0.848647E+00  0.841364E+00  0.834502E+00  0.830264E+00  0.830264E+00
  0.834502E+00  0.841364E+00  0.848647E+00  0.854517E+00  0.857663E+00  0.857044E+00
  0.851943E+00  0.842470E+00  0.829785E+00  0.815211E+00  0.799126E+00  0.781454E+00
  0.763046E+00  0.749190E+00  0.736349E+00  0.723719E+00  0.711558E+00  0.701843E+00
  0.696193E+00  0.694472E+00  0.696193E+00  0.701843E+00  0.711558E+00  0.723719E+00
  0.736349E+00  0.749190E+00  0.763046E+00  0.777724E+00  0.792055E+00  0.805428E+00
  0.817871E+00  0.828875E+00  0.837206E+00  0.841911E+00  0.842981E+00  0.841125E+00
  0.837372E+00  0.832973E+00  0.829410E+00  0.828034E+00  0.829410E+00  0.832973E+00
  0.837372E+00  0.841125E+00  0.842981E+00  0.841911E+00  0.837206E+00  0.828875E+00
  0.817871E+00  0.805428E+00  0.792055E+00  0.777724E+00  0.763046E+00  0.745330E+00
  0.736349E+00  0.727405E+00  0.718127E+00  0.709869E+00  0.704408E+00  0.702050E+00
  0.702050E+00  0.704408E+00  0.709869E+00  0.718127E+00  0.727405E+00  0.736349E+00
  0.745330E+00  0.755313E+00  0.766286E+00  0.777506E+00  0.788535E+00  0.799131E+00
  0.808579E+00  0.815850E+00  0.820310E+00  0.822024E+00  0.821545E+00  0.819690E+00
  0.817484E+00  0.816013E+00  0.816013E+00  0.817484E+00  0.819690E+00  0.821545E+00
  0.822024E+00  0.820310E+00  0.815850E+00  0.808579E+00  0.799131E+00  0.788535E+00
  0.777506E+00  0.766286E+00  0.755313E+00  0.745330E+00  0.728674E+00  0.723719E+00
  0.718127E+00  0.712551E+00  0.708367E+00  0.706227E+00  0.705657E+00  0.706227E+00
  0.708367E+00  0.712551E+00  0.718127E+00  0.723719E+00  0.728674E+00  0.733578E+00
  0.739381E+00  0.746479E+00  0.754705E+00  0.763623E+00  0.772502E+00  0.780395E+00
  0.786564E+00  0.790746E+00  0.793042E+00  0.793768E+00  0.793441E+00  0.792777E+00
  0.792461E+00  0.792777E+00  0.793441E+00  0.793768E+00  0.793042E+00  0.790746E+00
  0.786564E+00  0.780395E+00  0.772502E+00  0.763623E+00  0.754705E+00  0.746479E+00
  0.739381E+00  0.733578E+00  0.728674E+00  0.712770E+00  0.711558E+00  0.709869E+00
  0.708367E+00  0.707519E+00  0.707249E+00  0.707249E+00  0.707519E+00  0.708367E+00
  0.709869E+00  0.711558E+00  0.712770E+00  0.713258E+00  0.713501E+00  0.714537E+00
  0.717435E+00  0.722610E+00  0.729441E+00  0.736608E+00  0.742938E+00  0.747958E+00
  0.751702E+00  0.754289E+00  0.755803E+00  0.756457E+00  0.756626E+00  0.756626E+00
  0.756457E+00  0.755803E+00  0.754289E+00  0.751702E+00  0.747958E+00  0.742938E+00
  0.736608E+00  0.729441E+00  0.722610E+00  0.717435E+00  0.714537E+00  0.713501E+00
  0.713258E+00  0.712770E+00  0.698642E+00  0.701843E+00  0.704408E+00  0.706227E+00
  0.707249E+00  0.707567E+00  0.707249E+00  0.706227E+00  0.704408E+00  0.701843E+00
  0.698642E+00  0.694728E+00  0.689934E+00  0.684617E+00  0.680158E+00  0.678384E+00
  0.680158E+00  0.684617E+00  0.689934E+00  0.694728E+00  0.698642E+00  0.701843E+00
  0.704408E+00  0.706227E+00  0.707249E+00  0.707567E+00  0.707249E+00  0.706227E+00
  0.704408E+00  0.701843E+00  0.698642E+00  0.694728E+00  0.689934E+00  0.684617E+00
  0.680158E+00  0.678384E+00  0.680158E+00  0.684617E+00  0.689934E+00  0.694728E+00
  0.698642E+00  0.688468E+00  0.696193E+00  0.702050E+00  0.705657E+00  0.707249E+00
  0.707249E+00  0.705657E+00  0.702050E+00  0.696193E+00  0.688468E+00  0.679514E+00
  0.669545E+00  0.658420E+00  0.646636E+00  0.636052E+00  0.629060E+00  0.626776E+00
  0.628195E+00  0.631253E+00  0.634458E+00  0.637412E+00  0.640172E+00  0.642597E+00
  0.644356E+00  0.645249E+00  0.645249E+00  0.644356E+00  0.642597E+00  0.640172E+00
  0.637412E+00  0.634458E+00  0.631253E+00  0.628195E+00  0.626776E+00  0.629060E+00
  0.636052E+00  0.646636E+00  0.658420E+00  0.669545E+00  0.679514E+00  0.688468E+00
  0.683457E+00  0.694472E+00  0.702050E+00  0.706227E+00  0.707519E+00  0.706227E+00
  0.702050E+00  0.694472E+00  0.683457E+00  0.669691E+00  0.654046E+00  0.636936E+00
  0.618521E+00  0.599719E+00  0.582755E+00  0.570169E+00  0.563063E+00  0.560470E+00
  0.560514E+00  0.561858E+00  0.563964E+00  0.566423E+00  0.568600E+00  0.569979E+00
  0.570430E+00  0.569979E+00  0.568600E+00  0.566423E+00  0.563964E+00  0.561858E+00
  0.560514E+00  0.560470E+00  0.563063E+00  0.570169E+00  0.582755E+00  0.599719E+00
  0.618521E+00  0.636936E+00  0.654046E+00  0.669691E+00  0.683457E+00  0.683457E+00
  0.696193E+00  0.704408E+00  0.708367E+00  0.708367E+00  0.704408E+00  0.696193E+00
  0.683457E+00  0.666361E+00  0.645610E+00  0.622169E+00  0.596880E+00  0.570593E+00
  0.544784E+00  0.521752E+00  0.503663E+00  0.491273E+00  0.483816E+00  0.480079E+00
  0.479172E+00  0.480256E+00  0.482113E+00  0.483575E+00  0.484233E+00  0.484233E+00
  0.483575E+00  0.482113E+00  0.480256E+00  0.479172E+00  0.480079E+00  0.483816E+00
  0.491273E+00  0.503663E+00  0.521752E+00  0.544784E+00  0.570593E+00  0.596880E+00
  0.622169E+00  0.645610E+00  0.666361E+00  0.683457E+00  0.688468E+00  0.701843E+00
  0.709869E+00  0.712551E+00  0.709869E+00  0.701843E+00  0.688468E+00  0.669691E+00
  0.645610E+00  0.616815E+00  0.584524E+00  0.550355E+00  0.516110E+00  0.483824E+00
  0.455541E+00  0.432594E+00  0.415170E+00  0.402850E+00  0.395294E+00  0.391990E+00
  0.391563E+00  0.392064E+00  0.392291E+00  0.392282E+00  0.392291E+00  0.392064E+00
  0.391563E+00  0.391990E+00  0.395294E+00  0.402850E+00  0.415170E+00  0.432594E+00
  0.455541E+00  0.483824E+00  0.516110E+00  0.550355E+00  0.584524E+00  0.616815E+00
  0.645610E+00  0.669691E+00  0.688468E+00  0.698642E+00  0.711558E+00  0.718127E+00
  0.718127E+00  0.711558E+00  0.698642E+00  0.679514E+00  0.654046E+00  0.622169E+00
  0.584524E+00  0.542854E+00  0.499732E+00  0.457975E+00  0.420053E+00  0.387510E+00
  0.360708E+00  0.339367E+00  0.323448E+00  0.313132E+00  0.307796E+00  0.305545E+00
  0.304381E+00  0.303639E+00  0.303639E+00  0.304381E+00  0.305545E+00  0.307796E+00
  0.313132E+00  0.323448E+00  0.339367E+00  0.360708E+00  0.387510E+00  0.420053E+00
  0.457975E+00  0.499732E+00  0.542854E+00  0.584524E+00  0.622169E+00  0.654046E+00
  0.679514E+00  0.698642E+00  0.712770E+00  0.723719E+00  0.727405E+00  0.723719E+00
  0.712770E+00  0.694728E+00  0.669545E+00  0.636936E+00  0.596880E+00  0.550355E+00
  0.499732E+00  0.448466E+00  0.400179E+00  0.357555E+00  0.321634E+00  0.292140E+00
  0.268613E+00  0.251103E+00  0.239578E+00  0.232940E+00  0.229252E+00  0.227113E+00
  0.226340E+00  0.227113E+00  0.229252E+00  0.232940E+00  0.239578E+00  0.251103E+00
  0.268613E+00  0.292140E+00  0.321634E+00  0.357555E+00  0.400179E+00  0.448466E+00
  0.499732E+00  0.550355E+00  0.596880E+00  0.636936E+00  0.669545E+00  0.694728E+00
  0.712770E+00  0.728674E+00  0.736349E+00  0.736349E+00  0.728674E+00  0.713258E+00
  0.689934E+00  0.658420E+00  0.618521E+00  0.570593E+00  0.516110E+00  0.457975E+00
  0.400179E+00  0.346732E+00  0.300356E+00  0.261909E+00  0.230999E+00  0.207057E+00
  0.189685E+00  0.178127E+00  0.170962E+00  0.166701E+00  0.164596E+00  0.164596E+00
  0.166701E+00  0.170962E+00  0.178127E+00  0.189685E+00  0.207057E+00  0.230999E+00
  0.261909E+00  0.300356E+00  0.346732E+00  0.400179E+00  0.457975E+00  0.516110E+00
  0.570593E+00  0.618521E+00  0.658420E+00  0.689934E+00  0.713258E+00  0.728674E+00
  0.745330E+00  0.749190E+00  0.745330E+00  0.733578E+00  0.713501E+00  0.684617E+00
  0.646636E+00  0.599719E+00  0.544784E+00  0.483824E+00  0.420053E+00  0.357555E+00
  0.300356E+00  0.251278E+00  0.211393E+00  0.180393E+00  0.157337E+00  0.141018E+00
  0.130025E+00  0.122979E+00  0.118956E+00  0.117626E+00  0.118956E+00  0.122979E+00
  0.130025E+00  0.141018E+00  0.157337E+00  0.180393E+00  0.211393E+00  0.251278E+00
  0.300356E+00  0.357555E+00  0.420053E+00  0.483824E+00  0.544784E+00  0.599719E+00
  0.646636E+00  0.684617E+00  0.713501E+00  0.733578E+00  0.745330E+00  0.763046E+00
  0.763046E+00  0.755313E+00  0.739381E+00  0.714537E+00  0.680158E+00  0.636052E+00
  0.582755E+00  0.521752E+00  0.455541E+00  0.387510E+00  0.321634E+00  0.261909E+00
  0.211393E+00  0.171389E+00  0.141423E+00  0.119917E+00  0.104952E+00  0.948361E-01
  0.884513E-01  0.853094E-01  0.853094E-01  0.884513E-01  0.948361E-01  0.104952E+00
  0.119917E+00  0.141423E+00  0.171389E+00  0.211393E+00  0.261909E+00  0.321634E+00
  0.387510E+00  0.455541E+00  0.521752E+00  0.582755E+00  0.636052E+00  0.680158E+00
  0.714537E+00  0.739381E+00  0.755313E+00  0.763046E+00  0.781454E+00  0.777724E+00
  0.766286E+00  0.746479E+00  0.717435E+00  0.678384E+00  0.629060E+00  0.570169E+00
  0.503663E+00  0.432594E+00  0.360708E+00  0.292140E+00  0.230999E+00  0.180393E+00
  0.141423E+00  0.113118E+00  0.933217E-01  0.797680E-01  0.707981E-01  0.655683E-01
  0.638323E-01  0.655683E-01  0.707981E-01  0.797680E-01  0.933217E-01  0.113118E+00
  0.141423E+00  0.180393E+00  0.230999E+00  0.292140E+00  0.360708E+00  0.432594E+00
  0.503663E+00  0.570169E+00  0.629060E+00  0.678384E+00  0.717435E+00  0.746479E+00
  0.766286E+00  0.777724E+00  0.781454E+00  0.799126E+00  0.792055E+00  0.777506E+00
  0.754705E+00  0.722610E+00  0.680158E+00  0.626776E+00  0.563063E+00  0.491273E+00
  0.415170E+00  0.339367E+00  0.268613E+00  0.207057E+00  0.157337E+00  0.119917E+00
  0.933217E-01  0.751196E-01  0.630070E-01  0.554598E-01  0.517834E-01  0.517834E-01
  0.554598E-01  0.630070E-01  0.751196E-01  0.933217E-01  0.119917E+00  0.157337E+00
  0.207057E+00  0.268613E+00  0.339367E+00  0.415170E+00  0.491273E+00  0.563063E+00
  0.626776E+00  0.680158E+00  0.722610E+00  0.754705E+00  0.777506E+00  0.792055E+00
  0.799126E+00  0.799126E+00  0.815211E+00  0.805428E+00  0.788535E+00  0.763623E+00
  0.729441E+00  0.684617E+00  0.628195E+00  0.560470E+00  0.483816E+00  0.402850E+00
  0.323448E+00  0.251103E+00  0.189685E+00  0.141018E+00  0.104952E+00  0.797680E-01
  0.630070E-01  0.524217E-01  0.465371E-01  0.446415E-01  0.465371E-01  0.524217E-01
  0.630070E-01  0.797680E-01  0.104952E+00  0.141018E+00  0.189685E+00  0.251103E+00
  0.323448E+00  0.402850E+00  0.483816E+00  0.560470E+00  0.628195E+00  0.684617E+00
  0.729441E+00  0.763623E+00  0.788535E+00  0.805428E+00  0.815211E+00  0.818415E+00
  0.815211E+00  0.829785E+00  0.817871E+00  0.799131E+00  0.772502E+00  0.736608E+00
  0.689934E+00  0.631253E+00  0.560514E+00  0.480079E+00  0.395294E+00  0.313132E+00
  0.239578E+00  0.178127E+00  0.130025E+00  0.948361E-01  0.707981E-01  0.554598E-01
  0.465371E-01  0.424576E-01  0.424576E-01  0.465371E-01  0.554598E-01  0.707981E-01
  0.948361E-01  0.130025E+00  0.178127E+00  0.239578E+00  0.313132E+00  0.395294E+00
  0.480079E+00  0.560514E+00  0.631253E+00  0.689934E+00  0.736608E+00  0.772502E+00
  0.799131E+00  0.817871E+00  0.829785E+00  0.835572E+00  0.835572E+00  0.829785E+00
  0.842470E+00  0.828875E+00  0.808579E+00  0.780395E+00  0.742938E+00  0.694728E+00
  0.634458E+00  0.561858E+00  0.479172E+00  0.391990E+00  0.307796E+00  0.232940E+00
  0.170962E+00  0.122979E+00  0.884513E-01  0.655683E-01  0.517834E-01  0.446415E-01
  0.424576E-01  0.446415E-01  0.517834E-01  0.655683E-01  0.884513E-01  0.122979E+00
  0.170962E+00  0.232940E+00  0.307796E+00  0.391990E+00  0.479172E+00  0.561858E+00
  0.634458E+00  0.694728E+00  0.742938E+00  0.780395E+00  0.808579E+00  0.828875E+00
  0.842470E+00  0.850264E+00  0.852801E+00  0.850264E+00  0.842470E+00  0.851943E+00
  0.837206E+00  0.815850E+00  0.786564E+00  0.747958E+00  0.698642E+00  0.637412E+00
  0.563964E+00  0.480256E+00  0.391563E+00  0.305545E+00  0.229252E+00  0.166701E+00
  0.118956E+00  0.853094E-01  0.638323E-01  0.517834E-01  0.465371E-01  0.465371E-01
  0.517834E-01  0.638323E-01  0.853094E-01  0.118956E+00  0.166701E+00  0.229252E+00
  0.305545E+00  0.391563E+00  0.480256E+00  0.563964E+00  0.637412E+00  0.698642E+00
  0.747958E+00  0.786564E+00  0.815850E+00  0.837206E+00  0.851943E+00  0.861147E+00
  0.865564E+00  0.865564E+00  0.861147E+00  0.851943E+00  0.857044E+00  0.841911E+00
  0.820310E+00  0.790746E+00  0.751702E+00  0.701843E+00  0.640172E+00  0.566423E+00
  0.482113E+00  0.392064E+00  0.304381E+00  0.227113E+00  0.164596E+00  0.117626E+00
  0.853094E-01  0.655683E-01  0.554598E-01  0.524217E-01  0.554598E-01  0.655683E-01
  0.853094E-01  0.117626E+00  0.164596E+00  0.227113E+00  0.304381E+00  0.392064E+00
  0.482113E+00  0.566423E+00  0.640172E+00  0.701843E+00  0.751702E+00  0.790746E+00
  0.820310E+00  0.841911E+00  0.857044E+00  0.866972E+00  0.872592E+00  0.874411E+00
  0.872592E+00  0.866972E+00  0.857044E+00  0.857663E+00  0.842981E+00  0.822024E+00
  0.793042E+00  0.754289E+00  0.704408E+00  0.642597E+00  0.568600E+00  0.483575E+00
  0.392291E+00  0.303639E+00  0.226340E+00  0.164596E+00  0.118956E+00  0.884513E-01
  0.707981E-01  0.630070E-01  0.630070E-01  0.707981E-01  0.884513E-01  0.118956E+00
  0.164596E+00  0.226340E+00  0.303639E+00  0.392291E+00  0.483575E+00  0.568600E+00
  0.642597E+00  0.704408E+00  0.754289E+00  0.793042E+00  0.822024E+00  0.842981E+00
  0.857663E+00  0.867526E+00  0.873600E+00  0.876501E+00  0.876501E+00  0.873600E+00
  0.867526E+00  0.857663E+00  0.854517E+00  0.841125E+00  0.821545E+00  0.793768E+00
  0.755803E+00  0.706227E+00  0.644356E+00  0.569979E+00  0.484233E+00  0.392282E+00
  0.303639E+00  0.227113E+00  0.166701E+00  0.122979E+00  0.948361E-01  0.797680E-01
  0.751196E-01  0.797680E-01  0.948361E-01  0.122979E+00  0.166701E+00  0.227113E+00
  0.303639E+00  0.392282E+00  0.484233E+00  0.569979E+00  0.644356E+00  0.706227E+00
  0.755803E+00  0.793768E+00  0.821545E+00  0.841125E+00  0.854517E+00  0.863373E+00
  0.868905E+00  0.871918E+00  0.872873E+00  0.871918E+00  0.868905E+00  0.863373E+00
  0.854517E+00  0.848647E+00  0.837372E+00  0.819690E+00  0.793441E+00  0.756457E+00
  0.707249E+00  0.645249E+00  0.570430E+00  0.484233E+00  0.392291E+00  0.304381E+00
  0.229252E+00  0.170962E+00  0.130025E+00  0.104952E+00  0.933217E-01  0.933217E-01
  0.104952E+00  0.130025E+00  0.170962E+00  0.229252E+00  0.304381E+00  0.392291E+00
  0.484233E+00  0.570430E+00  0.645249E+00  0.707249E+00  0.756457E+00  0.793441E+00
  0.819690E+00  0.837372E+00  0.848647E+00  0.855284E+00  0.858699E+00  0.860108E+00
  0.860515E+00  0.860515E+00  0.860108E+00  0.858699E+00  0.855284E+00  0.848647E+00
  0.841364E+00  0.832973E+00  0.817484E+00  0.792777E+00  0.756626E+00  0.707567E+00
  0.645249E+00  0.569979E+00  0.483575E+00  0.392064E+00  0.305545E+00  0.232940E+00
  0.178127E+00  0.141018E+00  0.119917E+00  0.113118E+00  0.119917E+00  0.141018E+00
  0.178127E+00  0.232940E+00  0.305545E+00  0.392064E+00  0.483575E+00  0.569979E+00
  0.645249E+00  0.707567E+00  0.756626E+00  0.792777E+00  0.817484E+00  0.832973E+00
  0.841364E+00  0.844289E+00  0.843196E+00  0.839865E+00  0.836505E+00  0.835112E+00
  0.836505E+00  0.839865E+00  0.843196E+00  0.844289E+00  0.841364E+00  0.834502E+00
  0.829410E+00  0.816013E+00  0.792461E+00  0.756626E+00  0.707249E+00  0.644356E+00
  0.568600E+00  0.482113E+00  0.391563E+00  0.307796E+00  0.239578E+00  0.189685E+00
  0.157337E+00  0.141423E+00  0.141423E+00  0.157337E+00  0.189685E+00  0.239578E+00
  0.307796E+00  0.391563E+00  0.482113E+00  0.568600E+00  0.644356E+00  0.707249E+00
  0.756626E+00  0.792461E+00  0.816013E+00  0.829410E+00  0.834502E+00  0.832366E+00
  0.823902E+00  0.811116E+00  0.797963E+00  0.789531E+00  0.789531E+00  0.797963E+00
  0.811116E+00  0.823902E+00  0.832366E+00  0.834502E+00  0.830264E+00  0.828034E+00
  0.816013E+00  0.792777E+00  0.756457E+00  0.706227E+00  0.642597E+00  0.566423E+00
  0.480256E+00  0.391990E+00  0.313132E+00  0.251103E+00  0.207057E+00  0.180393E+00
  0.171389E+00  0.180393E+00  0.207057E+00  0.251103E+00  0.313132E+00  0.391990E+00
  0.480256E+00  0.566423E+00  0.642597E+00  0.706227E+00  0.756457E+00  0.792777E+00
  0.816013E+00  0.828034E+00  0.830264E+00  0.822790E+00  0.805035E+00  0.777995E+00
  0.746892E+00  0.721424E+00  0.711533E+00  0.721424E+00  0.746892E+00  0.777995E+00
  0.805035E+00  0.822790E+00  0.830264E+00  0.830264E+00  0.829410E+00  0.817484E+00
  0.793441E+00  0.755803E+00  0.704408E+00  0.640172E+00  0.563964E+00  0.479172E+00
  0.395294E+00  0.323448E+00  0.268613E+00  0.230999E+00  0.211393E+00  0.211393E+00
  0.230999E+00  0.268613E+00  0.323448E+00  0.395294E+00  0.479172E+00  0.563964E+00
  0.640172E+00  0.704408E+00  0.755803E+00  0.793441E+00  0.817484E+00  0.829410E+00
  0.830264E+00  0.819076E+00  0.793028E+00  0.750279E+00  0.695318E+00  0.642407E+00
  0.609979E+00  0.609979E+00  0.642407E+00  0.695318E+00  0.750279E+00  0.793028E+00
  0.819076E+00  0.830264E+00  0.834502E+00  0.832973E+00  0.819690E+00  0.793768E+00
  0.754289E+00  0.701843E+00  0.637412E+00  0.561858E+00  0.480079E+00  0.402850E+00
  0.339367E+00  0.292140E+00  0.261909E+00  0.251278E+00  0.261909E+00  0.292140E+00
  0.339367E+00  0.402850E+00  0.480079E+00  0.561858E+00  0.637412E+00  0.701843E+00
  0.754289E+00  0.793768E+00  0.819690E+00  0.832973E+00  0.834502E+00  0.822790E+00
  0.793028E+00  0.739332E+00  0.662403E+00  0.578953E+00  0.516324E+00  0.493675E+00
  0.516324E+00  0.578953E+00  0.662403E+00  0.739332E+00  0.793028E+00  0.822790E+00
  0.834502E+00  0.841364E+00  0.837372E+00  0.821545E+00  0.793042E+00  0.751702E+00
  0.698642E+00  0.634458E+00  0.560514E+00  0.483816E+00  0.415170E+00  0.360708E+00
  0.321634E+00  0.300356E+00  0.300356E+00  0.321634E+00  0.360708E+00  0.415170E+00
  0.483816E+00  0.560514E+00  0.634458E+00  0.698642E+00  0.751702E+00  0.793042E+00
  0.821545E+00  0.837372E+00  0.841364E+00  0.832366E+00  0.805035E+00  0.750279E+00
  0.662403E+00  0.555030E+00  0.463322E+00  0.414598E+00  0.414598E+00  0.463322E+00
  0.555030E+00  0.662403E+00  0.750279E+00  0.805035E+00  0.832366E+00  0.841364E+00
  0.848647E+00  0.841125E+00  0.822024E+00  0.790746E+00  0.747958E+00  0.694728E+00
  0.631253E+00  0.560470E+00  0.491273E+00  0.432594E+00  0.387510E+00  0.357555E+00
  0.346732E+00  0.357555E+00  0.387510E+00  0.432594E+00  0.491273E+00  0.560470E+00
  0.631253E+00  0.694728E+00  0.747958E+00  0.790746E+00  0.822024E+00  0.841125E+00
  0.848647E+00  0.844289E+00  0.823902E+00  0.777995E+00  0.695318E+00  0.578953E+00
  0.463322E+00  0.388599E+00  0.364881E+00  0.388599E+00  0.463322E+00  0.578953E+00
  0.695318E+00  0.777995E+00  0.823902E+00  0.844289E+00  0.848647E+00  0.854517E+00
  0.842981E+00  0.820310E+00  0.786564E+00  0.742938E+00  0.689934E+00  0.628195E+00
  0.563063E+00  0.503663E+00  0.455541E+00  0.420053E+00  0.400179E+00  0.400179E+00
  0.420053E+00  0.455541E+00  0.503663E+00  0.563063E+00  0.628195E+00  0.689934E+00
  0.742938E+00  0.786564E+00  0.820310E+00  0.842981E+00  0.854517E+00  0.855284E+00
  0.843196E+00  0.811116E+00  0.746892E+00  0.642407E+00  0.516324E+00  0.414598E+00
  0.364881E+00  0.364881E+00  0.414598E+00  0.516324E+00  0.642407E+00  0.746892E+00
  0.811116E+00  0.843196E+00  0.855284E+00  0.854517E+00  0.857663E+00  0.841911E+00
  0.815850E+00  0.780395E+00  0.736608E+00  0.684617E+00  0.626776E+00  0.570169E+00
  0.521752E+00  0.483824E+00  0.457975E+00  0.448466E+00  0.457975E+00  0.483824E+00
  0.521752E+00  0.570169E+00  0.626776E+00  0.684617E+00  0.736608E+00  0.780395E+00
  0.815850E+00  0.841911E+00  0.857663E+00  0.863373E+00  0.858699E+00  0.839865E+00
  0.797963E+00  0.721424E+00  0.609979E+00  0.493675E+00  0.414598E+00  0.388599E+00
  0.414598E+00  0.493675E+00  0.609979E+00  0.721424E+00  0.797963E+00  0.839865E+00
  0.858699E+00  0.863373E+00  0.857663E+00  0.857044E+00  0.837206E+00  0.808579E+00
  0.772502E+00  0.729441E+00  0.680158E+00  0.629060E+00  0.582755E+00  0.544784E+00
  0.516110E+00  0.499732E+00  0.499732E+00  0.516110E+00  0.544784E+00  0.582755E+00
  0.629060E+00  0.680158E+00  0.729441E+00  0.772502E+00  0.808579E+00  0.837206E+00
  0.857044E+00  0.867526E+00  0.868905E+00  0.860108E+00  0.836505E+00  0.789531E+00
  0.711533E+00  0.609979E+00  0.516324E+00  0.463322E+00  0.463322E+00  0.516324E+00
  0.609979E+00  0.711533E+00  0.789531E+00  0.836505E+00  0.860108E+00  0.868905E+00
  0.867526E+00  0.857044E+00  0.851943E+00  0.828875E+00  0.799131E+00  0.763623E+00
  0.722610E+00  0.678384E+00  0.636052E+00  0.599719E+00  0.570593E+00  0.550355E+00
  0.542854E+00  0.550355E+00  0.570593E+00  0.599719E+00  0.636052E+00  0.678384E+00
  0.722610E+00  0.763623E+00  0.799131E+00  0.828875E+00  0.851943E+00  0.866972E+00
  0.873600E+00  0.871918E+00  0.860515E+00  0.835112E+00  0.789531E+00  0.721424E+00
  0.642407E+00  0.578953E+00  0.555030E+00  0.578953E+00  0.642407E+00  0.721424E+00
  0.789531E+00  0.835112E+00  0.860515E+00  0.871918E+00  0.873600E+00  0.866972E+00
  0.851943E+00  0.842470E+00  0.817871E+00  0.788535E+00  0.754705E+00  0.717435E+00
  0.680158E+00  0.646636E+00  0.618521E+00  0.596880E+00  0.584524E+00  0.584524E+00
  0.596880E+00  0.618521E+00  0.646636E+00  0.680158E+00  0.717435E+00  0.754705E+00
  0.788535E+00  0.817871E+00  0.842470E+00  0.861147E+00  0.872592E+00  0.876501E+00
  0.872873E+00  0.860515E+00  0.836505E+00  0.797963E+00  0.746892E+00  0.695318E+00
  0.662403E+00  0.662403E+00  0.695318E+00  0.746892E+00  0.797963E+00  0.836505E+00
  0.860515E+00  0.872873E+00  0.876501E+00  0.872592E+00  0.861147E+00  0.842470E+00
  0.829785E+00  0.805428E+00  0.777506E+00  0.746479E+00  0.714537E+00  0.684617E+00
  0.658420E+00  0.636936E+00  0.622169E+00  0.616815E+00  0.622169E+00  0.636936E+00
  0.658420E+00  0.684617E+00  0.714537E+00  0.746479E+00  0.777506E+00  0.805428E+00
  0.829785E+00  0.850264E+00  0.865564E+00  0.874411E+00  0.876501E+00  0.871918E+00
  0.860108E+00  0.839865E+00  0.811116E+00  0.777995E+00  0.750279E+00  0.739332E+00
  0.750279E+00  0.777995E+00  0.811116E+00  0.839865E+00  0.860108E+00  0.871918E+00
  0.876501E+00  0.874411E+00  0.865564E+00  0.850264E+00  0.829785E+00  0.815211E+00
  0.792055E+00  0.766286E+00  0.739381E+00  0.713501E+00  0.689934E+00  0.669545E+00
  0.654046E+00  0.645610E+00  0.645610E+00  0.654046E+00  0.669545E+00  0.689934E+00
  0.713501E+00  0.739381E+00  0.766286E+00  0.792055E+00  0.815211E+00  0.835572E+00
  0.852801E+00  0.865564E+00  0.872592E+00  0.873600E+00  0.868905E+00  0.858699E+00
  0.843196E+00  0.823902E+00  0.805035E+00  0.793028E+00  0.793028E+00  0.805035E+00
  0.823902E+00  0.843196E+00  0.858699E+00  0.868905E+00  0.873600E+00  0.872592E+00
  0.865564E+00  0.852801E+00  0.835572E+00  0.815211E+00  0.799126E+00  0.777724E+00
  0.755313E+00  0.733578E+00  0.713258E+00  0.694728E+00  0.679514E+00  0.669691E+00
  0.666361E+00  0.669691E+00  0.679514E+00  0.694728E+00  0.713258E+00  0.733578E+00
  0.755313E+00  0.777724E+00  0.799126E+00  0.818415E+00  0.835572E+00  0.850264E+00
  0.861147E+00  0.866972E+00  0.867526E+00  0.863373E+00  0.855284E+00  0.844289E+00
  0.832366E+00  0.822790E+00  0.819076E+00  0.822790E+00  0.832366E+00  0.844289E+00
  0.855284E+00  0.863373E+00  0.867526E+00  0.866972E+00  0.861147E+00  0.850264E+00
  0.835572E+00  0.818415E+00  0.799126E+00  0.781454E+00  0.763046E+00  0.745330E+00
  0.728674E+00  0.712770E+00  0.698642E+00  0.688468E+00  0.683457E+00  0.683457E+00
  0.688468E+00  0.698642E+00  0.712770E+00  0.728674E+00  0.745330E+00  0.763046E+00
  0.781454E+00  0.799126E+00  0.815211E+00  0.829785E+00  0.842470E+00  0.851943E+00
  0.857044E+00  0.857663E+00  0.854517E+00  0.848647E+00  0.841364E+00  0.834502E+00
  0.830264E+00  0.830264E+00  0.834502E+00  0.841364E+00  0.848647E+00  0.854517E+00
  0.857663E+00  0.857044E+00  0.851943E+00  0.842470E+00  0.829785E+00  0.815211E+00
  0.799126E+00  0.781454E+00  0.817138E+00  0.803188E+00  0.789479E+00  0.775934E+00
  0.762783E+00  0.751702E+00  0.744625E+00  0.742273E+00  0.744625E+00  0.751702E+00
  0.762783E+00  0.775934E+00  0.789479E+00  0.803188E+00  0.817138E+00  0.830375E+00
  0.841850E+00  0.851685E+00  0.860388E+00  0.867364E+00  0.871116E+00  0.870561E+00
  0.865620E+00  0.856974E+00  0.845901E+00  0.834502E+00  0.825711E+00  0.822375E+00
  0.825711E+00  0.834502E+00  0.845901E+00  0.856974E+00  0.865620E+00  0.870561E+00
  0.871116E+00  0.867364E+00  0.860388E+00  0.851685E+00  0.841850E+00  0.830375E+00
  0.817138E+00  0.803188E+00  0.792887E+00  0.782550E+00  0.771764E+00  0.761664E+00
  0.754289E+00  0.750675E+00  0.750675E+00  0.754289E+00  0.761664E+00  0.771764E+00
  0.782550E+00  0.792887E+00  0.803188E+00  0.813794E+00  0.823882E+00  0.832599E+00
  0.840153E+00  0.846985E+00  0.852525E+00  0.855442E+00  0.854811E+00  0.850692E+00
  0.843999E+00  0.836261E+00  0.829410E+00  0.825368E+00  0.825368E+00  0.829410E+00
  0.836261E+00  0.843999E+00  0.850692E+00  0.854811E+00  0.855442E+00  0.852525E+00
  0.846985E+00  0.840153E+00  0.832599E+00  0.823882E+00  0.813794E+00  0.803188E+00
  0.789479E+00  0.782550E+00  0.774789E+00  0.766647E+00  0.759861E+00  0.755803E+00
  0.754539E+00  0.755803E+00  0.759861E+00  0.766647E+00  0.774789E+00  0.782550E+00
  0.789479E+00  0.796329E+00  0.803499E+00  0.810395E+00  0.816466E+00  0.821904E+00
  0.826949E+00  0.831057E+00  0.833164E+00  0.832564E+00  0.829402E+00  0.824632E+00
  0.819684E+00  0.816013E+00  0.814666E+00  0.816013E+00  0.819684E+00  0.824632E+00
  0.829402E+00  0.832564E+00  0.833164E+00  0.831057E+00  0.826949E+00  0.821904E+00
  0.816466E+00  0.810395E+00  0.803499E+00  0.796329E+00  0.789479E+00  0.775934E+00
  0.771764E+00  0.766647E+00  0.761669E+00  0.758124E+00  0.756457E+00  0.756457E+00
  0.758124E+00  0.761669E+00  0.766647E+00  0.771764E+00  0.775934E+00  0.779172E+00
  0.782219E+00  0.785531E+00  0.788979E+00  0.792375E+00  0.795758E+00  0.799032E+00
  0.801637E+00  0.802802E+00  0.802094E+00  0.799767E+00  0.796707E+00  0.794000E+00
  0.792461E+00  0.792461E+00  0.794000E+00  0.796707E+00  0.799767E+00  0.802094E+00
  0.802802E+00  0.801637E+00  0.799032E+00  0.795758E+00  0.792375E+00  0.788979E+00
  0.785531E+00  0.782219E+00  0.779172E+00  0.775934E+00  0.762783E+00  0.761664E+00
  0.759861E+00  0.758124E+00  0.756997E+00  0.756626E+00  0.756997E+00  0.758124E+00
  0.759861E+00  0.761664E+00  0.762783E+00  0.762759E+00  0.761703E+00  0.760179E+00
  0.758897E+00  0.758404E+00  0.758897E+00  0.760179E+00  0.761703E+00  0.762759E+00
  0.762783E+00  0.761664E+00  0.759861E+00  0.758124E+00  0.756997E+00  0.756626E+00
  0.756997E+00  0.758124E+00  0.759861E+00  0.761664E+00  0.762783E+00  0.762759E+00
  0.761703E+00  0.760179E+00  0.758897E+00  0.758404E+00  0.758897E+00  0.760179E+00
  0.761703E+00  0.762759E+00  0.762783E+00  0.751702E+00  0.754289E+00  0.755803E+00
  0.756457E+00  0.756626E+00  0.756626E+00  0.756457E+00  0.755803E+00  0.754289E+00
  0.751702E+00  0.747958E+00  0.742938E+00  0.736608E+00  0.729441E+00  0.722610E+00
  0.717435E+00  0.714537E+00  0.713501E+00  0.713258E+00  0.712770E+00  0.711558E+00
  0.709869E+00  0.708367E+00  0.707519E+00  0.707249E+00  0.707249E+00  0.707519E+00
  0.708367E+00  0.709869E+00  0.711558E+00  0.712770E+00  0.713258E+00  0.713501E+00
  0.714537E+00  0.717435E+00  0.722610E+00  0.729441E+00  0.736608E+00  0.742938E+00
  0.747958E+00  0.751702E+00  0.744625E+00  0.750675E+00  0.754539E+00  0.756457E+00
  0.756997E+00  0.756457E+00  0.754539E+00  0.750675E+00  0.744625E+00  0.736668E+00
  0.727158E+00  0.716074E+00  0.703281E+00  0.689370E+00  0.676045E+00  0.665346E+00
  0.658326E+00  0.654443E+00  0.652157E+00  0.650093E+00  0.647830E+00  0.645828E+00
  0.644672E+00  0.644356E+00  0.644355E+00  0.644356E+00  0.644672E+00  0.645828E+00
  0.647830E+00  0.650093E+00  0.652157E+00  0.654443E+00  0.658326E+00  0.665346E+00
  0.676045E+00  0.689370E+00  0.703281E+00  0.716074E+00  0.727158E+00  0.736668E+00
  0.744625E+00  0.742273E+00  0.750675E+00  0.755803E+00  0.758124E+00  0.758124E+00
  0.755803E+00  0.750675E+00  0.742273E+00  0.730654E+00  0.716386E+00  0.700005E+00
  0.681606E+00  0.661224E+00  0.639758E+00  0.619366E+00  0.602559E+00  0.590640E+00
  0.583011E+00  0.577993E+00  0.574204E+00  0.571254E+00  0.569373E+00  0.568600E+00
  0.568473E+00  0.568473E+00  0.568600E+00  0.569373E+00  0.571254E+00  0.574204E+00
  0.577993E+00  0.583011E+00  0.590640E+00  0.602559E+00  0.619366E+00  0.639758E+00
  0.661224E+00  0.681606E+00  0.700005E+00  0.716386E+00  0.730654E+00  0.742273E+00
  0.744625E+00  0.754289E+00  0.759861E+00  0.761669E+00  0.759861E+00  0.754289E+00
  0.744625E+00  0.730654E+00  0.712544E+00  0.690872E+00  0.666304E+00  0.639315E+00
  0.610475E+00  0.581188E+00  0.553899E+00  0.531078E+00  0.513817E+00  0.501562E+00
  0.493075E+00  0.487377E+00  0.483899E+00  0.482113E+00  0.481393E+00  0.481219E+00
  0.481393E+00  0.482113E+00  0.483899E+00  0.487377E+00  0.493075E+00  0.501562E+00
  0.513817E+00  0.531078E+00  0.553899E+00  0.581188E+00  0.610475E+00  0.639315E+00
  0.666304E+00  0.690872E+00  0.712544E+00  0.730654E+00  0.744625E+00  0.751702E+00
  0.761664E+00  0.766647E+00  0.766647E+00  0.761664E+00  0.751702E+00  0.736668E+00
  0.716386E+00  0.690872E+00  0.660614E+00  0.626565E+00  0.589921E+00  0.552194E+00
  0.515507E+00  0.482304E+00  0.454340E+00  0.432080E+00  0.415208E+00  0.403295E+00
  0.395767E+00  0.391563E+00  0.389399E+00  0.388443E+00  0.388443E+00  0.389399E+00
  0.391563E+00  0.395767E+00  0.403295E+00  0.415208E+00  0.432080E+00  0.454340E+00
  0.482304E+00  0.515507E+00  0.552194E+00  0.589921E+00  0.626565E+00  0.660614E+00
  0.690872E+00  0.716386E+00  0.736668E+00  0.751702E+00  0.762783E+00  0.771764E+00
  0.774789E+00  0.771764E+00  0.762783E+00  0.747958E+00  0.727158E+00  0.700005E+00
  0.666304E+00  0.626565E+00  0.582218E+00  0.535488E+00  0.489174E+00  0.446147E+00
  0.408431E+00  0.376666E+00  0.350727E+00  0.330651E+00  0.316554E+00  0.307796E+00
  0.302838E+00  0.300233E+00  0.299387E+00  0.300233E+00  0.302838E+00  0.307796E+00
  0.316554E+00  0.330651E+00  0.350727E+00  0.376666E+00  0.408431E+00  0.446147E+00
  0.489174E+00  0.535488E+00  0.582218E+00  0.626565E+00  0.666304E+00  0.700005E+00
  0.727158E+00  0.747958E+00  0.762783E+00  0.775934E+00  0.782550E+00  0.782550E+00
  0.775934E+00  0.762759E+00  0.742938E+00  0.716074E+00  0.681606E+00  0.639315E+00
  0.589921E+00  0.535488E+00  0.479423E+00  0.425770E+00  0.377787E+00  0.336835E+00
  0.302721E+00  0.275088E+00  0.254071E+00  0.239578E+00  0.230540E+00  0.225346E+00
  0.222906E+00  0.222906E+00  0.225346E+00  0.230540E+00  0.239578E+00  0.254071E+00
  0.275088E+00  0.302721E+00  0.336835E+00  0.377787E+00  0.425770E+00  0.479423E+00
  0.535488E+00  0.589921E+00  0.639315E+00  0.681606E+00  0.716074E+00  0.742938E+00
  0.762759E+00  0.775934E+00  0.789479E+00  0.792887E+00  0.789479E+00  0.779172E+00
  0.761703E+00  0.736608E+00  0.703281E+00  0.661224E+00  0.610475E+00  0.552194E+00
  0.489174E+00  0.425770E+00  0.366662E+00  0.315061E+00  0.271949E+00  0.236971E+00
  0.209676E+00  0.189685E+00  0.176133E+00  0.167611E+00  0.162867E+00  0.161323E+00
  0.162867E+00  0.167611E+00  0.176133E+00  0.189685E+00  0.209676E+00  0.236971E+00
  0.271949E+00  0.315061E+00  0.366662E+00  0.425770E+00  0.489174E+00  0.552194E+00
  0.610475E+00  0.661224E+00  0.703281E+00  0.736608E+00  0.761703E+00  0.779172E+00
  0.789479E+00  0.803188E+00  0.803188E+00  0.796329E+00  0.782219E+00  0.760179E+00
  0.729441E+00  0.689370E+00  0.639758E+00  0.581188E+00  0.515507E+00  0.446147E+00
  0.377787E+00  0.315061E+00  0.261101E+00  0.217075E+00  0.182783E+00  0.157337E+00
  0.139386E+00  0.127318E+00  0.119777E+00  0.116081E+00  0.116081E+00  0.119777E+00
  0.127318E+00  0.139386E+00  0.157337E+00  0.182783E+00  0.217075E+00  0.261101E+00
  0.315061E+00  0.377787E+00  0.446147E+00  0.515507E+00  0.581188E+00  0.639758E+00
  0.689370E+00  0.729441E+00  0.760179E+00  0.782219E+00  0.796329E+00  0.803188E+00
  0.817138E+00  0.813794E+00  0.803499E+00  0.785531E+00  0.758897E+00  0.722610E+00
  0.676045E+00  0.619366E+00  0.553899E+00  0.482304E+00  0.408431E+00  0.336835E+00
  0.271949E+00  0.217075E+00  0.173694E+00  0.141423E+00  0.118539E+00  0.102802E+00
  0.923386E-01  0.861746E-01  0.841093E-01  0.861746E-01  0.923386E-01  0.102802E+00
  0.118539E+00  0.141423E+00  0.173694E+00  0.217075E+00  0.271949E+00  0.336835E+00
  0.408431E+00  0.482304E+00  0.553899E+00  0.619366E+00  0.676045E+00  0.722610E+00
  0.758897E+00  0.785531E+00  0.803499E+00  0.813794E+00  0.817138E+00  0.830375E+00
  0.823882E+00  0.810395E+00  0.788979E+00  0.758404E+00  0.717435E+00  0.665346E+00
  0.602559E+00  0.531078E+00  0.454340E+00  0.376666E+00  0.302721E+00  0.236971E+00
  0.182783E+00  0.141423E+00  0.111834E+00  0.914953E-01  0.778040E-01  0.690849E-01
  0.647418E-01  0.647418E-01  0.690849E-01  0.778040E-01  0.914953E-01  0.111834E+00
  0.141423E+00  0.182783E+00  0.236971E+00  0.302721E+00  0.376666E+00  0.454340E+00
  0.531078E+00  0.602559E+00  0.665346E+00  0.717435E+00  0.758404E+00  0.788979E+00
  0.810395E+00  0.823882E+00  0.830375E+00  0.830375E+00  0.841850E+00  0.832599E+00
  0.816466E+00  0.792375E+00  0.758897E+00  0.714537E+00  0.658326E+00  0.590640E+00
  0.513817E+00  0.432080E+00  0.350727E+00  0.275088E+00  0.209676E+00  0.157337E+00
  0.118539E+00  0.914953E-01  0.733511E-01  0.616181E-01  0.548912E-01  0.526775E-01
  0.548912E-01  0.616181E-01  0.733511E-01  0.914953E-01  0.118539E+00  0.157337E+00
  0.209676E+00  0.275088E+00  0.350727E+00  0.432080E+00  0.513817E+00  0.590640E+00
  0.658326E+00  0.714537E+00  0.758897E+00  0.792375E+00  0.816466E+00  0.832599E+00
  0.841850E+00  0.844862E+00  0.841850E+00  0.851685E+00  0.840153E+00  0.821904E+00
  0.795758E+00  0.760179E+00  0.713501E+00  0.654443E+00  0.583011E+00  0.501562E+00
  0.415208E+00  0.330651E+00  0.254071E+00  0.189685E+00  0.139386E+00  0.102802E+00
  0.778040E-01  0.616181E-01  0.519413E-01  0.473963E-01  0.473963E-01  0.519413E-01
  0.616181E-01  0.778040E-01  0.102802E+00  0.139386E+00  0.189685E+00  0.254071E+00
  0.330651E+00  0.415208E+00  0.501562E+00  0.583011E+00  0.654443E+00  0.713501E+00
  0.760179E+00  0.795758E+00  0.821904E+00  0.840153E+00  0.851685E+00  0.857267E+00
  0.857267E+00  0.851685E+00  0.860388E+00  0.846985E+00  0.826949E+00  0.799032E+00
  0.761703E+00  0.713258E+00  0.652157E+00  0.577993E+00  0.493075E+00  0.403295E+00
  0.316554E+00  0.239578E+00  0.176133E+00  0.127318E+00  0.923386E-01  0.690849E-01
  0.548912E-01  0.473963E-01  0.450718E-01  0.473963E-01  0.548912E-01  0.690849E-01
  0.923386E-01  0.127318E+00  0.176133E+00  0.239578E+00  0.316554E+00  0.403295E+00
  0.493075E+00  0.577993E+00  0.652157E+00  0.713258E+00  0.761703E+00  0.799032E+00
  0.826949E+00  0.846985E+00  0.860388E+00  0.868069E+00  0.870569E+00  0.868069E+00
  0.860388E+00  0.867364E+00  0.852525E+00  0.831057E+00  0.801637E+00  0.762759E+00
  0.712770E+00  0.650093E+00  0.574204E+00  0.487377E+00  0.395767E+00  0.307796E+00
  0.230540E+00  0.167611E+00  0.119777E+00  0.861746E-01  0.647418E-01  0.526775E-01
  0.473963E-01  0.473963E-01  0.526775E-01  0.647418E-01  0.861746E-01  0.119777E+00
  0.167611E+00  0.230540E+00  0.307796E+00  0.395767E+00  0.487377E+00  0.574204E+00
  0.650093E+00  0.712770E+00  0.762759E+00  0.801637E+00  0.831057E+00  0.852525E+00
  0.867364E+00  0.876646E+00  0.881105E+00  0.881105E+00  0.876646E+00  0.867364E+00
  0.871116E+00  0.855442E+00  0.833164E+00  0.802802E+00  0.762783E+00  0.711558E+00
  0.647830E+00  0.571254E+00  0.483899E+00  0.391563E+00  0.302838E+00  0.225346E+00
  0.162867E+00  0.116081E+00  0.841093E-01  0.647418E-01  0.548912E-01  0.519413E-01
  0.548912E-01  0.647418E-01  0.841093E-01  0.116081E+00  0.162867E+00  0.225346E+00
  0.302838E+00  0.391563E+00  0.483899E+00  0.571254E+00  0.647830E+00  0.711558E+00
  0.762783E+00  0.802802E+00  0.833164E+00  0.855442E+00  0.871116E+00  0.881429E+00
  0.887273E+00  0.889167E+00  0.887273E+00  0.881429E+00  0.871116E+00  0.870561E+00
  0.854811E+00  0.832564E+00  0.802094E+00  0.761664E+00  0.709869E+00  0.645828E+00
  0.569373E+00  0.482113E+00  0.389399E+00  0.300233E+00  0.222906E+00  0.161323E+00
  0.116081E+00  0.861746E-01  0.690849E-01  0.616181E-01  0.616181E-01  0.690849E-01
  0.861746E-01  0.116081E+00  0.161323E+00  0.222906E+00  0.300233E+00  0.389399E+00
  0.482113E+00  0.569373E+00  0.645828E+00  0.709869E+00  0.761664E+00  0.802094E+00
  0.832564E+00  0.854811E+00  0.870561E+00  0.881245E+00  0.887875E+00  0.891056E+00
  0.891056E+00  0.887875E+00  0.881245E+00  0.870561E+00  0.865620E+00  0.850692E+00
  0.829402E+00  0.799767E+00  0.759861E+00  0.708367E+00  0.644672E+00  0.568600E+00
  0.481393E+00  0.388443E+00  0.299387E+00  0.222906E+00  0.162867E+00  0.119777E+00
  0.923386E-01  0.778040E-01  0.733511E-01  0.778040E-01  0.923386E-01  0.119777E+00
  0.162867E+00  0.222906E+00  0.299387E+00  0.388443E+00  0.481393E+00  0.568600E+00
  0.644672E+00  0.708367E+00  0.759861E+00  0.799767E+00  0.829402E+00  0.850692E+00
  0.865620E+00  0.875814E+00  0.882418E+00  0.886138E+00  0.887341E+00  0.886138E+00
  0.882418E+00  0.875814E+00  0.865620E+00  0.856974E+00  0.843999E+00  0.824632E+00
  0.796707E+00  0.758124E+00  0.707519E+00  0.644356E+00  0.568473E+00  0.481219E+00
  0.388443E+00  0.300233E+00  0.225346E+00  0.167611E+00  0.127318E+00  0.102802E+00
  0.914953E-01  0.914953E-01  0.102802E+00  0.127318E+00  0.167611E+00  0.225346E+00
  0.300233E+00  0.388443E+00  0.481219E+00  0.568473E+00  0.644356E+00  0.707519E+00
  0.758124E+00  0.796707E+00  0.824632E+00  0.843999E+00  0.856974E+00  0.865327E+00
  0.870384E+00  0.873142E+00  0.874324E+00  0.874324E+00  0.873142E+00  0.870384E+00
  0.865327E+00  0.856974E+00  0.845901E+00  0.836261E+00  0.819684E+00  0.794000E+00
  0.756997E+00  0.707249E+00  0.644355E+00  0.568473E+00  0.481393E+00  0.389399E+00
  0.302838E+00  0.230540E+00  0.176133E+00  0.139386E+00  0.118539E+00  0.111834E+00
  0.118539E+00  0.139386E+00  0.176133E+00  0.230540E+00  0.302838E+00  0.389399E+00
  0.481393E+00  0.568473E+00  0.644355E+00  0.707249E+00  0.756997E+00  0.794000E+00
  0.819684E+00  0.836261E+00  0.845901E+00  0.850303E+00  0.850890E+00  0.849241E+00
  0.847174E+00  0.846272E+00  0.847174E+00  0.849241E+00  0.850890E+00  0.850303E+00
  0.845901E+00  0.834502E+00  0.829410E+00  0.816013E+00  0.792461E+00  0.756626E+00
  0.707249E+00  0.644356E+00  0.568600E+00  0.482113E+00  0.391563E+00  0.307796E+00
  0.239578E+00  0.189685E+00  0.157337E+00  0.141423E+00  0.141423E+00  0.157337E+00
  0.189685E+00  0.239578E+00  0.307796E+00  0.391563E+00  0.482113E+00  0.568600E+00
  0.644356E+00  0.707249E+00  0.756626E+00  0.792461E+00  0.816013E+00  0.829410E+00
  0.834502E+00  0.832366E+00  0.823902E+00  0.811116E+00  0.797963E+00  0.789531E+00
  0.789531E+00  0.797963E+00  0.811116E+00  0.823902E+00  0.832366E+00  0.834502E+00
  0.825711E+00  0.825368E+00  0.814666E+00  0.792461E+00  0.756997E+00  0.707519E+00
  0.644672E+00  0.569373E+00  0.483899E+00  0.395767E+00  0.316554E+00  0.254071E+00
  0.209676E+00  0.182783E+00  0.173694E+00  0.182783E+00  0.209676E+00  0.254071E+00
  0.316554E+00  0.395767E+00  0.483899E+00  0.569373E+00  0.644672E+00  0.707519E+00
  0.756997E+00  0.792461E+00  0.814666E+00  0.825368E+00  0.825711E+00  0.815292E+00
  0.792954E+00  0.759459E+00  0.720901E+00  0.689240E+00  0.676926E+00  0.689240E+00
  0.720901E+00  0.759459E+00  0.792954E+00  0.815292E+00  0.825711E+00  0.822375E+00
  0.825368E+00  0.816013E+00  0.794000E+00  0.758124E+00  0.708367E+00  0.645828E+00
  0.571254E+00  0.487377E+00  0.403295E+00  0.330651E+00  0.275088E+00  0.236971E+00
  0.217075E+00  0.217075E+00  0.236971E+00  0.275088E+00  0.330651E+00  0.403295E+00
  0.487377E+00  0.571254E+00  0.645828E+00  0.708367E+00  0.758124E+00  0.794000E+00
  0.816013E+00  0.825368E+00  0.822375E+00  0.804584E+00  0.766890E+00  0.705363E+00
  0.625811E+00  0.549610E+00  0.503559E+00  0.503559E+00  0.549610E+00  0.625811E+00
  0.705363E+00  0.766890E+00  0.804584E+00  0.822375E+00  0.825711E+00  0.829410E+00
  0.819684E+00  0.796707E+00  0.759861E+00  0.709869E+00  0.647830E+00  0.574204E+00
  0.493075E+00  0.415208E+00  0.350727E+00  0.302721E+00  0.271949E+00  0.261101E+00
  0.271949E+00  0.302721E+00  0.350727E+00  0.415208E+00  0.493075E+00  0.574204E+00
  0.647830E+00  0.709869E+00  0.759861E+00  0.796707E+00  0.819684E+00  0.829410E+00
  0.825711E+00  0.804584E+00  0.756525E+00  0.669685E+00  0.545248E+00  0.416158E+00
  0.326854E+00  0.296564E+00  0.326854E+00  0.416158E+00  0.545248E+00  0.669685E+00
  0.756525E+00  0.804584E+00  0.825711E+00  0.834502E+00  0.836261E+00  0.824632E+00
  0.799767E+00  0.761664E+00  0.711558E+00  0.650093E+00  0.577993E+00  0.501562E+00
  0.432080E+00  0.376666E+00  0.336835E+00  0.315061E+00  0.315061E+00  0.336835E+00
  0.376666E+00  0.432080E+00  0.501562E+00  0.577993E+00  0.650093E+00  0.711558E+00
  0.761664E+00  0.799767E+00  0.824632E+00  0.836261E+00  0.834502E+00  0.815292E+00
  0.766890E+00  0.669685E+00  0.513969E+00  0.340468E+00  0.217618E+00  0.163247E+00
  0.163247E+00  0.217618E+00  0.340468E+00  0.513969E+00  0.669685E+00  0.766890E+00
  0.815292E+00  0.834502E+00  0.845901E+00  0.843999E+00  0.829402E+00  0.802094E+00
  0.762783E+00  0.712770E+00  0.652157E+00  0.583011E+00  0.513817E+00  0.454340E+00
  0.408431E+00  0.377787E+00  0.366662E+00  0.377787E+00  0.408431E+00  0.454340E+00
  0.513817E+00  0.583011E+00  0.652157E+00  0.712770E+00  0.762783E+00  0.802094E+00
  0.829402E+00  0.843999E+00  0.845901E+00  0.832366E+00  0.792954E+00  0.705363E+00
  0.545248E+00  0.340468E+00  0.184365E+00  0.111349E+00  0.924047E-01  0.111349E+00
  0.184365E+00  0.340468E+00  0.545248E+00  0.705363E+00  0.792954E+00  0.832366E+00
  0.845901E+00  0.856974E+00  0.850692E+00  0.832564E+00  0.802802E+00  0.762759E+00
  0.713258E+00  0.654443E+00  0.590640E+00  0.531078E+00  0.482304E+00  0.446147E+00
  0.425770E+00  0.425770E+00  0.446147E+00  0.482304E+00  0.531078E+00  0.590640E+00
  0.654443E+00  0.713258E+00  0.762759E+00  0.802802E+00  0.832564E+00  0.850692E+00
  0.856974E+00  0.850303E+00  0.823902E+00  0.759459E+00  0.625811E+00  0.416158E+00
  0.217618E+00  0.111349E+00  0.752096E-01  0.752096E-01  0.111349E+00  0.217618E+00
  0.416158E+00  0.625811E+00  0.759459E+00  0.823902E+00  0.850303E+00  0.856974E+00
  0.865620E+00  0.854811E+00  0.833164E+00  0.801637E+00  0.761703E+00  0.713501E+00
  0.658326E+00  0.602559E+00  0.553899E+00  0.515507E+00  0.489174E+00  0.479423E+00
  0.489174E+00  0.515507E+00  0.553899E+00  0.602559E+00  0.658326E+00  0.713501E+00
  0.761703E+00  0.801637E+00  0.833164E+00  0.854811E+00  0.865620E+00  0.865327E+00
  0.850890E+00  0.811116E+00  0.720901E+00  0.549610E+00  0.326854E+00  0.163247E+00
  0.924047E-01  0.752096E-01  0.924047E-01  0.163247E+00  0.326854E+00  0.549610E+00
  0.720901E+00  0.811116E+00  0.850890E+00  0.865327E+00  0.865620E+00  0.870561E+00
  0.855442E+00  0.831057E+00  0.799032E+00  0.760179E+00  0.714537E+00  0.665346E+00
  0.619366E+00  0.581188E+00  0.552194E+00  0.535488E+00  0.535488E+00  0.552194E+00
  0.581188E+00  0.619366E+00  0.665346E+00  0.714537E+00  0.760179E+00  0.799032E+00
  0.831057E+00  0.855442E+00  0.870561E+00  0.875814E+00  0.870384E+00  0.849241E+00
  0.797963E+00  0.689240E+00  0.503559E+00  0.296564E+00  0.163247E+00  0.111349E+00
  0.111349E+00  0.163247E+00  0.296564E+00  0.503559E+00  0.689240E+00  0.797963E+00
  0.849241E+00  0.870384E+00  0.875814E+00  0.870561E+00  0.871116E+00  0.852525E+00
  0.826949E+00  0.795758E+00  0.758897E+00  0.717435E+00  0.676045E+00  0.639758E+00
  0.610475E+00  0.589921E+00  0.582218E+00  0.589921E+00  0.610475E+00  0.639758E+00
  0.676045E+00  0.717435E+00  0.758897E+00  0.795758E+00  0.826949E+00  0.852525E+00
  0.871116E+00  0.881245E+00  0.882418E+00  0.873142E+00  0.847174E+00  0.789531E+00
  0.676926E+00  0.503559E+00  0.326854E+00  0.217618E+00  0.184365E+00  0.217618E+00
  0.326854E+00  0.503559E+00  0.676926E+00  0.789531E+00  0.847174E+00  0.873142E+00
  0.882418E+00  0.881245E+00  0.871116E+00  0.867364E+00  0.846985E+00  0.821904E+00
  0.792375E+00  0.758404E+00  0.722610E+00  0.689370E+00  0.661224E+00  0.639315E+00
  0.626565E+00  0.626565E+00  0.639315E+00  0.661224E+00  0.689370E+00  0.722610E+00
  0.758404E+00  0.792375E+00  0.821904E+00  0.846985E+00  0.867364E+00  0.881429E+00
  0.887875E+00  0.886138E+00  0.874324E+00  0.846272E+00  0.789531E+00  0.689240E+00
  0.549610E+00  0.416158E+00  0.340468E+00  0.340468E+00  0.416158E+00  0.549610E+00
  0.689240E+00  0.789531E+00  0.846272E+00  0.874324E+00  0.886138E+00  0.887875E+00
  0.881429E+00  0.867364E+00  0.860388E+00  0.840153E+00  0.816466E+00  0.788979E+00
  0.758897E+00  0.729441E+00  0.703281E+00  0.681606E+00  0.666304E+00  0.660614E+00
  0.666304E+00  0.681606E+00  0.703281E+00  0.729441E+00  0.758897E+00  0.788979E+00
  0.816466E+00  0.840153E+00  0.860388E+00  0.876646E+00  0.887273E+00  0.891056E+00
  0.887341E+00  0.874324E+00  0.847174E+00  0.797963E+00  0.720901E+00  0.625811E+00
  0.545248E+00  0.513969E+00  0.545248E+00  0.625811E+00  0.720901E+00  0.797963E+00
  0.847174E+00  0.874324E+00  0.887341E+00  0.891056E+00  0.887273E+00  0.876646E+00
  0.860388E+00  0.851685E+00  0.832599E+00  0.810395E+00  0.785531E+00  0.760179E+00
  0.736608E+00  0.716074E+00  0.700005E+00  0.690872E+00  0.690872E+00  0.700005E+00
  0.716074E+00  0.736608E+00  0.760179E+00  0.785531E+00  0.810395E+00  0.832599E+00
  0.851685E+00  0.868069E+00  0.881105E+00  0.889167E+00  0.891056E+00  0.886138E+00
  0.873142E+00  0.849241E+00  0.811116E+00  0.759459E+00  0.705363E+00  0.669685E+00
  0.669685E+00  0.705363E+00  0.759459E+00  0.811116E+00  0.849241E+00  0.873142E+00
  0.886138E+00  0.891056E+00  0.889167E+00  0.881105E+00  0.868069E+00  0.851685E+00
  0.841850E+00  0.823882E+00  0.803499E+00  0.782219E+00  0.761703E+00  0.742938E+00
  0.727158E+00  0.716386E+00  0.712544E+00  0.716386E+00  0.727158E+00  0.742938E+00
  0.761703E+00  0.782219E+00  0.803499E+00  0.823882E+00  0.841850E+00  0.857267E+00
  0.870569E+00  0.881105E+00  0.887273E+00  0.887875E+00  0.882418E+00  0.870384E+00
  0.850890E+00  0.823902E+00  0.792954E+00  0.766890E+00  0.756525E+00  0.766890E+00
  0.792954E+00  0.823902E+00  0.850890E+00  0.870384E+00  0.882418E+00  0.887875E+00
  0.887273E+00  0.881105E+00  0.870569E+00  0.857267E+00  0.841850E+00  0.830375E+00
  0.813794E+00  0.796329E+00  0.779172E+00  0.762759E+00  0.747958E+00  0.736668E+00
  0.730654E+00  0.730654E+00  0.736668E+00  0.747958E+00  0.762759E+00  0.779172E+00
  0.796329E+00  0.813794E+00  0.830375E+00  0.844862E+00  0.857267E+00  0.868069E+00
  0.876646E+00  0.881429E+00  0.881245E+00  0.875814E+00  0.865327E+00  0.850303E+00
  0.832366E+00  0.815292E+00  0.804584E+00  0.804584E+00  0.815292E+00  0.832366E+00
  0.850303E+00  0.865327E+00  0.875814E+00  0.881245E+00  0.881429E+00  0.876646E+00
  0.868069E+00  0.857267E+00  0.844862E+00  0.830375E+00  0.817138E+00  0.803188E+00
  0.789479E+00  0.775934E+00  0.762783E+00  0.751702E+00  0.744625E+00  0.742273E+00
  0.744625E+00  0.751702E+00  0.762783E+00  0.775934E+00  0.789479E+00  0.803188E+00
  0.817138E+00  0.830375E+00  0.841850E+00  0.851685E+00  0.860388E+00  0.867364E+00
  0.871116E+00  0.870561E+00  0.865620E+00  0.856974E+00  0.845901E+00  0.834502E+00
  0.825711E+00  0.822375E+00  0.825711E+00  0.834502E+00  0.845901E+00  0.856974E+00
  0.865620E+00  0.870561E+00  0.871116E+00  0.867364E+00  0.860388E+00  0.851685E+00
  0.841850E+00  0.830375E+00  0.817138E+00  0.847178E+00  0.836424E+00  0.825316E+00
  0.813565E+00  0.802094E+00  0.793042E+00  0.788194E+00  0.788194E+00  0.793042E+00
  0.802094E+00  0.813565E+00  0.825316E+00  0.836424E+00  0.847178E+00  0.857485E+00
  0.866391E+00  0.873354E+00  0.878847E+00  0.883233E+00  0.885756E+00  0.885046E+00
  0.880140E+00  0.870887E+00  0.858014E+00  0.843404E+00  0.830264E+00  0.822375E+00
  0.822375E+00  0.830264E+00  0.843404E+00  0.858014E+00  0.870887E+00  0.880140E+00
  0.885046E+00  0.885756E+00  0.883233E+00  0.878847E+00  0.873354E+00  0.866391E+00
  0.857485E+00  0.847178E+00  0.836424E+00  0.828254E+00  0.818968E+00  0.808848E+00
  0.799767E+00  0.793768E+00  0.791738E+00  0.793768E+00  0.799767E+00  0.808848E+00
  0.818968E+00  0.828254E+00  0.836424E+00  0.844211E+00  0.851675E+00  0.857951E+00
  0.862563E+00  0.865971E+00  0.868584E+00  0.869821E+00  0.868463E+00  0.863649E+00
  0.855510E+00  0.845328E+00  0.835329E+00  0.828034E+00  0.825368E+00  0.828034E+00
  0.835329E+00  0.845328E+00  0.855510E+00  0.863649E+00  0.868463E+00  0.869821E+00
  0.868584E+00  0.865971E+00  0.862563E+00  0.857951E+00  0.851675E+00  0.844211E+00
  0.836424E+00  0.825316E+00  0.818968E+00  0.811098E+00  0.803006E+00  0.796707E+00
  0.793441E+00  0.793441E+00  0.796707E+00  0.803006E+00  0.811098E+00  0.818968E+00
  0.825316E+00  0.830395E+00  0.835101E+00  0.839561E+00  0.843091E+00  0.845300E+00
  0.846574E+00  0.847340E+00  0.847223E+00  0.845200E+00  0.840541E+00  0.833611E+00
  0.825947E+00  0.819562E+00  0.816013E+00  0.816013E+00  0.819562E+00  0.825947E+00
  0.833611E+00  0.840541E+00  0.845200E+00  0.847223E+00  0.847340E+00  0.846574E+00
  0.845300E+00  0.843091E+00  0.839561E+00  0.835101E+00  0.830395E+00  0.825316E+00
  0.813565E+00  0.808848E+00  0.803006E+00  0.797597E+00  0.794000E+00  0.792777E+00
  0.794000E+00  0.797597E+00  0.803006E+00  0.808848E+00  0.813565E+00  0.816484E+00
  0.818094E+00  0.819245E+00  0.820212E+00  0.820625E+00  0.820212E+00  0.819245E+00
  0.818094E+00  0.816484E+00  0.813565E+00  0.808848E+00  0.803006E+00  0.797597E+00
  0.794000E+00  0.792777E+00  0.794000E+00  0.797597E+00  0.803006E+00  0.808848E+00
  0.813565E+00  0.816484E+00  0.818094E+00  0.819245E+00  0.820212E+00  0.820625E+00
  0.820212E+00  0.819245E+00  0.818094E+00  0.816484E+00  0.813565E+00  0.802094E+00
  0.799767E+00  0.796707E+00  0.794000E+00  0.792461E+00  0.792461E+00  0.794000E+00
  0.796707E+00  0.799767E+00  0.802094E+00  0.802802E+00  0.801637E+00  0.799032E+00
  0.795758E+00  0.792375E+00  0.788979E+00  0.785531E+00  0.782219E+00  0.779172E+00
  0.775934E+00  0.771764E+00  0.766647E+00  0.761669E+00  0.758124E+00  0.756457E+00
  0.756457E+00  0.758124E+00  0.761669E+00  0.766647E+00  0.771764E+00  0.775934E+00
  0.779172E+00  0.782219E+00  0.785531E+00  0.788979E+00  0.792375E+00  0.795758E+00
  0.799032E+00  0.801637E+00  0.802802E+00  0.802094E+00  0.793042E+00  0.793768E+00
  0.793441E+00  0.792777E+00  0.792461E+00  0.792777E+00  0.793441E+00  0.793768E+00
  0.793042E+00  0.790746E+00  0.786564E+00  0.780395E+00  0.772502E+00  0.763623E+00
  0.754705E+00  0.746479E+00  0.739381E+00  0.733578E+00  0.728674E+00  0.723719E+00
  0.718127E+00  0.712551E+00  0.708367E+00  0.706227E+00  0.705657E+00  0.706227E+00
  0.708367E+00  0.712551E+00  0.718127E+00  0.723719E+00  0.728674E+00  0.733578E+00
  0.739381E+00  0.746479E+00  0.754705E+00  0.763623E+00  0.772502E+00  0.780395E+00
  0.786564E+00  0.790746E+00  0.793042E+00  0.788194E+00  0.791738E+00  0.793441E+00
  0.794000E+00  0.794000E+00  0.793441E+00  0.791738E+00  0.788194E+00  0.782459E+00
  0.774528E+00  0.764434E+00  0.752108E+00  0.737684E+00  0.721908E+00  0.706145E+00
  0.691944E+00  0.680442E+00  0.671757E+00  0.664777E+00  0.658070E+00  0.651364E+00
  0.645828E+00  0.642597E+00  0.641433E+00  0.641433E+00  0.642597E+00  0.645828E+00
  0.651364E+00  0.658070E+00  0.664777E+00  0.671757E+00  0.680442E+00  0.691944E+00
  0.706145E+00  0.721908E+00  0.737684E+00  0.752108E+00  0.764434E+00  0.774528E+00
  0.782459E+00  0.788194E+00  0.788194E+00  0.793768E+00  0.796707E+00  0.797597E+00
  0.796707E+00  0.793768E+00  0.788194E+00  0.779529E+00  0.767738E+00  0.753104E+00
  0.735872E+00  0.716076E+00  0.693853E+00  0.670036E+00  0.646469E+00  0.625527E+00
  0.608913E+00  0.596559E+00  0.586874E+00  0.578414E+00  0.571254E+00  0.566423E+00
  0.564183E+00  0.563643E+00  0.564183E+00  0.566423E+00  0.571254E+00  0.578414E+00
  0.586874E+00  0.596559E+00  0.608913E+00  0.625527E+00  0.646469E+00  0.670036E+00
  0.693853E+00  0.716076E+00  0.735872E+00  0.753104E+00  0.767738E+00  0.779529E+00
  0.788194E+00  0.793042E+00  0.799767E+00  0.803006E+00  0.803006E+00  0.799767E+00
  0.793042E+00  0.782459E+00  0.767738E+00  0.748922E+00  0.726396E+00  0.700629E+00
  0.671936E+00  0.640735E+00  0.608249E+00  0.576863E+00  0.549350E+00  0.527332E+00
  0.510505E+00  0.497490E+00  0.487377E+00  0.480256E+00  0.476271E+00  0.474742E+00
  0.474742E+00  0.476271E+00  0.480256E+00  0.487377E+00  0.497490E+00  0.510505E+00
  0.527332E+00  0.549350E+00  0.576863E+00  0.608249E+00  0.640735E+00  0.671936E+00
  0.700629E+00  0.726396E+00  0.748922E+00  0.767738E+00  0.782459E+00  0.793042E+00
  0.802094E+00  0.808848E+00  0.811098E+00  0.808848E+00  0.802094E+00  0.790746E+00
  0.774528E+00  0.753104E+00  0.726396E+00  0.694809E+00  0.659087E+00  0.620109E+00
  0.579136E+00  0.538271E+00  0.500266E+00  0.467400E+00  0.440537E+00  0.419363E+00
  0.403295E+00  0.391990E+00  0.385068E+00  0.381671E+00  0.380709E+00  0.381671E+00
  0.385068E+00  0.391990E+00  0.403295E+00  0.419363E+00  0.440537E+00  0.467400E+00
  0.500266E+00  0.538271E+00  0.579136E+00  0.620109E+00  0.659087E+00  0.694809E+00
  0.726396E+00  0.753104E+00  0.774528E+00  0.790746E+00  0.802094E+00  0.813565E+00
  0.818968E+00  0.818968E+00  0.813565E+00  0.802802E+00  0.786564E+00  0.764434E+00
  0.735872E+00  0.700629E+00  0.659087E+00  0.612350E+00  0.562314E+00  0.511744E+00
  0.463843E+00  0.421131E+00  0.384671E+00  0.354522E+00  0.330651E+00  0.313132E+00
  0.301652E+00  0.295194E+00  0.292422E+00  0.292422E+00  0.295194E+00  0.301652E+00
  0.313132E+00  0.330651E+00  0.354522E+00  0.384671E+00  0.421131E+00  0.463843E+00
  0.511744E+00  0.562314E+00  0.612350E+00  0.659087E+00  0.700629E+00  0.735872E+00
  0.764434E+00  0.786564E+00  0.802802E+00  0.813565E+00  0.825316E+00  0.828254E+00
  0.825316E+00  0.816484E+00  0.801637E+00  0.780395E+00  0.752108E+00  0.716076E+00
  0.671936E+00  0.620109E+00  0.562314E+00  0.501898E+00  0.443280E+00  0.390259E+00
  0.344582E+00  0.306280E+00  0.275088E+00  0.251103E+00  0.234262E+00  0.223749E+00
  0.218222E+00  0.216525E+00  0.218222E+00  0.223749E+00  0.234262E+00  0.251103E+00
  0.275088E+00  0.306280E+00  0.344582E+00  0.390259E+00  0.443280E+00  0.501898E+00
  0.562314E+00  0.620109E+00  0.671936E+00  0.716076E+00  0.752108E+00  0.780395E+00
  0.801637E+00  0.816484E+00  0.825316E+00  0.836424E+00  0.836424E+00  0.830395E+00
  0.818094E+00  0.799032E+00  0.772502E+00  0.737684E+00  0.693853E+00  0.640735E+00
  0.579136E+00  0.511744E+00  0.443280E+00  0.379039E+00  0.322672E+00  0.275379E+00
  0.236971E+00  0.207057E+00  0.185174E+00  0.170405E+00  0.161478E+00  0.157302E+00
  0.157302E+00  0.161478E+00  0.170405E+00  0.185174E+00  0.207057E+00  0.236971E+00
  0.275379E+00  0.322672E+00  0.379039E+00  0.443280E+00  0.511744E+00  0.579136E+00
  0.640735E+00  0.693853E+00  0.737684E+00  0.772502E+00  0.799032E+00  0.818094E+00
  0.830395E+00  0.836424E+00  0.847178E+00  0.844211E+00  0.835101E+00  0.819245E+00
  0.795758E+00  0.763623E+00  0.721908E+00  0.670036E+00  0.608249E+00  0.538271E+00
  0.463843E+00  0.390259E+00  0.322672E+00  0.264484E+00  0.217075E+00  0.180393E+00
  0.153454E+00  0.134650E+00  0.122273E+00  0.115149E+00  0.112804E+00  0.115149E+00
  0.122273E+00  0.134650E+00  0.153454E+00  0.180393E+00  0.217075E+00  0.264484E+00
  0.322672E+00  0.390259E+00  0.463843E+00  0.538271E+00  0.608249E+00  0.670036E+00
  0.721908E+00  0.763623E+00  0.795758E+00  0.819245E+00  0.835101E+00  0.844211E+00
  0.847178E+00  0.857485E+00  0.851675E+00  0.839561E+00  0.820212E+00  0.792375E+00
  0.754705E+00  0.706145E+00  0.646469E+00  0.576863E+00  0.500266E+00  0.421131E+00
  0.344582E+00  0.275379E+00  0.217075E+00  0.171389E+00  0.137906E+00  0.114535E+00
  0.987199E-01  0.886433E-01  0.836237E-01  0.836237E-01  0.886433E-01  0.987199E-01
  0.114535E+00  0.137906E+00  0.171389E+00  0.217075E+00  0.275379E+00  0.344582E+00
  0.421131E+00  0.500266E+00  0.576863E+00  0.646469E+00  0.706145E+00  0.754705E+00
  0.792375E+00  0.820212E+00  0.839561E+00  0.851675E+00  0.857485E+00  0.857485E+00
  0.866391E+00  0.857951E+00  0.843091E+00  0.820625E+00  0.788979E+00  0.746479E+00
  0.691944E+00  0.625527E+00  0.549350E+00  0.467400E+00  0.384671E+00  0.306280E+00
  0.236971E+00  0.180393E+00  0.137906E+00  0.108104E+00  0.879811E-01  0.747895E-01
  0.670839E-01  0.645142E-01  0.670839E-01  0.747895E-01  0.879811E-01  0.108104E+00
  0.137906E+00  0.180393E+00  0.236971E+00  0.306280E+00  0.384671E+00  0.467400E+00
  0.549350E+00  0.625527E+00  0.691944E+00  0.746479E+00  0.788979E+00  0.820625E+00
  0.843091E+00  0.857951E+00  0.866391E+00  0.869125E+00  0.866391E+00  0.873354E+00
  0.862563E+00  0.845300E+00  0.820212E+00  0.785531E+00  0.739381E+00  0.680442E+00
  0.608913E+00  0.527332E+00  0.440537E+00  0.354522E+00  0.275088E+00  0.207057E+00
  0.153454E+00  0.114535E+00  0.879811E-01  0.705824E-01  0.598989E-01  0.547408E-01
  0.547408E-01  0.598989E-01  0.705824E-01  0.879811E-01  0.114535E+00  0.153454E+00
  0.207057E+00  0.275088E+00  0.354522E+00  0.440537E+00  0.527332E+00  0.608913E+00
  0.680442E+00  0.739381E+00  0.785531E+00  0.820212E+00  0.845300E+00  0.862563E+00
  0.873354E+00  0.878541E+00  0.878541E+00  0.873354E+00  0.878847E+00  0.865971E+00
  0.846574E+00  0.819245E+00  0.782219E+00  0.733578E+00  0.671757E+00  0.596559E+00
  0.510505E+00  0.419363E+00  0.330651E+00  0.251103E+00  0.185174E+00  0.134650E+00
  0.987199E-01  0.747895E-01  0.598989E-01  0.517974E-01  0.492274E-01  0.517974E-01
  0.598989E-01  0.747895E-01  0.987199E-01  0.134650E+00  0.185174E+00  0.251103E+00
  0.330651E+00  0.419363E+00  0.510505E+00  0.596559E+00  0.671757E+00  0.733578E+00
  0.782219E+00  0.819245E+00  0.846574E+00  0.865971E+00  0.878847E+00  0.886192E+00
  0.888578E+00  0.886192E+00  0.878847E+00  0.883233E+00  0.868584E+00  0.847340E+00
  0.818094E+00  0.779172E+00  0.728674E+00  0.664777E+00  0.586874E+00  0.497490E+00
  0.403295E+00  0.313132E+00  0.234262E+00  0.170405E+00  0.122273E+00  0.886433E-01
  0.670839E-01  0.547408E-01  0.492274E-01  0.492274E-01  0.547408E-01  0.670839E-01
  0.886433E-01  0.122273E+00  0.170405E+00  0.234262E+00  0.313132E+00  0.403295E+00
  0.497490E+00  0.586874E+00  0.664777E+00  0.728674E+00  0.779172E+00  0.818094E+00
  0.847340E+00  0.868584E+00  0.883233E+00  0.892386E+00  0.896781E+00  0.896781E+00
  0.892386E+00  0.883233E+00  0.885756E+00  0.869821E+00  0.847223E+00  0.816484E+00
  0.775934E+00  0.723719E+00  0.658070E+00  0.578414E+00  0.487377E+00  0.391990E+00
  0.301652E+00  0.223749E+00  0.161478E+00  0.115149E+00  0.836237E-01  0.645142E-01
  0.547408E-01  0.517974E-01  0.547408E-01  0.645142E-01  0.836237E-01  0.115149E+00
  0.161478E+00  0.223749E+00  0.301652E+00  0.391990E+00  0.487377E+00  0.578414E+00
  0.658070E+00  0.723719E+00  0.775934E+00  0.816484E+00  0.847223E+00  0.869821E+00
  0.885756E+00  0.896254E+00  0.902206E+00  0.904133E+00  0.902206E+00  0.896254E+00
  0.885756E+00  0.885046E+00  0.868463E+00  0.845200E+00  0.813565E+00  0.771764E+00
  0.718127E+00  0.651364E+00  0.571254E+00  0.480256E+00  0.385068E+00  0.295194E+00
  0.218222E+00  0.157302E+00  0.112804E+00  0.836237E-01  0.670839E-01  0.598989E-01
  0.598989E-01  0.670839E-01  0.836237E-01  0.112804E+00  0.157302E+00  0.218222E+00
  0.295194E+00  0.385068E+00  0.480256E+00  0.571254E+00  0.651364E+00  0.718127E+00
  0.771764E+00  0.813565E+00  0.845200E+00  0.868463E+00  0.885046E+00  0.896349E+00
  0.903380E+00  0.906756E+00  0.906756E+00  0.903380E+00  0.896349E+00  0.885046E+00
  0.880140E+00  0.863649E+00  0.840541E+00  0.808848E+00  0.766647E+00  0.712551E+00
  0.645828E+00  0.566423E+00  0.476271E+00  0.381671E+00  0.292422E+00  0.216525E+00
  0.157302E+00  0.115149E+00  0.886433E-01  0.747895E-01  0.705824E-01  0.747895E-01
  0.886433E-01  0.115149E+00  0.157302E+00  0.216525E+00  0.292422E+00  0.381671E+00
  0.476271E+00  0.566423E+00  0.645828E+00  0.712551E+00  0.766647E+00  0.808848E+00
  0.840541E+00  0.863649E+00  0.880140E+00  0.891621E+00  0.899201E+00  0.903537E+00
  0.904952E+00  0.903537E+00  0.899201E+00  0.891621E+00  0.880140E+00  0.870887E+00
  0.855510E+00  0.833611E+00  0.803006E+00  0.761669E+00  0.708367E+00  0.642597E+00
  0.564183E+00  0.474742E+00  0.380709E+00  0.292422E+00  0.218222E+00  0.161478E+00
  0.122273E+00  0.987199E-01  0.879811E-01  0.879811E-01  0.987199E-01  0.122273E+00
  0.161478E+00  0.218222E+00  0.292422E+00  0.380709E+00  0.474742E+00  0.564183E+00
  0.642597E+00  0.708367E+00  0.761669E+00  0.803006E+00  0.833611E+00  0.855510E+00
  0.870887E+00  0.881525E+00  0.888661E+00  0.893062E+00  0.895165E+00  0.895165E+00
  0.893062E+00  0.888661E+00  0.881525E+00  0.870887E+00  0.858014E+00  0.845328E+00
  0.825947E+00  0.797597E+00  0.758124E+00  0.706227E+00  0.641433E+00  0.563643E+00
  0.474742E+00  0.381671E+00  0.295194E+00  0.223749E+00  0.170405E+00  0.134650E+00
  0.114535E+00  0.108104E+00  0.114535E+00  0.134650E+00  0.170405E+00  0.223749E+00
  0.295194E+00  0.381671E+00  0.474742E+00  0.563643E+00  0.641433E+00  0.706227E+00
  0.758124E+00  0.797597E+00  0.825947E+00  0.845328E+00  0.858014E+00  0.865837E+00
  0.870166E+00  0.872146E+00  0.872810E+00  0.872933E+00  0.872810E+00  0.872146E+00
  0.870166E+00  0.865837E+00  0.858014E+00  0.843404E+00  0.835329E+00  0.819562E+00
  0.794000E+00  0.756457E+00  0.705657E+00  0.641433E+00  0.564183E+00  0.476271E+00
  0.385068E+00  0.301652E+00  0.234262E+00  0.185174E+00  0.153454E+00  0.137906E+00
  0.137906E+00  0.153454E+00  0.185174E+00  0.234262E+00  0.301652E+00  0.385068E+00
  0.476271E+00  0.564183E+00  0.641433E+00  0.705657E+00  0.756457E+00  0.794000E+00
  0.819562E+00  0.835329E+00  0.843404E+00  0.845242E+00  0.841991E+00  0.835344E+00
  0.828034E+00  0.823267E+00  0.823267E+00  0.828034E+00  0.835344E+00  0.841991E+00
  0.845242E+00  0.843404E+00  0.830264E+00  0.828034E+00  0.816013E+00  0.792777E+00
  0.756457E+00  0.706227E+00  0.642597E+00  0.566423E+00  0.480256E+00  0.391990E+00
  0.313132E+00  0.251103E+00  0.207057E+00  0.180393E+00  0.171389E+00  0.180393E+00
  0.207057E+00  0.251103E+00  0.313132E+00  0.391990E+00  0.480256E+00  0.566423E+00
  0.642597E+00  0.706227E+00  0.756457E+00  0.792777E+00  0.816013E+00  0.828034E+00
  0.830264E+00  0.822790E+00  0.805035E+00  0.777995E+00  0.746892E+00  0.721424E+00
  0.711533E+00  0.721424E+00  0.746892E+00  0.777995E+00  0.805035E+00  0.822790E+00
  0.830264E+00  0.822375E+00  0.825368E+00  0.816013E+00  0.794000E+00  0.758124E+00
  0.708367E+00  0.645828E+00  0.571254E+00  0.487377E+00  0.403295E+00  0.330651E+00
  0.275088E+00  0.236971E+00  0.217075E+00  0.217075E+00  0.236971E+00  0.275088E+00
  0.330651E+00  0.403295E+00  0.487377E+00  0.571254E+00  0.645828E+00  0.708367E+00
  0.758124E+00  0.794000E+00  0.816013E+00  0.825368E+00  0.822375E+00  0.804584E+00
  0.766890E+00  0.705363E+00  0.625811E+00  0.549610E+00  0.503559E+00  0.503559E+00
  0.549610E+00  0.625811E+00  0.705363E+00  0.766890E+00  0.804584E+00  0.822375E+00
  0.822375E+00  0.828034E+00  0.819562E+00  0.797597E+00  0.761669E+00  0.712551E+00
  0.651364E+00  0.578414E+00  0.497490E+00  0.419363E+00  0.354522E+00  0.306280E+00
  0.275379E+00  0.264484E+00  0.275379E+00  0.306280E+00  0.354522E+00  0.419363E+00
  0.497490E+00  0.578414E+00  0.651364E+00  0.712551E+00  0.761669E+00  0.797597E+00
  0.819562E+00  0.828034E+00  0.822375E+00  0.797485E+00  0.741749E+00  0.640803E+00
  0.497572E+00  0.354535E+00  0.261004E+00  0.230579E+00  0.261004E+00  0.354535E+00
  0.497572E+00  0.640803E+00  0.741749E+00  0.797485E+00  0.822375E+00  0.830264E+00
  0.835329E+00  0.825947E+00  0.803006E+00  0.766647E+00  0.718127E+00  0.658070E+00
  0.586874E+00  0.510505E+00  0.440537E+00  0.384671E+00  0.344582E+00  0.322672E+00
  0.322672E+00  0.344582E+00  0.384671E+00  0.440537E+00  0.510505E+00  0.586874E+00
  0.658070E+00  0.718127E+00  0.766647E+00  0.803006E+00  0.825947E+00  0.835329E+00
  0.830264E+00  0.804584E+00  0.741749E+00  0.614737E+00  0.417858E+00  0.224906E+00
  0.113677E+00  0.728189E-01  0.728189E-01  0.113677E+00  0.224906E+00  0.417858E+00
  0.614737E+00  0.741749E+00  0.804584E+00  0.830264E+00  0.843404E+00  0.845328E+00
  0.833611E+00  0.808848E+00  0.771764E+00  0.723719E+00  0.664777E+00  0.596559E+00
  0.527332E+00  0.467400E+00  0.421131E+00  0.390259E+00  0.379039E+00  0.390259E+00
  0.421131E+00  0.467400E+00  0.527332E+00  0.596559E+00  0.664777E+00  0.723719E+00
  0.771764E+00  0.808848E+00  0.833611E+00  0.845328E+00  0.843404E+00  0.822790E+00
  0.766890E+00  0.640803E+00  0.417858E+00  0.184562E+00  0.628891E-01  0.251451E-01
  0.176054E-01  0.251451E-01  0.628891E-01  0.184562E+00  0.417858E+00  0.640803E+00
  0.766890E+00  0.822790E+00  0.843404E+00  0.858014E+00  0.855510E+00  0.840541E+00
  0.813565E+00  0.775934E+00  0.728674E+00  0.671757E+00  0.608913E+00  0.549350E+00
  0.500266E+00  0.463843E+00  0.443280E+00  0.443280E+00  0.463843E+00  0.500266E+00
  0.549350E+00  0.608913E+00  0.671757E+00  0.728674E+00  0.775934E+00  0.813565E+00
  0.840541E+00  0.855510E+00  0.858014E+00  0.845242E+00  0.805035E+00  0.705363E+00
  0.497572E+00  0.224906E+00  0.628891E-01  0.162960E-01  0.694926E-02  0.694926E-02
  0.162960E-01  0.628891E-01  0.224906E+00  0.497572E+00  0.705363E+00  0.805035E+00
  0.845242E+00  0.858014E+00  0.870887E+00  0.863649E+00  0.845200E+00  0.816484E+00
  0.779172E+00  0.733578E+00  0.680442E+00  0.625527E+00  0.576863E+00  0.538271E+00
  0.511744E+00  0.501898E+00  0.511744E+00  0.538271E+00  0.576863E+00  0.625527E+00
  0.680442E+00  0.733578E+00  0.779172E+00  0.816484E+00  0.845200E+00  0.863649E+00
  0.870887E+00  0.865837E+00  0.841991E+00  0.777995E+00  0.625811E+00  0.354535E+00
  0.113677E+00  0.251451E-01  0.694926E-02  0.426314E-02  0.694926E-02  0.251451E-01
  0.113677E+00  0.354535E+00  0.625811E+00  0.777995E+00  0.841991E+00  0.865837E+00
  0.870887E+00  0.880140E+00  0.868463E+00  0.847223E+00  0.818094E+00  0.782219E+00
  0.739381E+00  0.691944E+00  0.646469E+00  0.608249E+00  0.579136E+00  0.562314E+00
  0.562314E+00  0.579136E+00  0.608249E+00  0.646469E+00  0.691944E+00  0.739381E+00
  0.782219E+00  0.818094E+00  0.847223E+00  0.868463E+00  0.880140E+00  0.881525E+00
  0.870166E+00  0.835344E+00  0.746892E+00  0.549610E+00  0.261004E+00  0.728189E-01
  0.176054E-01  0.694926E-02  0.694926E-02  0.176054E-01  0.728189E-01  0.261004E+00
  0.549610E+00  0.746892E+00  0.835344E+00  0.870166E+00  0.881525E+00  0.880140E+00
  0.885046E+00  0.869821E+00  0.847340E+00  0.819245E+00  0.785531E+00  0.746479E+00
  0.706145E+00  0.670036E+00  0.640735E+00  0.620109E+00  0.612350E+00  0.620109E+00
  0.640735E+00  0.670036E+00  0.706145E+00  0.746479E+00  0.785531E+00  0.819245E+00
  0.847340E+00  0.869821E+00  0.885046E+00  0.891621E+00  0.888661E+00  0.872146E+00
  0.828034E+00  0.721424E+00  0.503559E+00  0.230579E+00  0.728189E-01  0.251451E-01
  0.162960E-01  0.251451E-01  0.728189E-01  0.230579E+00  0.503559E+00  0.721424E+00
  0.828034E+00  0.872146E+00  0.888661E+00  0.891621E+00  0.885046E+00  0.885756E+00
  0.868584E+00  0.846574E+00  0.820212E+00  0.788979E+00  0.754705E+00  0.721908E+00
  0.693853E+00  0.671936E+00  0.659087E+00  0.659087E+00  0.671936E+00  0.693853E+00
  0.721908E+00  0.754705E+00  0.788979E+00  0.820212E+00  0.846574E+00  0.868584E+00
  0.885756E+00  0.896349E+00  0.899201E+00  0.893062E+00  0.872810E+00  0.823267E+00
  0.711533E+00  0.503559E+00  0.261004E+00  0.113677E+00  0.628891E-01  0.628891E-01
  0.113677E+00  0.261004E+00  0.503559E+00  0.711533E+00  0.823267E+00  0.872810E+00
  0.893062E+00  0.899201E+00  0.896349E+00  0.885756E+00  0.883233E+00  0.865971E+00
  0.845300E+00  0.820625E+00  0.792375E+00  0.763623E+00  0.737684E+00  0.716076E+00
  0.700629E+00  0.694809E+00  0.700629E+00  0.716076E+00  0.737684E+00  0.763623E+00
  0.792375E+00  0.820625E+00  0.845300E+00  0.865971E+00  0.883233E+00  0.896254E+00
  0.903380E+00  0.903537E+00  0.895165E+00  0.872933E+00  0.823267E+00  0.721424E+00
  0.549610E+00  0.354535E+00  0.224906E+00  0.184562E+00  0.224906E+00  0.354535E+00
  0.549610E+00  0.721424E+00  0.823267E+00  0.872933E+00  0.895165E+00  0.903537E+00
  0.903380E+00  0.896254E+00  0.883233E+00  0.878847E+00  0.862563E+00  0.843091E+00
  0.820212E+00  0.795758E+00  0.772502E+00  0.752108E+00  0.735872E+00  0.726396E+00
  0.726396E+00  0.735872E+00  0.752108E+00  0.772502E+00  0.795758E+00  0.820212E+00
  0.843091E+00  0.862563E+00  0.878847E+00  0.892386E+00  0.902206E+00  0.906756E+00
  0.904952E+00  0.895165E+00  0.872810E+00  0.828034E+00  0.746892E+00  0.625811E+00
  0.497572E+00  0.417858E+00  0.417858E+00  0.497572E+00  0.625811E+00  0.746892E+00
  0.828034E+00  0.872810E+00  0.895165E+00  0.904952E+00  0.906756E+00  0.902206E+00
  0.892386E+00  0.878847E+00  0.873354E+00  0.857951E+00  0.839561E+00  0.819245E+00
  0.799032E+00  0.780395E+00  0.764434E+00  0.753104E+00  0.748922E+00  0.753104E+00
  0.764434E+00  0.780395E+00  0.799032E+00  0.819245E+00  0.839561E+00  0.857951E+00
  0.873354E+00  0.886192E+00  0.896781E+00  0.904133E+00  0.906756E+00  0.903537E+00
  0.893062E+00  0.872146E+00  0.835344E+00  0.777995E+00  0.705363E+00  0.640803E+00
  0.614737E+00  0.640803E+00  0.705363E+00  0.777995E+00  0.835344E+00  0.872146E+00
  0.893062E+00  0.903537E+00  0.906756E+00  0.904133E+00  0.896781E+00  0.886192E+00
  0.873354E+00  0.866391E+00  0.851675E+00  0.835101E+00  0.818094E+00  0.801637E+00
  0.786564E+00  0.774528E+00  0.767738E+00  0.767738E+00  0.774528E+00  0.786564E+00
  0.801637E+00  0.818094E+00  0.835101E+00  0.851675E+00  0.866391E+00  0.878541E+00
  0.888578E+00  0.896781E+00  0.902206E+00  0.903380E+00  0.899201E+00  0.888661E+00
  0.870166E+00  0.841991E+00  0.805035E+00  0.766890E+00  0.741749E+00  0.741749E+00
  0.766890E+00  0.805035E+00  0.841991E+00  0.870166E+00  0.888661E+00  0.899201E+00
  0.903380E+00  0.902206E+00  0.896781E+00  0.888578E+00  0.878541E+00  0.866391E+00
  0.857485E+00  0.844211E+00  0.830395E+00  0.816484E+00  0.802802E+00  0.790746E+00
  0.782459E+00  0.779529E+00  0.782459E+00  0.790746E+00  0.802802E+00  0.816484E+00
  0.830395E+00  0.844211E+00  0.857485E+00  0.869125E+00  0.878541E+00  0.886192E+00
  0.892386E+00  0.896254E+00  0.896349E+00  0.891621E+00  0.881525E+00  0.865837E+00
  0.845242E+00  0.822790E+00  0.804584E+00  0.797485E+00  0.804584E+00  0.822790E+00
  0.845242E+00  0.865837E+00  0.881525E+00  0.891621E+00  0.896349E+00  0.896254E+00
  0.892386E+00  0.886192E+00  0.878541E+00  0.869125E+00  0.857485E+00  0.847178E+00
  0.836424E+00  0.825316E+00  0.813565E+00  0.802094E+00  0.793042E+00  0.788194E+00
  0.788194E+00  0.793042E+00  0.802094E+00  0.813565E+00  0.825316E+00  0.836424E+00
  0.847178E+00  0.857485E+00  0.866391E+00  0.873354E+00  0.878847E+00  0.883233E+00
  0.885756E+00  0.885046E+00  0.880140E+00  0.870887E+00  0.858014E+00  0.843404E+00
  0.830264E+00  0.822375E+00  0.822375E+00  0.830264E+00  0.843404E+00  0.858014E+00
  0.870887E+00  0.880140E+00  0.885046E+00  0.885756E+00  0.883233E+00  0.878847E+00
  0.873354E+00  0.866391E+00  0.857485E+00  0.847178E+00  0.871845E+00  0.862883E+00
  0.852350E+00  0.840541E+00  0.829402E+00  0.821545E+00  0.818748E+00  0.821545E+00
  0.829402E+00  0.840541E+00  0.852350E+00  0.862883E+00  0.871845E+00  0.879791E+00
  0.886743E+00  0.892167E+00  0.895915E+00  0.898358E+00  0.899533E+00  0.898654E+00
  0.894561E+00  0.886366E+00  0.873920E+00  0.858323E+00  0.842395E+00  0.830264E+00
  0.825711E+00  0.830264E+00  0.842395E+00  0.858323E+00  0.873920E+00  0.886366E+00
  0.894561E+00  0.898654E+00  0.899533E+00  0.898358E+00  0.895915E+00  0.892167E+00
  0.886743E+00  0.879791E+00  0.871845E+00  0.862883E+00  0.854731E+00  0.844500E+00
  0.833611E+00  0.824632E+00  0.819690E+00  0.819690E+00  0.824632E+00  0.833611E+00
  0.844500E+00  0.854731E+00  0.862883E+00  0.869220E+00  0.874590E+00  0.879131E+00
  0.882324E+00  0.883940E+00  0.884327E+00  0.883720E+00  0.881601E+00  0.876906E+00
  0.868861E+00  0.857832E+00  0.845694E+00  0.835329E+00  0.829410E+00  0.829410E+00
  0.835329E+00  0.845694E+00  0.857832E+00  0.868861E+00  0.876906E+00  0.881601E+00
  0.883720E+00  0.884327E+00  0.883940E+00  0.882324E+00  0.879131E+00  0.874590E+00
  0.869220E+00  0.862883E+00  0.852350E+00  0.844500E+00  0.834977E+00  0.825947E+00
  0.819684E+00  0.817484E+00  0.819684E+00  0.825947E+00  0.834977E+00  0.844500E+00
  0.852350E+00  0.857711E+00  0.861197E+00  0.863779E+00  0.865690E+00  0.866439E+00
  0.865690E+00  0.863779E+00  0.861197E+00  0.857711E+00  0.852350E+00  0.844500E+00
  0.834977E+00  0.825947E+00  0.819684E+00  0.817484E+00  0.819684E+00  0.825947E+00
  0.834977E+00  0.844500E+00  0.852350E+00  0.857711E+00  0.861197E+00  0.863779E+00
  0.865690E+00  0.866439E+00  0.865690E+00  0.863779E+00  0.861197E+00  0.857711E+00
  0.852350E+00  0.840541E+00  0.833611E+00  0.825947E+00  0.819562E+00  0.816013E+00
  0.816013E+00  0.819562E+00  0.825947E+00  0.833611E+00  0.840541E+00  0.845200E+00
  0.847223E+00  0.847340E+00  0.846574E+00  0.845300E+00  0.843091E+00  0.839561E+00
  0.835101E+00  0.830395E+00  0.825316E+00  0.818968E+00  0.811098E+00  0.803006E+00
  0.796707E+00  0.793441E+00  0.793441E+00  0.796707E+00  0.803006E+00  0.811098E+00
  0.818968E+00  0.825316E+00  0.830395E+00  0.835101E+00  0.839561E+00  0.843091E+00
  0.845300E+00  0.846574E+00  0.847340E+00  0.847223E+00  0.845200E+00  0.840541E+00
  0.829402E+00  0.824632E+00  0.819684E+00  0.816013E+00  0.814666E+00  0.816013E+00
  0.819684E+00  0.824632E+00  0.829402E+00  0.832564E+00  0.833164E+00  0.831057E+00
  0.826949E+00  0.821904E+00  0.816466E+00  0.810395E+00  0.803499E+00  0.796329E+00
  0.789479E+00  0.782550E+00  0.774789E+00  0.766647E+00  0.759861E+00  0.755803E+00
  0.754539E+00  0.755803E+00  0.759861E+00  0.766647E+00  0.774789E+00  0.782550E+00
  0.789479E+00  0.796329E+00  0.803499E+00  0.810395E+00  0.816466E+00  0.821904E+00
  0.826949E+00  0.831057E+00  0.833164E+00  0.832564E+00  0.829402E+00  0.821545E+00
  0.819690E+00  0.817484E+00  0.816013E+00  0.816013E+00  0.817484E+00  0.819690E+00
  0.821545E+00  0.822024E+00  0.820310E+00  0.815850E+00  0.808579E+00  0.799131E+00
  0.788535E+00  0.777506E+00  0.766286E+00  0.755313E+00  0.745330E+00  0.736349E+00
  0.727405E+00  0.718127E+00  0.709869E+00  0.704408E+00  0.702050E+00  0.702050E+00
  0.704408E+00  0.709869E+00  0.718127E+00  0.727405E+00  0.736349E+00  0.745330E+00
  0.755313E+00  0.766286E+00  0.777506E+00  0.788535E+00  0.799131E+00  0.808579E+00
  0.815850E+00  0.820310E+00  0.822024E+00  0.821545E+00  0.818748E+00  0.819690E+00
  0.819684E+00  0.819562E+00  0.819684E+00  0.819690E+00  0.818748E+00  0.816039E+00
  0.811007E+00  0.803281E+00  0.792597E+00  0.778972E+00  0.762906E+00  0.745250E+00
  0.726956E+00  0.709199E+00  0.693413E+00  0.680319E+00  0.668999E+00  0.658070E+00
  0.647830E+00  0.640172E+00  0.636177E+00  0.635089E+00  0.636177E+00  0.640172E+00
  0.647830E+00  0.658070E+00  0.668999E+00  0.680319E+00  0.693413E+00  0.709199E+00
  0.726956E+00  0.745250E+00  0.762906E+00  0.778972E+00  0.792597E+00  0.803281E+00
  0.811007E+00  0.816039E+00  0.818748E+00  0.821545E+00  0.824632E+00  0.825947E+00
  0.825947E+00  0.824632E+00  0.821545E+00  0.816039E+00  0.807585E+00  0.795912E+00
  0.780953E+00  0.762750E+00  0.741444E+00  0.717344E+00  0.691126E+00  0.664254E+00
  0.639113E+00  0.617943E+00  0.601064E+00  0.586874E+00  0.574204E+00  0.563964E+00
  0.557648E+00  0.555094E+00  0.555094E+00  0.557648E+00  0.563964E+00  0.574204E+00
  0.586874E+00  0.601064E+00  0.617943E+00  0.639113E+00  0.664254E+00  0.691126E+00
  0.717344E+00  0.741444E+00  0.762750E+00  0.780953E+00  0.795912E+00  0.807585E+00
  0.816039E+00  0.821545E+00  0.829402E+00  0.833611E+00  0.834977E+00  0.833611E+00
  0.829402E+00  0.822024E+00  0.811007E+00  0.795912E+00  0.776565E+00  0.753143E+00
  0.726014E+00  0.695483E+00  0.661859E+00  0.626109E+00  0.590561E+00  0.558414E+00
  0.531810E+00  0.510505E+00  0.493075E+00  0.479172E+00  0.469715E+00  0.464936E+00
  0.463627E+00  0.464936E+00  0.469715E+00  0.479172E+00  0.493075E+00  0.510505E+00
  0.531810E+00  0.558414E+00  0.590561E+00  0.626109E+00  0.661859E+00  0.695483E+00
  0.726014E+00  0.753143E+00  0.776565E+00  0.795912E+00  0.811007E+00  0.822024E+00
  0.829402E+00  0.840541E+00  0.844500E+00  0.844500E+00  0.840541E+00  0.832564E+00
  0.820310E+00  0.803281E+00  0.780953E+00  0.753143E+00  0.720167E+00  0.682634E+00
  0.641220E+00  0.596964E+00  0.551933E+00  0.509237E+00  0.471731E+00  0.440537E+00
  0.415208E+00  0.395294E+00  0.381155E+00  0.372954E+00  0.369580E+00  0.369580E+00
  0.372954E+00  0.381155E+00  0.395294E+00  0.415208E+00  0.440537E+00  0.471731E+00
  0.509237E+00  0.551933E+00  0.596964E+00  0.641220E+00  0.682634E+00  0.720167E+00
  0.753143E+00  0.780953E+00  0.803281E+00  0.820310E+00  0.832564E+00  0.840541E+00
  0.852350E+00  0.854731E+00  0.852350E+00  0.845200E+00  0.833164E+00  0.815850E+00
  0.792597E+00  0.762750E+00  0.726014E+00  0.682634E+00  0.633445E+00  0.580098E+00
  0.525357E+00  0.472759E+00  0.425375E+00  0.384671E+00  0.350727E+00  0.323448E+00
  0.303224E+00  0.290282E+00  0.283712E+00  0.281813E+00  0.283712E+00  0.290282E+00
  0.303224E+00  0.323448E+00  0.350727E+00  0.384671E+00  0.425375E+00  0.472759E+00
  0.525357E+00  0.580098E+00  0.633445E+00  0.682634E+00  0.726014E+00  0.762750E+00
  0.792597E+00  0.815850E+00  0.833164E+00  0.845200E+00  0.852350E+00  0.862883E+00
  0.862883E+00  0.857711E+00  0.847223E+00  0.831057E+00  0.808579E+00  0.778972E+00
  0.741444E+00  0.695483E+00  0.641220E+00  0.580098E+00  0.515483E+00  0.452164E+00
  0.394471E+00  0.344582E+00  0.302721E+00  0.268613E+00  0.242401E+00  0.224264E+00
  0.213582E+00  0.208888E+00  0.208888E+00  0.213582E+00  0.224264E+00  0.242401E+00
  0.268613E+00  0.302721E+00  0.344582E+00  0.394471E+00  0.452164E+00  0.515483E+00
  0.580098E+00  0.641220E+00  0.695483E+00  0.741444E+00  0.778972E+00  0.808579E+00
  0.831057E+00  0.847223E+00  0.857711E+00  0.862883E+00  0.871845E+00  0.869220E+00
  0.861197E+00  0.847340E+00  0.826949E+00  0.799131E+00  0.762906E+00  0.717344E+00
  0.661859E+00  0.596964E+00  0.525357E+00  0.452164E+00  0.383239E+00  0.322672E+00
  0.271949E+00  0.230999E+00  0.199384E+00  0.176571E+00  0.161678E+00  0.153497E+00
  0.150922E+00  0.153497E+00  0.161678E+00  0.176571E+00  0.199384E+00  0.230999E+00
  0.271949E+00  0.322672E+00  0.383239E+00  0.452164E+00  0.525357E+00  0.596964E+00
  0.661859E+00  0.717344E+00  0.762906E+00  0.799131E+00  0.826949E+00  0.847340E+00
  0.861197E+00  0.869220E+00  0.871845E+00  0.879791E+00  0.874590E+00  0.863779E+00
  0.846574E+00  0.821904E+00  0.788535E+00  0.745250E+00  0.691126E+00  0.626109E+00
  0.551933E+00  0.472759E+00  0.394471E+00  0.322672E+00  0.261101E+00  0.211393E+00
  0.173474E+00  0.146065E+00  0.127329E+00  0.115623E+00  0.109963E+00  0.109963E+00
  0.115623E+00  0.127329E+00  0.146065E+00  0.173474E+00  0.211393E+00  0.261101E+00
  0.322672E+00  0.394471E+00  0.472759E+00  0.551933E+00  0.626109E+00  0.691126E+00
  0.745250E+00  0.788535E+00  0.821904E+00  0.846574E+00  0.863779E+00  0.874590E+00
  0.879791E+00  0.879791E+00  0.886743E+00  0.879131E+00  0.865690E+00  0.845300E+00
  0.816466E+00  0.777506E+00  0.726956E+00  0.664254E+00  0.590561E+00  0.509237E+00
  0.425375E+00  0.344582E+00  0.271949E+00  0.211393E+00  0.164763E+00  0.131269E+00
  0.108313E+00  0.932255E-01  0.844566E-01  0.815465E-01  0.844566E-01  0.932255E-01
  0.108313E+00  0.131269E+00  0.164763E+00  0.211393E+00  0.271949E+00  0.344582E+00
  0.425375E+00  0.509237E+00  0.590561E+00  0.664254E+00  0.726956E+00  0.777506E+00
  0.816466E+00  0.845300E+00  0.865690E+00  0.879131E+00  0.886743E+00  0.889205E+00
  0.886743E+00  0.892167E+00  0.882324E+00  0.866439E+00  0.843091E+00  0.810395E+00
  0.766286E+00  0.709199E+00  0.639113E+00  0.558414E+00  0.471731E+00  0.384671E+00
  0.302721E+00  0.230999E+00  0.173474E+00  0.131269E+00  0.102303E+00  0.831669E-01
  0.712556E-01  0.654275E-01  0.654275E-01  0.712556E-01  0.831669E-01  0.102303E+00
  0.131269E+00  0.173474E+00  0.230999E+00  0.302721E+00  0.384671E+00  0.471731E+00
  0.558414E+00  0.639113E+00  0.709199E+00  0.766286E+00  0.810395E+00  0.843091E+00
  0.866439E+00  0.882324E+00  0.892167E+00  0.896872E+00  0.896872E+00  0.892167E+00
  0.895915E+00  0.883940E+00  0.865690E+00  0.839561E+00  0.803499E+00  0.755313E+00
  0.693413E+00  0.617943E+00  0.531810E+00  0.440537E+00  0.350727E+00  0.268613E+00
  0.199384E+00  0.146065E+00  0.108313E+00  0.831669E-01  0.672720E-01  0.583947E-01
  0.555232E-01  0.583947E-01  0.672720E-01  0.831669E-01  0.108313E+00  0.146065E+00
  0.199384E+00  0.268613E+00  0.350727E+00  0.440537E+00  0.531810E+00  0.617943E+00
  0.693413E+00  0.755313E+00  0.803499E+00  0.839561E+00  0.865690E+00  0.883940E+00
  0.895915E+00  0.902697E+00  0.904893E+00  0.902697E+00  0.895915E+00  0.898358E+00
  0.884327E+00  0.863779E+00  0.835101E+00  0.796329E+00  0.745330E+00  0.680319E+00
  0.601064E+00  0.510505E+00  0.415208E+00  0.323448E+00  0.242401E+00  0.176571E+00
  0.127329E+00  0.932255E-01  0.712556E-01  0.583947E-01  0.524936E-01  0.524936E-01
  0.583947E-01  0.712556E-01  0.932255E-01  0.127329E+00  0.176571E+00  0.242401E+00
  0.323448E+00  0.415208E+00  0.510505E+00  0.601064E+00  0.680319E+00  0.745330E+00
  0.796329E+00  0.835101E+00  0.863779E+00  0.884327E+00  0.898358E+00  0.907074E+00
  0.911247E+00  0.911247E+00  0.907074E+00  0.898358E+00  0.899533E+00  0.883720E+00
  0.861197E+00  0.830395E+00  0.789479E+00  0.736349E+00  0.668999E+00  0.586874E+00
  0.493075E+00  0.395294E+00  0.303224E+00  0.224264E+00  0.161678E+00  0.115623E+00
  0.844566E-01  0.654275E-01  0.555232E-01  0.524936E-01  0.555232E-01  0.654275E-01
  0.844566E-01  0.115623E+00  0.161678E+00  0.224264E+00  0.303224E+00  0.395294E+00
  0.493075E+00  0.586874E+00  0.668999E+00  0.736349E+00  0.789479E+00  0.830395E+00
  0.861197E+00  0.883720E+00  0.899533E+00  0.909914E+00  0.915783E+00  0.917681E+00
  0.915783E+00  0.909914E+00  0.899533E+00  0.898654E+00  0.881601E+00  0.857711E+00
  0.825316E+00  0.782550E+00  0.727405E+00  0.658070E+00  0.574204E+00  0.479172E+00
  0.381155E+00  0.290282E+00  0.213582E+00  0.153497E+00  0.109963E+00  0.815465E-01
  0.654275E-01  0.583947E-01  0.583947E-01  0.654275E-01  0.815465E-01  0.109963E+00
  0.153497E+00  0.213582E+00  0.290282E+00  0.381155E+00  0.479172E+00  0.574204E+00
  0.658070E+00  0.727405E+00  0.782550E+00  0.825316E+00  0.857711E+00  0.881601E+00
  0.898654E+00  0.910262E+00  0.917460E+00  0.920905E+00  0.920905E+00  0.917460E+00
  0.910262E+00  0.898654E+00  0.894561E+00  0.876906E+00  0.852350E+00  0.818968E+00
  0.774789E+00  0.718127E+00  0.647830E+00  0.563964E+00  0.469715E+00  0.372954E+00
  0.283712E+00  0.208888E+00  0.150922E+00  0.109963E+00  0.844566E-01  0.712556E-01
  0.672720E-01  0.712556E-01  0.844566E-01  0.109963E+00  0.150922E+00  0.208888E+00
  0.283712E+00  0.372954E+00  0.469715E+00  0.563964E+00  0.647830E+00  0.718127E+00
  0.774789E+00  0.818968E+00  0.852350E+00  0.876906E+00  0.894561E+00  0.906902E+00
  0.915058E+00  0.919719E+00  0.921238E+00  0.919719E+00  0.915058E+00  0.906902E+00
  0.894561E+00  0.886366E+00  0.868861E+00  0.844500E+00  0.811098E+00  0.766647E+00
  0.709869E+00  0.640172E+00  0.557648E+00  0.464936E+00  0.369580E+00  0.281813E+00
  0.208888E+00  0.153497E+00  0.115623E+00  0.932255E-01  0.831669E-01  0.831669E-01
  0.932255E-01  0.115623E+00  0.153497E+00  0.208888E+00  0.281813E+00  0.369580E+00
  0.464936E+00  0.557648E+00  0.640172E+00  0.709869E+00  0.766647E+00  0.811098E+00
  0.844500E+00  0.868861E+00  0.886366E+00  0.898819E+00  0.907438E+00  0.912918E+00
  0.915596E+00  0.915596E+00  0.912918E+00  0.907438E+00  0.898819E+00  0.886366E+00
  0.873920E+00  0.857832E+00  0.834977E+00  0.803006E+00  0.759861E+00  0.704408E+00
  0.636177E+00  0.555094E+00  0.463627E+00  0.369580E+00  0.283712E+00  0.213582E+00
  0.161678E+00  0.127329E+00  0.108313E+00  0.102303E+00  0.108313E+00  0.127329E+00
  0.161678E+00  0.213582E+00  0.283712E+00  0.369580E+00  0.463627E+00  0.555094E+00
  0.636177E+00  0.704408E+00  0.759861E+00  0.803006E+00  0.834977E+00  0.857832E+00
  0.873920E+00  0.885191E+00  0.892974E+00  0.898084E+00  0.900993E+00  0.901939E+00
  0.900993E+00  0.898084E+00  0.892974E+00  0.885191E+00  0.873920E+00  0.858323E+00
  0.845694E+00  0.825947E+00  0.796707E+00  0.755803E+00  0.702050E+00  0.635089E+00
  0.555094E+00  0.464936E+00  0.372954E+00  0.290282E+00  0.224264E+00  0.176571E+00
  0.146065E+00  0.131269E+00  0.131269E+00  0.146065E+00  0.176571E+00  0.224264E+00
  0.290282E+00  0.372954E+00  0.464936E+00  0.555094E+00  0.635089E+00  0.702050E+00
  0.755803E+00  0.796707E+00  0.825947E+00  0.845694E+00  0.858323E+00  0.865726E+00
  0.869270E+00  0.870177E+00  0.869747E+00  0.869175E+00  0.869175E+00  0.869747E+00
  0.870177E+00  0.869270E+00  0.865726E+00  0.858323E+00  0.842395E+00  0.835329E+00
  0.819684E+00  0.793441E+00  0.754539E+00  0.702050E+00  0.636177E+00  0.557648E+00
  0.469715E+00  0.381155E+00  0.303224E+00  0.242401E+00  0.199384E+00  0.173474E+00
  0.164763E+00  0.173474E+00  0.199384E+00  0.242401E+00  0.303224E+00  0.381155E+00
  0.469715E+00  0.557648E+00  0.636177E+00  0.702050E+00  0.754539E+00  0.793441E+00
  0.819684E+00  0.835329E+00  0.842395E+00  0.842014E+00  0.834759E+00  0.821954E+00
  0.806911E+00  0.794686E+00  0.789978E+00  0.794686E+00  0.806911E+00  0.821954E+00
  0.834759E+00  0.842014E+00  0.842395E+00  0.830264E+00  0.829410E+00  0.817484E+00
  0.793441E+00  0.755803E+00  0.704408E+00  0.640172E+00  0.563964E+00  0.479172E+00
  0.395294E+00  0.323448E+00  0.268613E+00  0.230999E+00  0.211393E+00  0.211393E+00
  0.230999E+00  0.268613E+00  0.323448E+00  0.395294E+00  0.479172E+00  0.563964E+00
  0.640172E+00  0.704408E+00  0.755803E+00  0.793441E+00  0.817484E+00  0.829410E+00
  0.830264E+00  0.819076E+00  0.793028E+00  0.750279E+00  0.695318E+00  0.642407E+00
  0.609979E+00  0.609979E+00  0.642407E+00  0.695318E+00  0.750279E+00  0.793028E+00
  0.819076E+00  0.830264E+00  0.825711E+00  0.829410E+00  0.819684E+00  0.796707E+00
  0.759861E+00  0.709869E+00  0.647830E+00  0.574204E+00  0.493075E+00  0.415208E+00
  0.350727E+00  0.302721E+00  0.271949E+00  0.261101E+00  0.271949E+00  0.302721E+00
  0.350727E+00  0.415208E+00  0.493075E+00  0.574204E+00  0.647830E+00  0.709869E+00
  0.759861E+00  0.796707E+00  0.819684E+00  0.829410E+00  0.825711E+00  0.804584E+00
  0.756525E+00  0.669685E+00  0.545248E+00  0.416158E+00  0.326854E+00  0.296564E+00
  0.326854E+00  0.416158E+00  0.545248E+00  0.669685E+00  0.756525E+00  0.804584E+00
  0.825711E+00  0.830264E+00  0.835329E+00  0.825947E+00  0.803006E+00  0.766647E+00
  0.718127E+00  0.658070E+00  0.586874E+00  0.510505E+00  0.440537E+00  0.384671E+00
  0.344582E+00  0.322672E+00  0.322672E+00  0.344582E+00  0.384671E+00  0.440537E+00
  0.510505E+00  0.586874E+00  0.658070E+00  0.718127E+00  0.766647E+00  0.803006E+00
  0.825947E+00  0.835329E+00  0.830264E+00  0.804584E+00  0.741749E+00  0.614737E+00
  0.417858E+00  0.224906E+00  0.113677E+00  0.728189E-01  0.728189E-01  0.113677E+00
  0.224906E+00  0.417858E+00  0.614737E+00  0.741749E+00  0.804584E+00  0.830264E+00
  0.842395E+00  0.845694E+00  0.834977E+00  0.811098E+00  0.774789E+00  0.727405E+00
  0.668999E+00  0.601064E+00  0.531810E+00  0.471731E+00  0.425375E+00  0.394471E+00
  0.383239E+00  0.394471E+00  0.425375E+00  0.471731E+00  0.531810E+00  0.601064E+00
  0.668999E+00  0.727405E+00  0.774789E+00  0.811098E+00  0.834977E+00  0.845694E+00
  0.842395E+00  0.819076E+00  0.756525E+00  0.614737E+00  0.370392E+00  0.139598E+00
  0.383526E-01  0.123860E-01  0.786688E-02  0.123860E-01  0.383526E-01  0.139598E+00
  0.370392E+00  0.614737E+00  0.756525E+00  0.819076E+00  0.842395E+00  0.858323E+00
  0.857832E+00  0.844500E+00  0.818968E+00  0.782550E+00  0.736349E+00  0.680319E+00
  0.617943E+00  0.558414E+00  0.509237E+00  0.472759E+00  0.452164E+00  0.452164E+00
  0.472759E+00  0.509237E+00  0.558414E+00  0.617943E+00  0.680319E+00  0.736349E+00
  0.782550E+00  0.818968E+00  0.844500E+00  0.857832E+00  0.858323E+00  0.842014E+00
  0.793028E+00  0.669685E+00  0.417858E+00  0.139598E+00  0.238653E-01  0.320998E-02
  0.763328E-03  0.763328E-03  0.320998E-02  0.238653E-01  0.139598E+00  0.417858E+00
  0.669685E+00  0.793028E+00  0.842014E+00  0.858323E+00  0.873920E+00  0.868861E+00
  0.852350E+00  0.825316E+00  0.789479E+00  0.745330E+00  0.693413E+00  0.639113E+00
  0.590561E+00  0.551933E+00  0.525357E+00  0.515483E+00  0.525357E+00  0.551933E+00
  0.590561E+00  0.639113E+00  0.693413E+00  0.745330E+00  0.789479E+00  0.825316E+00
  0.852350E+00  0.868861E+00  0.873920E+00  0.865726E+00  0.834759E+00  0.750279E+00
  0.545248E+00  0.224906E+00  0.383526E-01  0.320998E-02  0.251523E-03  0.786745E-04
  0.251523E-03  0.320998E-02  0.383526E-01  0.224906E+00  0.545248E+00  0.750279E+00
  0.834759E+00  0.865726E+00  0.873920E+00  0.886366E+00  0.876906E+00  0.857711E+00
  0.830395E+00  0.796329E+00  0.755313E+00  0.709199E+00  0.664254E+00  0.626109E+00
  0.596964E+00  0.580098E+00  0.580098E+00  0.596964E+00  0.626109E+00  0.664254E+00
  0.709199E+00  0.755313E+00  0.796329E+00  0.830395E+00  0.857711E+00  0.876906E+00
  0.886366E+00  0.885191E+00  0.869270E+00  0.821954E+00  0.695318E+00  0.416158E+00
  0.113677E+00  0.123860E-01  0.763328E-03  0.786745E-04  0.786745E-04  0.763328E-03
  0.123860E-01  0.113677E+00  0.416158E+00  0.695318E+00  0.821954E+00  0.869270E+00
  0.885191E+00  0.886366E+00  0.894561E+00  0.881601E+00  0.861197E+00  0.835101E+00
  0.803499E+00  0.766286E+00  0.726956E+00  0.691126E+00  0.661859E+00  0.641220E+00
  0.633445E+00  0.641220E+00  0.661859E+00  0.691126E+00  0.726956E+00  0.766286E+00
  0.803499E+00  0.835101E+00  0.861197E+00  0.881601E+00  0.894561E+00  0.898819E+00
  0.892974E+00  0.870177E+00  0.806911E+00  0.642407E+00  0.326854E+00  0.728189E-01
  0.786688E-02  0.763328E-03  0.251523E-03  0.763328E-03  0.786688E-02  0.728189E-01
  0.326854E+00  0.642407E+00  0.806911E+00  0.870177E+00  0.892974E+00  0.898819E+00
  0.894561E+00  0.898654E+00  0.883720E+00  0.863779E+00  0.839561E+00  0.810395E+00
  0.777506E+00  0.745250E+00  0.717344E+00  0.695483E+00  0.682634E+00  0.682634E+00
  0.695483E+00  0.717344E+00  0.745250E+00  0.777506E+00  0.810395E+00  0.839561E+00
  0.863779E+00  0.883720E+00  0.898654E+00  0.906902E+00  0.907438E+00  0.898084E+00
  0.869747E+00  0.794686E+00  0.609979E+00  0.296564E+00  0.728189E-01  0.123860E-01
  0.320998E-02  0.320998E-02  0.123860E-01  0.728189E-01  0.296564E+00  0.609979E+00
  0.794686E+00  0.869747E+00  0.898084E+00  0.907438E+00  0.906902E+00  0.898654E+00
  0.899533E+00  0.884327E+00  0.865690E+00  0.843091E+00  0.816466E+00  0.788535E+00
  0.762906E+00  0.741444E+00  0.726014E+00  0.720167E+00  0.726014E+00  0.741444E+00
  0.762906E+00  0.788535E+00  0.816466E+00  0.843091E+00  0.865690E+00  0.884327E+00
  0.899533E+00  0.910262E+00  0.915058E+00  0.912918E+00  0.900993E+00  0.869175E+00
  0.789978E+00  0.609979E+00  0.326854E+00  0.113677E+00  0.383526E-01  0.238653E-01
  0.383526E-01  0.113677E+00  0.326854E+00  0.609979E+00  0.789978E+00  0.869175E+00
  0.900993E+00  0.912918E+00  0.915058E+00  0.910262E+00  0.899533E+00  0.898358E+00
  0.883940E+00  0.866439E+00  0.845300E+00  0.821904E+00  0.799131E+00  0.778972E+00
  0.762750E+00  0.753143E+00  0.753143E+00  0.762750E+00  0.778972E+00  0.799131E+00
  0.821904E+00  0.845300E+00  0.866439E+00  0.883940E+00  0.898358E+00  0.909914E+00
  0.917460E+00  0.919719E+00  0.915596E+00  0.901939E+00  0.869175E+00  0.794686E+00
  0.642407E+00  0.416158E+00  0.224906E+00  0.139598E+00  0.139598E+00  0.224906E+00
  0.416158E+00  0.642407E+00  0.794686E+00  0.869175E+00  0.901939E+00  0.915596E+00
  0.919719E+00  0.917460E+00  0.909914E+00  0.898358E+00  0.895915E+00  0.882324E+00
  0.865690E+00  0.846574E+00  0.826949E+00  0.808579E+00  0.792597E+00  0.780953E+00
  0.776565E+00  0.780953E+00  0.792597E+00  0.808579E+00  0.826949E+00  0.846574E+00
  0.865690E+00  0.882324E+00  0.895915E+00  0.907074E+00  0.915783E+00  0.920905E+00
  0.921238E+00  0.915596E+00  0.900993E+00  0.869747E+00  0.806911E+00  0.695318E+00
  0.545248E+00  0.417858E+00  0.370392E+00  0.417858E+00  0.545248E+00  0.695318E+00
  0.806911E+00  0.869747E+00  0.900993E+00  0.915596E+00  0.921238E+00  0.920905E+00
  0.915783E+00  0.907074E+00  0.895915E+00  0.892167E+00  0.879131E+00  0.863779E+00
  0.847340E+00  0.831057E+00  0.815850E+00  0.803281E+00  0.795912E+00  0.795912E+00
  0.803281E+00  0.815850E+00  0.831057E+00  0.847340E+00  0.863779E+00  0.879131E+00
  0.892167E+00  0.902697E+00  0.911247E+00  0.917681E+00  0.920905E+00  0.919719E+00
  0.912918E+00  0.898084E+00  0.870177E+00  0.821954E+00  0.750279E+00  0.669685E+00
  0.614737E+00  0.614737E+00  0.669685E+00  0.750279E+00  0.821954E+00  0.870177E+00
  0.898084E+00  0.912918E+00  0.919719E+00  0.920905E+00  0.917681E+00  0.911247E+00
  0.902697E+00  0.892167E+00  0.886743E+00  0.874590E+00  0.861197E+00  0.847223E+00
  0.833164E+00  0.820310E+00  0.811007E+00  0.807585E+00  0.811007E+00  0.820310E+00
  0.833164E+00  0.847223E+00  0.861197E+00  0.874590E+00  0.886743E+00  0.896872E+00
  0.904893E+00  0.911247E+00  0.915783E+00  0.917460E+00  0.915058E+00  0.907438E+00
  0.892974E+00  0.869270E+00  0.834759E+00  0.793028E+00  0.756525E+00  0.741749E+00
  0.756525E+00  0.793028E+00  0.834759E+00  0.869270E+00  0.892974E+00  0.907438E+00
  0.915058E+00  0.917460E+00  0.915783E+00  0.911247E+00  0.904893E+00  0.896872E+00
  0.886743E+00  0.879791E+00  0.869220E+00  0.857711E+00  0.845200E+00  0.832564E+00
  0.822024E+00  0.816039E+00  0.816039E+00  0.822024E+00  0.832564E+00  0.845200E+00
  0.857711E+00  0.869220E+00  0.879791E+00  0.889205E+00  0.896872E+00  0.902697E+00
  0.907074E+00  0.909914E+00  0.910262E+00  0.906902E+00  0.898819E+00  0.885191E+00
  0.865726E+00  0.842014E+00  0.819076E+00  0.804584E+00  0.804584E+00  0.819076E+00
  0.842014E+00  0.865726E+00  0.885191E+00  0.898819E+00  0.906902E+00  0.910262E+00
  0.909914E+00  0.907074E+00  0.902697E+00  0.896872E+00  0.889205E+00  0.879791E+00
  0.871845E+00  0.862883E+00  0.852350E+00  0.840541E+00  0.829402E+00  0.821545E+00
  0.818748E+00  0.821545E+00  0.829402E+00  0.840541E+00  0.852350E+00  0.862883E+00
  0.871845E+00  0.879791E+00  0.886743E+00  0.892167E+00  0.895915E+00  0.898358E+00
  0.899533E+00  0.898654E+00  0.894561E+00  0.886366E+00  0.873920E+00  0.858323E+00
  0.842395E+00  0.830264E+00  0.825711E+00  0.830264E+00  0.842395E+00  0.858323E+00
  0.873920E+00  0.886366E+00  0.894561E+00  0.898654E+00  0.899533E+00  0.898358E+00
  0.895915E+00  0.892167E+00  0.886743E+00  0.879791E+00  0.871845E+00  0.890710E+00
  0.881083E+00  0.868861E+00  0.855510E+00  0.843999E+00  0.837372E+00  0.837372E+00
  0.843999E+00  0.855510E+00  0.868861E+00  0.881083E+00  0.890710E+00  0.897899E+00
  0.903363E+00  0.907443E+00  0.910135E+00  0.911506E+00  0.911660E+00  0.910350E+00
  0.906842E+00  0.900145E+00  0.889466E+00  0.874916E+00  0.858323E+00  0.843404E+00
  0.834502E+00  0.834502E+00  0.843404E+00  0.858323E+00  0.874916E+00  0.889466E+00
  0.900145E+00  0.906842E+00  0.910350E+00  0.911660E+00  0.911506E+00  0.910135E+00
  0.907443E+00  0.903363E+00  0.897899E+00  0.890710E+00  0.881083E+00  0.870592E+00
  0.857832E+00  0.845328E+00  0.836261E+00  0.832973E+00  0.836261E+00  0.845328E+00
  0.857832E+00  0.870592E+00  0.881083E+00  0.888457E+00  0.893280E+00  0.896472E+00
  0.898465E+00  0.899170E+00  0.898465E+00  0.896472E+00  0.893280E+00  0.888457E+00
  0.881083E+00  0.870592E+00  0.857832E+00  0.845328E+00  0.836261E+00  0.832973E+00
  0.836261E+00  0.845328E+00  0.857832E+00  0.870592E+00  0.881083E+00  0.888457E+00
  0.893280E+00  0.896472E+00  0.898465E+00  0.899170E+00  0.898465E+00  0.896472E+00
  0.893280E+00  0.888457E+00  0.881083E+00  0.868861E+00  0.857832E+00  0.845694E+00
  0.835329E+00  0.829410E+00  0.829410E+00  0.835329E+00  0.845694E+00  0.857832E+00
  0.868861E+00  0.876906E+00  0.881601E+00  0.883720E+00  0.884327E+00  0.883940E+00
  0.882324E+00  0.879131E+00  0.874590E+00  0.869220E+00  0.862883E+00  0.854731E+00
  0.844500E+00  0.833611E+00  0.824632E+00  0.819690E+00  0.819690E+00  0.824632E+00
  0.833611E+00  0.844500E+00  0.854731E+00  0.862883E+00  0.869220E+00  0.874590E+00
  0.879131E+00  0.882324E+00  0.883940E+00  0.884327E+00  0.883720E+00  0.881601E+00
  0.876906E+00  0.868861E+00  0.855510E+00  0.845328E+00  0.835329E+00  0.828034E+00
  0.825368E+00  0.828034E+00  0.835329E+00  0.845328E+00  0.855510E+00  0.863649E+00
  0.868463E+00  0.869821E+00  0.868584E+00  0.865971E+00  0.862563E+00  0.857951E+00
  0.851675E+00  0.844211E+00  0.836424E+00  0.828254E+00  0.818968E+00  0.808848E+00
  0.799767E+00  0.793768E+00  0.791738E+00  0.793768E+00  0.799767E+00  0.808848E+00
  0.818968E+00  0.828254E+00  0.836424E+00  0.844211E+00  0.851675E+00  0.857951E+00
  0.862563E+00  0.865971E+00  0.868584E+00  0.869821E+00  0.868463E+00  0.863649E+00
  0.855510E+00  0.843999E+00  0.836261E+00  0.829410E+00  0.825368E+00  0.825368E+00
  0.829410E+00  0.836261E+00  0.843999E+00  0.850692E+00  0.854811E+00  0.855442E+00
  0.852525E+00  0.846985E+00  0.840153E+00  0.832599E+00  0.823882E+00  0.813794E+00
  0.803188E+00  0.792887E+00  0.782550E+00  0.771764E+00  0.761664E+00  0.754289E+00
  0.750675E+00  0.750675E+00  0.754289E+00  0.761664E+00  0.771764E+00  0.782550E+00
  0.792887E+00  0.803188E+00  0.813794E+00  0.823882E+00  0.832599E+00  0.840153E+00
  0.846985E+00  0.852525E+00  0.855442E+00  0.854811E+00  0.850692E+00  0.843999E+00
  0.837372E+00  0.832973E+00  0.829410E+00  0.828034E+00  0.829410E+00  0.832973E+00
  0.837372E+00  0.841125E+00  0.842981E+00  0.841911E+00  0.837206E+00  0.828875E+00
  0.817871E+00  0.805428E+00  0.792055E+00  0.777724E+00  0.763046E+00  0.749190E+00
  0.736349E+00  0.723719E+00  0.711558E+00  0.701843E+00  0.696193E+00  0.694472E+00
  0.696193E+00  0.701843E+00  0.711558E+00  0.723719E+00  0.736349E+00  0.749190E+00
  0.763046E+00  0.777724E+00  0.792055E+00  0.805428E+00  0.817871E+00  0.828875E+00
  0.837206E+00  0.841911E+00  0.842981E+00  0.841125E+00  0.837372E+00  0.837372E+00
  0.836261E+00  0.835329E+00  0.835329E+00  0.836261E+00  0.837372E+00  0.837603E+00
  0.836001E+00  0.831783E+00  0.824240E+00  0.812902E+00  0.797923E+00  0.780106E+00
  0.760302E+00  0.739124E+00  0.717638E+00  0.697670E+00  0.680319E+00  0.664777E+00
  0.650093E+00  0.637412E+00  0.628900E+00  0.625093E+00  0.625093E+00  0.628900E+00
  0.637412E+00  0.650093E+00  0.664777E+00  0.680319E+00  0.697670E+00  0.717638E+00
  0.739124E+00  0.760302E+00  0.780106E+00  0.797923E+00  0.812902E+00  0.824240E+00
  0.831783E+00  0.836001E+00  0.837603E+00  0.837372E+00  0.843999E+00  0.845328E+00
  0.845694E+00  0.845328E+00  0.843999E+00  0.841125E+00  0.836001E+00  0.827966E+00
  0.816460E+00  0.801086E+00  0.781758E+00  0.758769E+00  0.732543E+00  0.703554E+00
  0.673034E+00  0.643594E+00  0.617943E+00  0.596559E+00  0.577993E+00  0.561858E+00
  0.549852E+00  0.543259E+00  0.541336E+00  0.543259E+00  0.549852E+00  0.561858E+00
  0.577993E+00  0.596559E+00  0.617943E+00  0.643594E+00  0.673034E+00  0.703554E+00
  0.732543E+00  0.758769E+00  0.781758E+00  0.801086E+00  0.816460E+00  0.827966E+00
  0.836001E+00  0.841125E+00  0.843999E+00  0.855510E+00  0.857832E+00  0.857832E+00
  0.855510E+00  0.850692E+00  0.842981E+00  0.831783E+00  0.816460E+00  0.796581E+00
  0.772116E+00  0.743384E+00  0.710722E+00  0.674329E+00  0.634974E+00  0.595102E+00
  0.558414E+00  0.527332E+00  0.501562E+00  0.480079E+00  0.463503E+00  0.453165E+00
  0.448723E+00  0.448723E+00  0.453165E+00  0.463503E+00  0.480079E+00  0.501562E+00
  0.527332E+00  0.558414E+00  0.595102E+00  0.634974E+00  0.674329E+00  0.710722E+00
  0.743384E+00  0.772116E+00  0.796581E+00  0.816460E+00  0.831783E+00  0.842981E+00
  0.850692E+00  0.855510E+00  0.868861E+00  0.870592E+00  0.868861E+00  0.863649E+00
  0.854811E+00  0.841911E+00  0.824240E+00  0.801086E+00  0.772116E+00  0.737540E+00
  0.697879E+00  0.653677E+00  0.605827E+00  0.556482E+00  0.509237E+00  0.467400E+00
  0.432080E+00  0.402850E+00  0.379937E+00  0.364464E+00  0.356431E+00  0.354127E+00
  0.356431E+00  0.364464E+00  0.379937E+00  0.402850E+00  0.432080E+00  0.467400E+00
  0.509237E+00  0.556482E+00  0.605827E+00  0.653677E+00  0.697879E+00  0.737540E+00
  0.772116E+00  0.801086E+00  0.824240E+00  0.841911E+00  0.854811E+00  0.863649E+00
  0.868861E+00  0.881083E+00  0.881083E+00  0.876906E+00  0.868463E+00  0.855442E+00
  0.837206E+00  0.812902E+00  0.781758E+00  0.743384E+00  0.697879E+00  0.645890E+00
  0.588943E+00  0.529902E+00  0.472759E+00  0.421131E+00  0.376666E+00  0.339367E+00
  0.309412E+00  0.287831E+00  0.275028E+00  0.269569E+00  0.269569E+00  0.275028E+00
  0.287831E+00  0.309412E+00  0.339367E+00  0.376666E+00  0.421131E+00  0.472759E+00
  0.529902E+00  0.588943E+00  0.645890E+00  0.697879E+00  0.743384E+00  0.781758E+00
  0.812902E+00  0.837206E+00  0.855442E+00  0.868463E+00  0.876906E+00  0.881083E+00
  0.890710E+00  0.888457E+00  0.881601E+00  0.869821E+00  0.852525E+00  0.828875E+00
  0.797923E+00  0.758769E+00  0.710722E+00  0.653677E+00  0.588943E+00  0.520024E+00
  0.452164E+00  0.390259E+00  0.336835E+00  0.292140E+00  0.255937E+00  0.228664E+00
  0.210714E+00  0.201218E+00  0.198370E+00  0.201218E+00  0.210714E+00  0.228664E+00
  0.255937E+00  0.292140E+00  0.336835E+00  0.390259E+00  0.452164E+00  0.520024E+00
  0.588943E+00  0.653677E+00  0.710722E+00  0.758769E+00  0.797923E+00  0.828875E+00
  0.852525E+00  0.869821E+00  0.881601E+00  0.888457E+00  0.890710E+00  0.897899E+00
  0.893280E+00  0.883720E+00  0.868584E+00  0.846985E+00  0.817871E+00  0.780106E+00
  0.732543E+00  0.674329E+00  0.605827E+00  0.529902E+00  0.452164E+00  0.379039E+00
  0.315061E+00  0.261909E+00  0.219479E+00  0.187277E+00  0.164771E+00  0.151029E+00
  0.144694E+00  0.144694E+00  0.151029E+00  0.164771E+00  0.187277E+00  0.219479E+00
  0.261909E+00  0.315061E+00  0.379039E+00  0.452164E+00  0.529902E+00  0.605827E+00
  0.674329E+00  0.732543E+00  0.780106E+00  0.817871E+00  0.846985E+00  0.868584E+00
  0.883720E+00  0.893280E+00  0.897899E+00  0.897899E+00  0.903363E+00  0.896472E+00
  0.884327E+00  0.865971E+00  0.840153E+00  0.805428E+00  0.760302E+00  0.703554E+00
  0.634974E+00  0.556482E+00  0.472759E+00  0.390259E+00  0.315061E+00  0.251278E+00
  0.200622E+00  0.162718E+00  0.135927E+00  0.118317E+00  0.108348E+00  0.105121E+00
  0.108348E+00  0.118317E+00  0.135927E+00  0.162718E+00  0.200622E+00  0.251278E+00
  0.315061E+00  0.390259E+00  0.472759E+00  0.556482E+00  0.634974E+00  0.703554E+00
  0.760302E+00  0.805428E+00  0.840153E+00  0.865971E+00  0.884327E+00  0.896472E+00
  0.903363E+00  0.905593E+00  0.903363E+00  0.907443E+00  0.898465E+00  0.883940E+00
  0.862563E+00  0.832599E+00  0.792055E+00  0.739124E+00  0.673034E+00  0.595102E+00
  0.509237E+00  0.421131E+00  0.336835E+00  0.261909E+00  0.200622E+00  0.154555E+00
  0.122207E+00  0.100578E+00  0.871398E-01  0.806154E-01  0.806154E-01  0.871398E-01
  0.100578E+00  0.122207E+00  0.154555E+00  0.200622E+00  0.261909E+00  0.336835E+00
  0.421131E+00  0.509237E+00  0.595102E+00  0.673034E+00  0.739124E+00  0.792055E+00
  0.832599E+00  0.862563E+00  0.883940E+00  0.898465E+00  0.907443E+00  0.911726E+00
  0.911726E+00  0.907443E+00  0.910135E+00  0.899170E+00  0.882324E+00  0.857951E+00
  0.823882E+00  0.777724E+00  0.717638E+00  0.643594E+00  0.558414E+00  0.467400E+00
  0.376666E+00  0.292140E+00  0.219479E+00  0.162718E+00  0.122207E+00  0.950581E-01
  0.777345E-01  0.679457E-01  0.647546E-01  0.679457E-01  0.777345E-01  0.950581E-01
  0.122207E+00  0.162718E+00  0.219479E+00  0.292140E+00  0.376666E+00  0.467400E+00
  0.558414E+00  0.643594E+00  0.717638E+00  0.777724E+00  0.823882E+00  0.857951E+00
  0.882324E+00  0.899170E+00  0.910135E+00  0.916312E+00  0.918307E+00  0.916312E+00
  0.910135E+00  0.911506E+00  0.898465E+00  0.879131E+00  0.851675E+00  0.813794E+00
  0.763046E+00  0.697670E+00  0.617943E+00  0.527332E+00  0.432080E+00  0.339367E+00
  0.255937E+00  0.187277E+00  0.135927E+00  0.100578E+00  0.777345E-01  0.641174E-01
  0.577323E-01  0.577323E-01  0.641174E-01  0.777345E-01  0.100578E+00  0.135927E+00
  0.187277E+00  0.255937E+00  0.339367E+00  0.432080E+00  0.527332E+00  0.617943E+00
  0.697670E+00  0.763046E+00  0.813794E+00  0.851675E+00  0.879131E+00  0.898465E+00
  0.911506E+00  0.919548E+00  0.923383E+00  0.923383E+00  0.919548E+00  0.911506E+00
  0.911660E+00  0.896472E+00  0.874590E+00  0.844211E+00  0.803188E+00  0.749190E+00
  0.680319E+00  0.596559E+00  0.501562E+00  0.402850E+00  0.309412E+00  0.228664E+00
  0.164771E+00  0.118317E+00  0.871398E-01  0.679457E-01  0.577323E-01  0.545480E-01
  0.577323E-01  0.679457E-01  0.871398E-01  0.118317E+00  0.164771E+00  0.228664E+00
  0.309412E+00  0.402850E+00  0.501562E+00  0.596559E+00  0.680319E+00  0.749190E+00
  0.803188E+00  0.844211E+00  0.874590E+00  0.896472E+00  0.911660E+00  0.921554E+00
  0.927124E+00  0.928921E+00  0.927124E+00  0.921554E+00  0.911660E+00  0.910350E+00
  0.893280E+00  0.869220E+00  0.836424E+00  0.792887E+00  0.736349E+00  0.664777E+00
  0.577993E+00  0.480079E+00  0.379937E+00  0.287831E+00  0.210714E+00  0.151029E+00
  0.108348E+00  0.806154E-01  0.647546E-01  0.577323E-01  0.577323E-01  0.647546E-01
  0.806154E-01  0.108348E+00  0.151029E+00  0.210714E+00  0.287831E+00  0.379937E+00
  0.480079E+00  0.577993E+00  0.664777E+00  0.736349E+00  0.792887E+00  0.836424E+00
  0.869220E+00  0.893280E+00  0.910350E+00  0.921888E+00  0.928995E+00  0.932379E+00
  0.932379E+00  0.928995E+00  0.921888E+00  0.910350E+00  0.906842E+00  0.888457E+00
  0.862883E+00  0.828254E+00  0.782550E+00  0.723719E+00  0.650093E+00  0.561858E+00
  0.463503E+00  0.364464E+00  0.275028E+00  0.201218E+00  0.144694E+00  0.105121E+00
  0.806154E-01  0.679457E-01  0.641174E-01  0.679457E-01  0.806154E-01  0.105121E+00
  0.144694E+00  0.201218E+00  0.275028E+00  0.364464E+00  0.463503E+00  0.561858E+00
  0.650093E+00  0.723719E+00  0.782550E+00  0.828254E+00  0.862883E+00  0.888457E+00
  0.906842E+00  0.919620E+00  0.927986E+00  0.932723E+00  0.934258E+00  0.932723E+00
  0.927986E+00  0.919620E+00  0.906842E+00  0.900145E+00  0.881083E+00  0.854731E+00
  0.818968E+00  0.771764E+00  0.711558E+00  0.637412E+00  0.549852E+00  0.453165E+00
  0.356431E+00  0.269569E+00  0.198370E+00  0.144694E+00  0.108348E+00  0.871398E-01
  0.777345E-01  0.777345E-01  0.871398E-01  0.108348E+00  0.144694E+00  0.198370E+00
  0.269569E+00  0.356431E+00  0.453165E+00  0.549852E+00  0.637412E+00  0.711558E+00
  0.771764E+00  0.818968E+00  0.854731E+00  0.881083E+00  0.900145E+00  0.913714E+00
  0.923065E+00  0.928973E+00  0.931846E+00  0.931846E+00  0.928973E+00  0.923065E+00
  0.913714E+00  0.900145E+00  0.889466E+00  0.870592E+00  0.844500E+00  0.808848E+00
  0.761664E+00  0.701843E+00  0.628900E+00  0.543259E+00  0.448723E+00  0.354127E+00
  0.269569E+00  0.201218E+00  0.151029E+00  0.118317E+00  0.100578E+00  0.950581E-01
  0.100578E+00  0.118317E+00  0.151029E+00  0.201218E+00  0.269569E+00  0.354127E+00
  0.448723E+00  0.543259E+00  0.628900E+00  0.701843E+00  0.761664E+00  0.808848E+00
  0.844500E+00  0.870592E+00  0.889466E+00  0.903133E+00  0.912953E+00  0.919677E+00
  0.923640E+00  0.924954E+00  0.923640E+00  0.919677E+00  0.912953E+00  0.903133E+00
  0.889466E+00  0.874916E+00  0.857832E+00  0.833611E+00  0.799767E+00  0.754289E+00
  0.696193E+00  0.625093E+00  0.541336E+00  0.448723E+00  0.356431E+00  0.275028E+00
  0.210714E+00  0.164771E+00  0.135927E+00  0.122207E+00  0.122207E+00  0.135927E+00
  0.164771E+00  0.210714E+00  0.275028E+00  0.356431E+00  0.448723E+00  0.541336E+00
  0.625093E+00  0.696193E+00  0.754289E+00  0.799767E+00  0.833611E+00  0.857832E+00
  0.874916E+00  0.887013E+00  0.895593E+00  0.901539E+00  0.905338E+00  0.907208E+00
  0.907208E+00  0.905338E+00  0.901539E+00  0.895593E+00  0.887013E+00  0.874916E+00
  0.858323E+00  0.845328E+00  0.824632E+00  0.793768E+00  0.750675E+00  0.694472E+00
  0.625093E+00  0.543259E+00  0.453165E+00  0.364464E+00  0.287831E+00  0.228664E+00
  0.187277E+00  0.162718E+00  0.154555E+00  0.162718E+00  0.187277E+00  0.228664E+00
  0.287831E+00  0.364464E+00  0.453165E+00  0.543259E+00  0.625093E+00  0.694472E+00
  0.750675E+00  0.793768E+00  0.824632E+00  0.845328E+00  0.858323E+00  0.865612E+00
  0.868573E+00  0.868461E+00  0.866788E+00  0.865091E+00  0.864412E+00  0.865091E+00
  0.866788E+00  0.868461E+00  0.868573E+00  0.865612E+00  0.858323E+00  0.843404E+00
  0.836261E+00  0.819690E+00  0.791738E+00  0.750675E+00  0.696193E+00  0.628900E+00
  0.549852E+00  0.463503E+00  0.379937E+00  0.309412E+00  0.255937E+00  0.219479E+00
  0.200622E+00  0.200622E+00  0.219479E+00  0.255937E+00  0.309412E+00  0.379937E+00
  0.463503E+00  0.549852E+00  0.628900E+00  0.696193E+00  0.750675E+00  0.791738E+00
  0.819690E+00  0.836261E+00  0.843404E+00  0.842014E+00  0.831954E+00  0.813633E+00
  0.790219E+00  0.768275E+00  0.755109E+00  0.755109E+00  0.768275E+00  0.790219E+00
  0.813633E+00  0.831954E+00  0.842014E+00  0.843404E+00  0.834502E+00  0.832973E+00
  0.819690E+00  0.793768E+00  0.754289E+00  0.701843E+00  0.637412E+00  0.561858E+00
  0.480079E+00  0.402850E+00  0.339367E+00  0.292140E+00  0.261909E+00  0.251278E+00
  0.261909E+00  0.292140E+00  0.339367E+00  0.402850E+00  0.480079E+00  0.561858E+00
  0.637412E+00  0.701843E+00  0.754289E+00  0.793768E+00  0.819690E+00  0.832973E+00
  0.834502E+00  0.822790E+00  0.793028E+00  0.739332E+00  0.662403E+00  0.578953E+00
  0.516324E+00  0.493675E+00  0.516324E+00  0.578953E+00  0.662403E+00  0.739332E+00
  0.793028E+00  0.822790E+00  0.834502E+00  0.834502E+00  0.836261E+00  0.824632E+00
  0.799767E+00  0.761664E+00  0.711558E+00  0.650093E+00  0.577993E+00  0.501562E+00
  0.432080E+00  0.376666E+00  0.336835E+00  0.315061E+00  0.315061E+00  0.336835E+00
  0.376666E+00  0.432080E+00  0.501562E+00  0.577993E+00  0.650093E+00  0.711558E+00
  0.761664E+00  0.799767E+00  0.824632E+00  0.836261E+00  0.834502E+00  0.815292E+00
  0.766890E+00  0.669685E+00  0.513969E+00  0.340468E+00  0.217618E+00  0.163247E+00
  0.163247E+00  0.217618E+00  0.340468E+00  0.513969E+00  0.669685E+00  0.766890E+00
  0.815292E+00  0.834502E+00  0.843404E+00  0.845328E+00  0.833611E+00  0.808848E+00
  0.771764E+00  0.723719E+00  0.664777E+00  0.596559E+00  0.527332E+00  0.467400E+00
  0.421131E+00  0.390259E+00  0.379039E+00  0.390259E+00  0.421131E+00  0.467400E+00
  0.527332E+00  0.596559E+00  0.664777E+00  0.723719E+00  0.771764E+00  0.808848E+00
  0.833611E+00  0.845328E+00  0.843404E+00  0.822790E+00  0.766890E+00  0.640803E+00
  0.417858E+00  0.184562E+00  0.628891E-01  0.251451E-01  0.176054E-01  0.251451E-01
  0.628891E-01  0.184562E+00  0.417858E+00  0.640803E+00  0.766890E+00  0.822790E+00
  0.843404E+00  0.858323E+00  0.857832E+00  0.844500E+00  0.818968E+00  0.782550E+00
  0.736349E+00  0.680319E+00  0.617943E+00  0.558414E+00  0.509237E+00  0.472759E+00
  0.452164E+00  0.452164E+00  0.472759E+00  0.509237E+00  0.558414E+00  0.617943E+00
  0.680319E+00  0.736349E+00  0.782550E+00  0.818968E+00  0.844500E+00  0.857832E+00
  0.858323E+00  0.842014E+00  0.793028E+00  0.669685E+00  0.417858E+00  0.139598E+00
  0.238653E-01  0.320998E-02  0.763328E-03  0.763328E-03  0.320998E-02  0.238653E-01
  0.139598E+00  0.417858E+00  0.669685E+00  0.793028E+00  0.842014E+00  0.858323E+00
  0.874916E+00  0.870592E+00  0.854731E+00  0.828254E+00  0.792887E+00  0.749190E+00
  0.697670E+00  0.643594E+00  0.595102E+00  0.556482E+00  0.529902E+00  0.520024E+00
  0.529902E+00  0.556482E+00  0.595102E+00  0.643594E+00  0.697670E+00  0.749190E+00
  0.792887E+00  0.828254E+00  0.854731E+00  0.870592E+00  0.874916E+00  0.865612E+00
  0.831954E+00  0.739332E+00  0.513969E+00  0.184562E+00  0.238653E-01  0.117003E-02
  0.331649E-04  0.494254E-05  0.331649E-04  0.117003E-02  0.238653E-01  0.184562E+00
  0.513969E+00  0.739332E+00  0.831954E+00  0.865612E+00  0.874916E+00  0.889466E+00
  0.881083E+00  0.862883E+00  0.836424E+00  0.803188E+00  0.763046E+00  0.717638E+00
  0.673034E+00  0.634974E+00  0.605827E+00  0.588943E+00  0.588943E+00  0.605827E+00
  0.634974E+00  0.673034E+00  0.717638E+00  0.763046E+00  0.803188E+00  0.836424E+00
  0.862883E+00  0.881083E+00  0.889466E+00  0.887013E+00  0.868573E+00  0.813633E+00
  0.662403E+00  0.340468E+00  0.628891E-01  0.320998E-02  0.331649E-04  0.130826E-06
  0.130826E-06  0.331649E-04  0.320998E-02  0.628891E-01  0.340468E+00  0.662403E+00
  0.813633E+00  0.868573E+00  0.887013E+00  0.889466E+00  0.900145E+00  0.888457E+00
  0.869220E+00  0.844211E+00  0.813794E+00  0.777724E+00  0.739124E+00  0.703554E+00
  0.674329E+00  0.653677E+00  0.645890E+00  0.653677E+00  0.674329E+00  0.703554E+00
  0.739124E+00  0.777724E+00  0.813794E+00  0.844211E+00  0.869220E+00  0.888457E+00
  0.900145E+00  0.903133E+00  0.895593E+00  0.868461E+00  0.790219E+00  0.578953E+00
  0.217618E+00  0.251451E-01  0.763328E-03  0.494254E-05  0.130826E-06  0.494254E-05
  0.763328E-03  0.251451E-01  0.217618E+00  0.578953E+00  0.790219E+00  0.868461E+00
  0.895593E+00  0.903133E+00  0.900145E+00  0.906842E+00  0.893280E+00  0.874590E+00
  0.851675E+00  0.823882E+00  0.792055E+00  0.760302E+00  0.732543E+00  0.710722E+00
  0.697879E+00  0.697879E+00  0.710722E+00  0.732543E+00  0.760302E+00  0.792055E+00
  0.823882E+00  0.851675E+00  0.874590E+00  0.893280E+00  0.906842E+00  0.913714E+00
  0.912953E+00  0.901539E+00  0.866788E+00  0.768275E+00  0.516324E+00  0.163247E+00
  0.176054E-01  0.763328E-03  0.331649E-04  0.331649E-04  0.763328E-03  0.176054E-01
  0.163247E+00  0.516324E+00  0.768275E+00  0.866788E+00  0.901539E+00  0.912953E+00
  0.913714E+00  0.906842E+00  0.910350E+00  0.896472E+00  0.879131E+00  0.857951E+00
  0.832599E+00  0.805428E+00  0.780106E+00  0.758769E+00  0.743384E+00  0.737540E+00
  0.743384E+00  0.758769E+00  0.780106E+00  0.805428E+00  0.832599E+00  0.857951E+00
  0.879131E+00  0.896472E+00  0.910350E+00  0.919620E+00  0.923065E+00  0.919677E+00
  0.905338E+00  0.865091E+00  0.755109E+00  0.493675E+00  0.163247E+00  0.251451E-01
  0.320998E-02  0.117003E-02  0.320998E-02  0.251451E-01  0.163247E+00  0.493675E+00
  0.755109E+00  0.865091E+00  0.905338E+00  0.919677E+00  0.923065E+00  0.919620E+00
  0.910350E+00  0.911660E+00  0.898465E+00  0.882324E+00  0.862563E+00  0.840153E+00
  0.817871E+00  0.797923E+00  0.781758E+00  0.772116E+00  0.772116E+00  0.781758E+00
  0.797923E+00  0.817871E+00  0.840153E+00  0.862563E+00  0.882324E+00  0.898465E+00
  0.911660E+00  0.921888E+00  0.927986E+00  0.928973E+00  0.923640E+00  0.907208E+00
  0.864412E+00  0.755109E+00  0.516324E+00  0.217618E+00  0.628891E-01  0.238653E-01
  0.238653E-01  0.628891E-01  0.217618E+00  0.516324E+00  0.755109E+00  0.864412E+00
  0.907208E+00  0.923640E+00  0.928973E+00  0.927986E+00  0.921888E+00  0.911660E+00
  0.911506E+00  0.899170E+00  0.883940E+00  0.865971E+00  0.846985E+00  0.828875E+00
  0.812902E+00  0.801086E+00  0.796581E+00  0.801086E+00  0.812902E+00  0.828875E+00
  0.846985E+00  0.865971E+00  0.883940E+00  0.899170E+00  0.911506E+00  0.921554E+00
  0.928995E+00  0.932723E+00  0.931846E+00  0.924954E+00  0.907208E+00  0.865091E+00
  0.768275E+00  0.578953E+00  0.340468E+00  0.184562E+00  0.139598E+00  0.184562E+00
  0.340468E+00  0.578953E+00  0.768275E+00  0.865091E+00  0.907208E+00  0.924954E+00
  0.931846E+00  0.932723E+00  0.928995E+00  0.921554E+00  0.911506E+00  0.910135E+00
  0.898465E+00  0.884327E+00  0.868584E+00  0.852525E+00  0.837206E+00  0.824240E+00
  0.816460E+00  0.816460E+00  0.824240E+00  0.837206E+00  0.852525E+00  0.868584E+00
  0.884327E+00  0.898465E+00  0.910135E+00  0.919548E+00  0.927124E+00  0.932379E+00
  0.934258E+00  0.931846E+00  0.923640E+00  0.905338E+00  0.866788E+00  0.790219E+00
  0.662403E+00  0.513969E+00  0.417858E+00  0.417858E+00  0.513969E+00  0.662403E+00
  0.790219E+00  0.866788E+00  0.905338E+00  0.923640E+00  0.931846E+00  0.934258E+00
  0.932379E+00  0.927124E+00  0.919548E+00  0.910135E+00  0.907443E+00  0.896472E+00
  0.883720E+00  0.869821E+00  0.855442E+00  0.841911E+00  0.831783E+00  0.827966E+00
  0.831783E+00  0.841911E+00  0.855442E+00  0.869821E+00  0.883720E+00  0.896472E+00
  0.907443E+00  0.916312E+00  0.923383E+00  0.928921E+00  0.932379E+00  0.932723E+00
  0.928973E+00  0.919677E+00  0.901539E+00  0.868461E+00  0.813633E+00  0.739332E+00
  0.669685E+00  0.640803E+00  0.669685E+00  0.739332E+00  0.813633E+00  0.868461E+00
  0.901539E+00  0.919677E+00  0.928973E+00  0.932723E+00  0.932379E+00  0.928921E+00
  0.923383E+00  0.916312E+00  0.907443E+00  0.903363E+00  0.893280E+00  0.881601E+00
  0.868463E+00  0.854811E+00  0.842981E+00  0.836001E+00  0.836001E+00  0.842981E+00
  0.854811E+00  0.868463E+00  0.881601E+00  0.893280E+00  0.903363E+00  0.911726E+00
  0.918307E+00  0.923383E+00  0.927124E+00  0.928995E+00  0.927986E+00  0.923065E+00
  0.912953E+00  0.895593E+00  0.868573E+00  0.831954E+00  0.793028E+00  0.766890E+00
  0.766890E+00  0.793028E+00  0.831954E+00  0.868573E+00  0.895593E+00  0.912953E+00
  0.923065E+00  0.927986E+00  0.928995E+00  0.927124E+00  0.923383E+00  0.918307E+00
  0.911726E+00  0.903363E+00  0.897899E+00  0.888457E+00  0.876906E+00  0.863649E+00
  0.850692E+00  0.841125E+00  0.837603E+00  0.841125E+00  0.850692E+00  0.863649E+00
  0.876906E+00  0.888457E+00  0.897899E+00  0.905593E+00  0.911726E+00  0.916312E+00
  0.919548E+00  0.921554E+00  0.921888E+00  0.919620E+00  0.913714E+00  0.903133E+00
  0.887013E+00  0.865612E+00  0.842014E+00  0.822790E+00  0.815292E+00  0.822790E+00
  0.842014E+00  0.865612E+00  0.887013E+00  0.903133E+00  0.913714E+00  0.919620E+00
  0.921888E+00  0.921554E+00  0.919548E+00  0.916312E+00  0.911726E+00  0.905593E+00
  0.897899E+00  0.890710E+00  0.881083E+00  0.868861E+00  0.855510E+00  0.843999E+00
  0.837372E+00  0.837372E+00  0.843999E+00  0.855510E+00  0.868861E+00  0.881083E+00
  0.890710E+00  0.897899E+00  0.903363E+00  0.907443E+00  0.910135E+00  0.911506E+00
  0.911660E+00  0.910350E+00  0.906842E+00  0.900145E+00  0.889466E+00  0.874916E+00
  0.858323E+00  0.843404E+00  0.834502E+00  0.834502E+00  0.843404E+00  0.858323E+00
  0.874916E+00  0.889466E+00  0.900145E+00  0.906842E+00  0.910350E+00  0.911660E+00
  0.911506E+00  0.910135E+00  0.907443E+00  0.903363E+00  0.897899E+00  0.890710E+00
  0.901992E+00  0.889466E+00  0.873920E+00  0.858014E+00  0.845901E+00  0.841364E+00
  0.845901E+00  0.858014E+00  0.873920E+00  0.889466E+00  0.901992E+00  0.910820E+00
  0.916503E+00  0.919885E+00  0.921634E+00  0.922167E+00  0.921634E+00  0.919885E+00
  0.916503E+00  0.910820E+00  0.901992E+00  0.889466E+00  0.873920E+00  0.858014E+00
  0.845901E+00  0.841364E+00  0.845901E+00  0.858014E+00  0.873920E+00  0.889466E+00
  0.901992E+00  0.910820E+00  0.916503E+00  0.919885E+00  0.921634E+00  0.922167E+00
  0.921634E+00  0.919885E+00  0.916503E+00  0.910820E+00  0.901992E+00  0.889466E+00
  0.874916E+00  0.858323E+00  0.843404E+00  0.834502E+00  0.834502E+00  0.843404E+00
  0.858323E+00  0.874916E+00  0.889466E+00  0.900145E+00  0.906842E+00  0.910350E+00
  0.911660E+00  0.911506E+00  0.910135E+00  0.907443E+00  0.903363E+00  0.897899E+00
  0.890710E+00  0.881083E+00  0.868861E+00  0.855510E+00  0.843999E+00  0.837372E+00
  0.837372E+00  0.843999E+00  0.855510E+00  0.868861E+00  0.881083E+00  0.890710E+00
  0.897899E+00  0.903363E+00  0.907443E+00  0.910135E+00  0.911506E+00  0.911660E+00
  0.910350E+00  0.906842E+00  0.900145E+00  0.889466E+00  0.873920E+00  0.858323E+00
  0.842395E+00  0.830264E+00  0.825711E+00  0.830264E+00  0.842395E+00  0.858323E+00
  0.873920E+00  0.886366E+00  0.894561E+00  0.898654E+00  0.899533E+00  0.898358E+00
  0.895915E+00  0.892167E+00  0.886743E+00  0.879791E+00  0.871845E+00  0.862883E+00
  0.852350E+00  0.840541E+00  0.829402E+00  0.821545E+00  0.818748E+00  0.821545E+00
  0.829402E+00  0.840541E+00  0.852350E+00  0.862883E+00  0.871845E+00  0.879791E+00
  0.886743E+00  0.892167E+00  0.895915E+00  0.898358E+00  0.899533E+00  0.898654E+00
  0.894561E+00  0.886366E+00  0.873920E+00  0.858014E+00  0.843404E+00  0.830264E+00
  0.822375E+00  0.822375E+00  0.830264E+00  0.843404E+00  0.858014E+00  0.870887E+00
  0.880140E+00  0.885046E+00  0.885756E+00  0.883233E+00  0.878847E+00  0.873354E+00
  0.866391E+00  0.857485E+00  0.847178E+00  0.836424E+00  0.825316E+00  0.813565E+00
  0.802094E+00  0.793042E+00  0.788194E+00  0.788194E+00  0.793042E+00  0.802094E+00
  0.813565E+00  0.825316E+00  0.836424E+00  0.847178E+00  0.857485E+00  0.866391E+00
  0.873354E+00  0.878847E+00  0.883233E+00  0.885756E+00  0.885046E+00  0.880140E+00
  0.870887E+00  0.858014E+00  0.845901E+00  0.834502E+00  0.825711E+00  0.822375E+00
  0.825711E+00  0.834502E+00  0.845901E+00  0.856974E+00  0.865620E+00  0.870561E+00
  0.871116E+00  0.867364E+00  0.860388E+00  0.851685E+00  0.841850E+00  0.830375E+00
  0.817138E+00  0.803188E+00  0.789479E+00  0.775934E+00  0.762783E+00  0.751702E+00
  0.744625E+00  0.742273E+00  0.744625E+00  0.751702E+00  0.762783E+00  0.775934E+00
  0.789479E+00  0.803188E+00  0.817138E+00  0.830375E+00  0.841850E+00  0.851685E+00
  0.860388E+00  0.867364E+00  0.871116E+00  0.870561E+00  0.865620E+00  0.856974E+00
  0.845901E+00  0.841364E+00  0.834502E+00  0.830264E+00  0.830264E+00  0.834502E+00
  0.841364E+00  0.848647E+00  0.854517E+00  0.857663E+00  0.857044E+00  0.851943E+00
  0.842470E+00  0.829785E+00  0.815211E+00  0.799126E+00  0.781454E+00  0.763046E+00
  0.745330E+00  0.728674E+00  0.712770E+00  0.698642E+00  0.688468E+00  0.683457E+00
  0.683457E+00  0.688468E+00  0.698642E+00  0.712770E+00  0.728674E+00  0.745330E+00
  0.763046E+00  0.781454E+00  0.799126E+00  0.815211E+00  0.829785E+00  0.842470E+00
  0.851943E+00  0.857044E+00  0.857663E+00  0.854517E+00  0.848647E+00  0.841364E+00
  0.845901E+00  0.843404E+00  0.842395E+00  0.843404E+00  0.845901E+00  0.848647E+00
  0.850325E+00  0.849857E+00  0.846287E+00  0.838692E+00  0.826500E+00  0.809983E+00
  0.790112E+00  0.767678E+00  0.743123E+00  0.717638E+00  0.693413E+00  0.671757E+00
  0.652157E+00  0.634458E+00  0.620460E+00  0.612065E+00  0.609407E+00  0.612065E+00
  0.620460E+00  0.634458E+00  0.652157E+00  0.671757E+00  0.693413E+00  0.717638E+00
  0.743123E+00  0.767678E+00  0.790112E+00  0.809983E+00  0.826500E+00  0.838692E+00
  0.846287E+00  0.849857E+00  0.850325E+00  0.848647E+00  0.845901E+00  0.858014E+00
  0.858323E+00  0.858323E+00  0.858014E+00  0.856974E+00  0.854517E+00  0.849857E+00
  0.842175E+00  0.830641E+00  0.814591E+00  0.793862E+00  0.768851E+00  0.740010E+00
  0.707659E+00  0.673034E+00  0.639113E+00  0.608913E+00  0.583011E+00  0.560514E+00
  0.542026E+00  0.529505E+00  0.523636E+00  0.523636E+00  0.529505E+00  0.542026E+00
  0.560514E+00  0.583011E+00  0.608913E+00  0.639113E+00  0.673034E+00  0.707659E+00
  0.740010E+00  0.768851E+00  0.793862E+00  0.814591E+00  0.830641E+00  0.842175E+00
  0.849857E+00  0.854517E+00  0.856974E+00  0.858014E+00  0.873920E+00  0.874916E+00
  0.873920E+00  0.870887E+00  0.865620E+00  0.857663E+00  0.846287E+00  0.830641E+00
  0.810027E+00  0.784218E+00  0.753494E+00  0.718204E+00  0.678452E+00  0.634974E+00
  0.590561E+00  0.549350E+00  0.513817E+00  0.483816E+00  0.459218E+00  0.441462E+00
  0.431556E+00  0.428559E+00  0.431556E+00  0.441462E+00  0.459218E+00  0.483816E+00
  0.513817E+00  0.549350E+00  0.590561E+00  0.634974E+00  0.678452E+00  0.718204E+00
  0.753494E+00  0.784218E+00  0.810027E+00  0.830641E+00  0.846287E+00  0.857663E+00
  0.865620E+00  0.870887E+00  0.873920E+00  0.889466E+00  0.889466E+00  0.886366E+00
  0.880140E+00  0.870561E+00  0.857044E+00  0.838692E+00  0.814591E+00  0.784218E+00
  0.747656E+00  0.705360E+00  0.657793E+00  0.605827E+00  0.551933E+00  0.500266E+00
  0.454340E+00  0.415170E+00  0.382801E+00  0.358416E+00  0.343291E+00  0.336644E+00
  0.336644E+00  0.343291E+00  0.358416E+00  0.382801E+00  0.415170E+00  0.454340E+00
  0.500266E+00  0.551933E+00  0.605827E+00  0.657793E+00  0.705360E+00  0.747656E+00
  0.784218E+00  0.814591E+00  0.838692E+00  0.857044E+00  0.870561E+00  0.880140E+00
  0.886366E+00  0.889466E+00  0.901992E+00  0.900145E+00  0.894561E+00  0.885046E+00
  0.871116E+00  0.851943E+00  0.826500E+00  0.793862E+00  0.753494E+00  0.705360E+00
  0.650001E+00  0.588943E+00  0.525357E+00  0.463843E+00  0.408431E+00  0.360708E+00
  0.320781E+00  0.289519E+00  0.268374E+00  0.257171E+00  0.253862E+00  0.257171E+00
  0.268374E+00  0.289519E+00  0.320781E+00  0.360708E+00  0.408431E+00  0.463843E+00
  0.525357E+00  0.588943E+00  0.650001E+00  0.705360E+00  0.753494E+00  0.793862E+00
  0.826500E+00  0.851943E+00  0.871116E+00  0.885046E+00  0.894561E+00  0.900145E+00
  0.901992E+00  0.910820E+00  0.906842E+00  0.898654E+00  0.885756E+00  0.867364E+00
  0.842470E+00  0.809983E+00  0.768851E+00  0.718204E+00  0.657793E+00  0.588943E+00
  0.515483E+00  0.443280E+00  0.377787E+00  0.321634E+00  0.274993E+00  0.237906E+00
  0.211179E+00  0.194964E+00  0.187755E+00  0.187755E+00  0.194964E+00  0.211179E+00
  0.237906E+00  0.274993E+00  0.321634E+00  0.377787E+00  0.443280E+00  0.515483E+00
  0.588943E+00  0.657793E+00  0.718204E+00  0.768851E+00  0.809983E+00  0.842470E+00
  0.867364E+00  0.885756E+00  0.898654E+00  0.906842E+00  0.910820E+00  0.910820E+00
  0.916503E+00  0.910350E+00  0.899533E+00  0.883233E+00  0.860388E+00  0.829785E+00
  0.790112E+00  0.740010E+00  0.678452E+00  0.605827E+00  0.525357E+00  0.443280E+00
  0.366662E+00  0.300356E+00  0.245980E+00  0.203313E+00  0.171875E+00  0.151066E+00
  0.139645E+00  0.136077E+00  0.139645E+00  0.151066E+00  0.171875E+00  0.203313E+00
  0.245980E+00  0.300356E+00  0.366662E+00  0.443280E+00  0.525357E+00  0.605827E+00
  0.678452E+00  0.740010E+00  0.790112E+00  0.829785E+00  0.860388E+00  0.883233E+00
  0.899533E+00  0.910350E+00  0.916503E+00  0.918498E+00  0.916503E+00  0.919885E+00
  0.911660E+00  0.898358E+00  0.878847E+00  0.851685E+00  0.815211E+00  0.767678E+00
  0.707659E+00  0.634974E+00  0.551933E+00  0.463843E+00  0.377787E+00  0.300356E+00
  0.235866E+00  0.185748E+00  0.149139E+00  0.124122E+00  0.108730E+00  0.101444E+00
  0.101444E+00  0.108730E+00  0.124122E+00  0.149139E+00  0.185748E+00  0.235866E+00
  0.300356E+00  0.377787E+00  0.463843E+00  0.551933E+00  0.634974E+00  0.707659E+00
  0.767678E+00  0.815211E+00  0.851685E+00  0.878847E+00  0.898358E+00  0.911660E+00
  0.919885E+00  0.923804E+00  0.923804E+00  0.919885E+00  0.921634E+00  0.911506E+00
  0.895915E+00  0.873354E+00  0.841850E+00  0.799126E+00  0.743123E+00  0.673034E+00
  0.590561E+00  0.500266E+00  0.408431E+00  0.321634E+00  0.245980E+00  0.185748E+00
  0.141725E+00  0.111615E+00  0.922641E-01  0.813843E-01  0.778605E-01  0.813843E-01
  0.922641E-01  0.111615E+00  0.141725E+00  0.185748E+00  0.245980E+00  0.321634E+00
  0.408431E+00  0.500266E+00  0.590561E+00  0.673034E+00  0.743123E+00  0.799126E+00
  0.841850E+00  0.873354E+00  0.895915E+00  0.911506E+00  0.921634E+00  0.927322E+00
  0.929155E+00  0.927322E+00  0.921634E+00  0.922167E+00  0.910135E+00  0.892167E+00
  0.866391E+00  0.830375E+00  0.781454E+00  0.717638E+00  0.639113E+00  0.549350E+00
  0.454340E+00  0.360708E+00  0.274993E+00  0.203313E+00  0.149139E+00  0.111615E+00
  0.872067E-01  0.725201E-01  0.655740E-01  0.655740E-01  0.725201E-01  0.872067E-01
  0.111615E+00  0.149139E+00  0.203313E+00  0.274993E+00  0.360708E+00  0.454340E+00
  0.549350E+00  0.639113E+00  0.717638E+00  0.781454E+00  0.830375E+00  0.866391E+00
  0.892167E+00  0.910135E+00  0.922167E+00  0.929550E+00  0.933061E+00  0.933061E+00
  0.929550E+00  0.922167E+00  0.921634E+00  0.907443E+00  0.886743E+00  0.857485E+00
  0.817138E+00  0.763046E+00  0.693413E+00  0.608913E+00  0.513817E+00  0.415170E+00
  0.320781E+00  0.237906E+00  0.171875E+00  0.124122E+00  0.922641E-01  0.725201E-01
  0.618261E-01  0.584434E-01  0.618261E-01  0.725201E-01  0.922641E-01  0.124122E+00
  0.171875E+00  0.237906E+00  0.320781E+00  0.415170E+00  0.513817E+00  0.608913E+00
  0.693413E+00  0.763046E+00  0.817138E+00  0.857485E+00  0.886743E+00  0.907443E+00
  0.921634E+00  0.930811E+00  0.935958E+00  0.937617E+00  0.935958E+00  0.930811E+00
  0.921634E+00  0.919885E+00  0.903363E+00  0.879791E+00  0.847178E+00  0.803188E+00
  0.745330E+00  0.671757E+00  0.583011E+00  0.483816E+00  0.382801E+00  0.289519E+00
  0.211179E+00  0.151066E+00  0.108730E+00  0.813843E-01  0.655740E-01  0.584434E-01
  0.584434E-01  0.655740E-01  0.813843E-01  0.108730E+00  0.151066E+00  0.211179E+00
  0.289519E+00  0.382801E+00  0.483816E+00  0.583011E+00  0.671757E+00  0.745330E+00
  0.803188E+00  0.847178E+00  0.879791E+00  0.903363E+00  0.919885E+00  0.930951E+00
  0.937725E+00  0.940938E+00  0.940938E+00  0.937725E+00  0.930951E+00  0.919885E+00
  0.916503E+00  0.897899E+00  0.871845E+00  0.836424E+00  0.789479E+00  0.728674E+00
  0.652157E+00  0.560514E+00  0.459218E+00  0.358416E+00  0.268374E+00  0.194964E+00
  0.139645E+00  0.101444E+00  0.778605E-01  0.655740E-01  0.618261E-01  0.655740E-01
  0.778605E-01  0.101444E+00  0.139645E+00  0.194964E+00  0.268374E+00  0.358416E+00
  0.459218E+00  0.560514E+00  0.652157E+00  0.728674E+00  0.789479E+00  0.836424E+00
  0.871845E+00  0.897899E+00  0.916503E+00  0.929303E+00  0.937586E+00  0.942229E+00
  0.943725E+00  0.942229E+00  0.937586E+00  0.929303E+00  0.916503E+00  0.910820E+00
  0.890710E+00  0.862883E+00  0.825316E+00  0.775934E+00  0.712770E+00  0.634458E+00
  0.542026E+00  0.441462E+00  0.343291E+00  0.257171E+00  0.187755E+00  0.136077E+00
  0.101444E+00  0.813843E-01  0.725201E-01  0.725201E-01  0.813843E-01  0.101444E+00
  0.136077E+00  0.187755E+00  0.257171E+00  0.343291E+00  0.441462E+00  0.542026E+00
  0.634458E+00  0.712770E+00  0.775934E+00  0.825316E+00  0.862883E+00  0.890710E+00
  0.910820E+00  0.924990E+00  0.934591E+00  0.940551E+00  0.943411E+00  0.943411E+00
  0.940551E+00  0.934591E+00  0.924990E+00  0.910820E+00  0.901992E+00  0.881083E+00
  0.852350E+00  0.813565E+00  0.762783E+00  0.698642E+00  0.620460E+00  0.529505E+00
  0.431556E+00  0.336644E+00  0.253862E+00  0.187755E+00  0.139645E+00  0.108730E+00
  0.922641E-01  0.872067E-01  0.922641E-01  0.108730E+00  0.139645E+00  0.187755E+00
  0.253862E+00  0.336644E+00  0.431556E+00  0.529505E+00  0.620460E+00  0.698642E+00
  0.762783E+00  0.813565E+00  0.852350E+00  0.881083E+00  0.901992E+00  0.917075E+00
  0.927781E+00  0.934999E+00  0.939195E+00  0.940576E+00  0.939195E+00  0.934999E+00
  0.927781E+00  0.917075E+00  0.901992E+00  0.889466E+00  0.868861E+00  0.840541E+00
  0.802094E+00  0.751702E+00  0.688468E+00  0.612065E+00  0.523636E+00  0.428559E+00
  0.336644E+00  0.257171E+00  0.194964E+00  0.151066E+00  0.124122E+00  0.111615E+00
  0.111615E+00  0.124122E+00  0.151066E+00  0.194964E+00  0.257171E+00  0.336644E+00
  0.428559E+00  0.523636E+00  0.612065E+00  0.688468E+00  0.751702E+00  0.802094E+00
  0.840541E+00  0.868861E+00  0.889466E+00  0.904581E+00  0.915757E+00  0.923845E+00
  0.929192E+00  0.931873E+00  0.931873E+00  0.929192E+00  0.923845E+00  0.915757E+00
  0.904581E+00  0.889466E+00  0.873920E+00  0.855510E+00  0.829402E+00  0.793042E+00
  0.744625E+00  0.683457E+00  0.609407E+00  0.523636E+00  0.431556E+00  0.343291E+00
  0.268374E+00  0.211179E+00  0.171875E+00  0.149139E+00  0.141725E+00  0.149139E+00
  0.171875E+00  0.211179E+00  0.268374E+00  0.343291E+00  0.431556E+00  0.523636E+00
  0.609407E+00  0.683457E+00  0.744625E+00  0.793042E+00  0.829402E+00  0.855510E+00
  0.873920E+00  0.887013E+00  0.896485E+00  0.903361E+00  0.908190E+00  0.911146E+00
  0.912156E+00  0.911146E+00  0.908190E+00  0.903361E+00  0.896485E+00  0.887013E+00
  0.873920E+00  0.858014E+00  0.843999E+00  0.821545E+00  0.788194E+00  0.742273E+00
  0.683457E+00  0.612065E+00  0.529505E+00  0.441462E+00  0.358416E+00  0.289519E+00
  0.237906E+00  0.203313E+00  0.185748E+00  0.185748E+00  0.203313E+00  0.237906E+00
  0.289519E+00  0.358416E+00  0.441462E+00  0.529505E+00  0.612065E+00  0.683457E+00
  0.742273E+00  0.788194E+00  0.821545E+00  0.843999E+00  0.858014E+00  0.865726E+00
  0.868573E+00  0.867806E+00  0.865110E+00  0.862387E+00  0.860868E+00  0.860868E+00
  0.862387E+00  0.865110E+00  0.867806E+00  0.868573E+00  0.865726E+00  0.858014E+00
  0.845901E+00  0.837372E+00  0.818748E+00  0.788194E+00  0.744625E+00  0.688468E+00
  0.620460E+00  0.542026E+00  0.459218E+00  0.382801E+00  0.320781E+00  0.274993E+00
  0.245980E+00  0.235866E+00  0.245980E+00  0.274993E+00  0.320781E+00  0.382801E+00
  0.459218E+00  0.542026E+00  0.620460E+00  0.688468E+00  0.744625E+00  0.788194E+00
  0.818748E+00  0.837372E+00  0.845901E+00  0.845242E+00  0.834759E+00  0.813633E+00
  0.783885E+00  0.752692E+00  0.729812E+00  0.721640E+00  0.729812E+00  0.752692E+00
  0.783885E+00  0.813633E+00  0.834759E+00  0.845242E+00  0.845901E+00  0.841364E+00
  0.837372E+00  0.821545E+00  0.793042E+00  0.751702E+00  0.698642E+00  0.634458E+00
  0.560514E+00  0.483816E+00  0.415170E+00  0.360708E+00  0.321634E+00  0.300356E+00
  0.300356E+00  0.321634E+00  0.360708E+00  0.415170E+00  0.483816E+00  0.560514E+00
  0.634458E+00  0.698642E+00  0.751702E+00  0.793042E+00  0.821545E+00  0.837372E+00
  0.841364E+00  0.832366E+00  0.805035E+00  0.750279E+00  0.662403E+00  0.555030E+00
  0.463322E+00  0.414598E+00  0.414598E+00  0.463322E+00  0.555030E+00  0.662403E+00
  0.750279E+00  0.805035E+00  0.832366E+00  0.841364E+00  0.845901E+00  0.843999E+00
  0.829402E+00  0.802094E+00  0.762783E+00  0.712770E+00  0.652157E+00  0.583011E+00
  0.513817E+00  0.454340E+00  0.408431E+00  0.377787E+00  0.366662E+00  0.377787E+00
  0.408431E+00  0.454340E+00  0.513817E+00  0.583011E+00  0.652157E+00  0.712770E+00
  0.762783E+00  0.802094E+00  0.829402E+00  0.843999E+00  0.845901E+00  0.832366E+00
  0.792954E+00  0.705363E+00  0.545248E+00  0.340468E+00  0.184365E+00  0.111349E+00
  0.924047E-01  0.111349E+00  0.184365E+00  0.340468E+00  0.545248E+00  0.705363E+00
  0.792954E+00  0.832366E+00  0.845901E+00  0.858014E+00  0.855510E+00  0.840541E+00
  0.813565E+00  0.775934E+00  0.728674E+00  0.671757E+00  0.608913E+00  0.549350E+00
  0.500266E+00  0.463843E+00  0.443280E+00  0.443280E+00  0.463843E+00  0.500266E+00
  0.549350E+00  0.608913E+00  0.671757E+00  0.728674E+00  0.775934E+00  0.813565E+00
  0.840541E+00  0.855510E+00  0.858014E+00  0.845242E+00  0.805035E+00  0.705363E+00
  0.497572E+00  0.224906E+00  0.628891E-01  0.162960E-01  0.694926E-02  0.694926E-02
  0.162960E-01  0.628891E-01  0.224906E+00  0.497572E+00  0.705363E+00  0.805035E+00
  0.845242E+00  0.858014E+00  0.873920E+00  0.868861E+00  0.852350E+00  0.825316E+00
  0.789479E+00  0.745330E+00  0.693413E+00  0.639113E+00  0.590561E+00  0.551933E+00
  0.525357E+00  0.515483E+00  0.525357E+00  0.551933E+00  0.590561E+00  0.639113E+00
  0.693413E+00  0.745330E+00  0.789479E+00  0.825316E+00  0.852350E+00  0.868861E+00
  0.873920E+00  0.865726E+00  0.834759E+00  0.750279E+00  0.545248E+00  0.224906E+00
  0.383526E-01  0.320998E-02  0.251523E-03  0.786745E-04  0.251523E-03  0.320998E-02
  0.383526E-01  0.224906E+00  0.545248E+00  0.750279E+00  0.834759E+00  0.865726E+00
  0.873920E+00  0.889466E+00  0.881083E+00  0.862883E+00  0.836424E+00  0.803188E+00
  0.763046E+00  0.717638E+00  0.673034E+00  0.634974E+00  0.605827E+00  0.588943E+00
  0.588943E+00  0.605827E+00  0.634974E+00  0.673034E+00  0.717638E+00  0.763046E+00
  0.803188E+00  0.836424E+00  0.862883E+00  0.881083E+00  0.889466E+00  0.887013E+00
  0.868573E+00  0.813633E+00  0.662403E+00  0.340468E+00  0.628891E-01  0.320998E-02
  0.331649E-04  0.130826E-06  0.130826E-06  0.331649E-04  0.320998E-02  0.628891E-01
  0.340468E+00  0.662403E+00  0.813633E+00  0.868573E+00  0.887013E+00  0.889466E+00
  0.901992E+00  0.890710E+00  0.871845E+00  0.847178E+00  0.817138E+00  0.781454E+00
  0.743123E+00  0.707659E+00  0.678452E+00  0.657793E+00  0.650001E+00  0.657793E+00
  0.678452E+00  0.707659E+00  0.743123E+00  0.781454E+00  0.817138E+00  0.847178E+00
  0.871845E+00  0.890710E+00  0.901992E+00  0.904581E+00  0.896485E+00  0.867806E+00
  0.783885E+00  0.555030E+00  0.184365E+00  0.162960E-01  0.251523E-03  0.130826E-06
  0.994835E-10  0.130826E-06  0.251523E-03  0.162960E-01  0.184365E+00  0.555030E+00
  0.783885E+00  0.867806E+00  0.896485E+00  0.904581E+00  0.901992E+00  0.910820E+00
  0.897899E+00  0.879791E+00  0.857485E+00  0.830375E+00  0.799126E+00  0.767678E+00
  0.740010E+00  0.718204E+00  0.705360E+00  0.705360E+00  0.718204E+00  0.740010E+00
  0.767678E+00  0.799126E+00  0.830375E+00  0.857485E+00  0.879791E+00  0.897899E+00
  0.910820E+00  0.917075E+00  0.915757E+00  0.903361E+00  0.865110E+00  0.752692E+00
  0.463322E+00  0.111349E+00  0.694926E-02  0.786745E-04  0.130826E-06  0.130826E-06
  0.786745E-04  0.694926E-02  0.111349E+00  0.463322E+00  0.752692E+00  0.865110E+00
  0.903361E+00  0.915757E+00  0.917075E+00  0.910820E+00  0.916503E+00  0.903363E+00
  0.886743E+00  0.866391E+00  0.841850E+00  0.815211E+00  0.790112E+00  0.768851E+00
  0.753494E+00  0.747656E+00  0.753494E+00  0.768851E+00  0.790112E+00  0.815211E+00
  0.841850E+00  0.866391E+00  0.886743E+00  0.903363E+00  0.916503E+00  0.924990E+00
  0.927781E+00  0.923845E+00  0.908190E+00  0.862387E+00  0.729812E+00  0.414598E+00
  0.924047E-01  0.694926E-02  0.251523E-03  0.331649E-04  0.251523E-03  0.694926E-02
  0.924047E-01  0.414598E+00  0.729812E+00  0.862387E+00  0.908190E+00  0.923845E+00
  0.927781E+00  0.924990E+00  0.916503E+00  0.919885E+00  0.907443E+00  0.892167E+00
  0.873354E+00  0.851685E+00  0.829785E+00  0.809983E+00  0.793862E+00  0.784218E+00
  0.784218E+00  0.793862E+00  0.809983E+00  0.829785E+00  0.851685E+00  0.873354E+00
  0.892167E+00  0.907443E+00  0.919885E+00  0.929303E+00  0.934591E+00  0.934999E+00
  0.929192E+00  0.911146E+00  0.860868E+00  0.721640E+00  0.414598E+00  0.111349E+00
  0.162960E-01  0.320998E-02  0.320998E-02  0.162960E-01  0.111349E+00  0.414598E+00
  0.721640E+00  0.860868E+00  0.911146E+00  0.929192E+00  0.934999E+00  0.934591E+00
  0.929303E+00  0.919885E+00  0.921634E+00  0.910135E+00  0.895915E+00  0.878847E+00
  0.860388E+00  0.842470E+00  0.826500E+00  0.814591E+00  0.810027E+00  0.814591E+00
  0.826500E+00  0.842470E+00  0.860388E+00  0.878847E+00  0.895915E+00  0.910135E+00
  0.921634E+00  0.930951E+00  0.937586E+00  0.940551E+00  0.939195E+00  0.931873E+00
  0.912156E+00  0.860868E+00  0.729812E+00  0.463322E+00  0.184365E+00  0.628891E-01
  0.383526E-01  0.628891E-01  0.184365E+00  0.463322E+00  0.729812E+00  0.860868E+00
  0.912156E+00  0.931873E+00  0.939195E+00  0.940551E+00  0.937586E+00  0.930951E+00
  0.921634E+00  0.922167E+00  0.911506E+00  0.898358E+00  0.883233E+00  0.867364E+00
  0.851943E+00  0.838692E+00  0.830641E+00  0.830641E+00  0.838692E+00  0.851943E+00
  0.867364E+00  0.883233E+00  0.898358E+00  0.911506E+00  0.922167E+00  0.930811E+00
  0.937725E+00  0.942229E+00  0.943411E+00  0.940576E+00  0.931873E+00  0.911146E+00
  0.862387E+00  0.752692E+00  0.555030E+00  0.340468E+00  0.224906E+00  0.224906E+00
  0.340468E+00  0.555030E+00  0.752692E+00  0.862387E+00  0.911146E+00  0.931873E+00
  0.940576E+00  0.943411E+00  0.942229E+00  0.937725E+00  0.930811E+00  0.922167E+00
  0.921634E+00  0.911660E+00  0.899533E+00  0.885756E+00  0.871116E+00  0.857044E+00
  0.846287E+00  0.842175E+00  0.846287E+00  0.857044E+00  0.871116E+00  0.885756E+00
  0.899533E+00  0.911660E+00  0.921634E+00  0.929550E+00  0.935958E+00  0.940938E+00
  0.943725E+00  0.943411E+00  0.939195E+00  0.929192E+00  0.908190E+00  0.865110E+00
  0.783885E+00  0.662403E+00  0.545248E+00  0.497572E+00  0.545248E+00  0.662403E+00
  0.783885E+00  0.865110E+00  0.908190E+00  0.929192E+00  0.939195E+00  0.943411E+00
  0.943725E+00  0.940938E+00  0.935958E+00  0.929550E+00  0.921634E+00  0.919885E+00
  0.910350E+00  0.898654E+00  0.885046E+00  0.870561E+00  0.857663E+00  0.849857E+00
  0.849857E+00  0.857663E+00  0.870561E+00  0.885046E+00  0.898654E+00  0.910350E+00
  0.919885E+00  0.927322E+00  0.933061E+00  0.937617E+00  0.940938E+00  0.942229E+00
  0.940551E+00  0.934999E+00  0.923845E+00  0.903361E+00  0.867806E+00  0.813633E+00
  0.750279E+00  0.705363E+00  0.705363E+00  0.750279E+00  0.813633E+00  0.867806E+00
  0.903361E+00  0.923845E+00  0.934999E+00  0.940551E+00  0.942229E+00  0.940938E+00
  0.937617E+00  0.933061E+00  0.927322E+00  0.919885E+00  0.916503E+00  0.906842E+00
  0.894561E+00  0.880140E+00  0.865620E+00  0.854517E+00  0.850325E+00  0.854517E+00
  0.865620E+00  0.880140E+00  0.894561E+00  0.906842E+00  0.916503E+00  0.923804E+00
  0.929155E+00  0.933061E+00  0.935958E+00  0.937725E+00  0.937586E+00  0.934591E+00
  0.927781E+00  0.915757E+00  0.896485E+00  0.868573E+00  0.834759E+00  0.805035E+00
  0.792954E+00  0.805035E+00  0.834759E+00  0.868573E+00  0.896485E+00  0.915757E+00
  0.927781E+00  0.934591E+00  0.937586E+00  0.937725E+00  0.935958E+00  0.933061E+00
  0.929155E+00  0.923804E+00  0.916503E+00  0.910820E+00  0.900145E+00  0.886366E+00
  0.870887E+00  0.856974E+00  0.848647E+00  0.848647E+00  0.856974E+00  0.870887E+00
  0.886366E+00  0.900145E+00  0.910820E+00  0.918498E+00  0.923804E+00  0.927322E+00
  0.929550E+00  0.930811E+00  0.930951E+00  0.929303E+00  0.924990E+00  0.917075E+00
  0.904581E+00  0.887013E+00  0.865726E+00  0.845242E+00  0.832366E+00  0.832366E+00
  0.845242E+00  0.865726E+00  0.887013E+00  0.904581E+00  0.917075E+00  0.924990E+00
  0.929303E+00  0.930951E+00  0.930811E+00  0.929550E+00  0.927322E+00  0.923804E+00
  0.918498E+00  0.910820E+00  0.901992E+00  0.889466E+00  0.873920E+00  0.858014E+00
  0.845901E+00  0.841364E+00  0.845901E+00  0.858014E+00  0.873920E+00  0.889466E+00
  0.901992E+00  0.910820E+00  0.916503E+00  0.919885E+00  0.921634E+00  0.922167E+00
  0.921634E+00  0.919885E+00  0.916503E+00  0.910820E+00  0.901992E+00  0.889466E+00
  0.873920E+00  0.858014E+00  0.845901E+00  0.841364E+00  0.845901E+00  0.858014E+00
  0.873920E+00  0.889466E+00  0.901992E+00  0.910820E+00  0.916503E+00  0.919885E+00
  0.921634E+00  0.922167E+00  0.921634E+00  0.919885E+00  0.916503E+00  0.910820E+00
  0.901992E+00  0.904581E+00  0.887013E+00  0.865726E+00  0.845242E+00  0.832366E+00
  0.832366E+00  0.845242E+00  0.865726E+00  0.887013E+00  0.904581E+00  0.917075E+00
  0.924990E+00  0.929303E+00  0.930951E+00  0.930811E+00  0.929550E+00  0.927322E+00
  0.923804E+00  0.918498E+00  0.910820E+00  0.900145E+00  0.886366E+00  0.870887E+00
  0.856974E+00  0.848647E+00  0.848647E+00  0.856974E+00  0.870887E+00  0.886366E+00
  0.900145E+00  0.910820E+00  0.918498E+00  0.923804E+00  0.927322E+00  0.929550E+00
  0.930811E+00  0.930951E+00  0.929303E+00  0.924990E+00  0.917075E+00  0.904581E+00
  0.887013E+00  0.865612E+00  0.842014E+00  0.822790E+00  0.815292E+00  0.822790E+00
  0.842014E+00  0.865612E+00  0.887013E+00  0.903133E+00  0.913714E+00  0.919620E+00
  0.921888E+00  0.921554E+00  0.919548E+00  0.916312E+00  0.911726E+00  0.905593E+00
  0.897899E+00  0.888457E+00  0.876906E+00  0.863649E+00  0.850692E+00  0.841125E+00
  0.837603E+00  0.841125E+00  0.850692E+00  0.863649E+00  0.876906E+00  0.888457E+00
  0.897899E+00  0.905593E+00  0.911726E+00  0.916312E+00  0.919548E+00  0.921554E+00
  0.921888E+00  0.919620E+00  0.913714E+00  0.903133E+00  0.887013E+00  0.865726E+00
  0.842014E+00  0.819076E+00  0.804584E+00  0.804584E+00  0.819076E+00  0.842014E+00
  0.865726E+00  0.885191E+00  0.898819E+00  0.906902E+00  0.910262E+00  0.909914E+00
  0.907074E+00  0.902697E+00  0.896872E+00  0.889205E+00  0.879791E+00  0.869220E+00
  0.857711E+00  0.845200E+00  0.832564E+00  0.822024E+00  0.816039E+00  0.816039E+00
  0.822024E+00  0.832564E+00  0.845200E+00  0.857711E+00  0.869220E+00  0.879791E+00
  0.889205E+00  0.896872E+00  0.902697E+00  0.907074E+00  0.909914E+00  0.910262E+00
  0.906902E+00  0.898819E+00  0.885191E+00  0.865726E+00  0.845242E+00  0.822790E+00
  0.804584E+00  0.797485E+00  0.804584E+00  0.822790E+00  0.845242E+00  0.865837E+00
  0.881525E+00  0.891621E+00  0.896349E+00  0.896254E+00  0.892386E+00  0.886192E+00
  0.878541E+00  0.869125E+00  0.857485E+00  0.844211E+00  0.830395E+00  0.816484E+00
  0.802802E+00  0.790746E+00  0.782459E+00  0.779529E+00  0.782459E+00  0.790746E+00
  0.802802E+00  0.816484E+00  0.830395E+00  0.844211E+00  0.857485E+00  0.869125E+00
  0.878541E+00  0.886192E+00  0.892386E+00  0.896254E+00  0.896349E+00  0.891621E+00
  0.881525E+00  0.865837E+00  0.845242E+00  0.832366E+00  0.815292E+00  0.804584E+00
  0.804584E+00  0.815292E+00  0.832366E+00  0.850303E+00  0.865327E+00  0.875814E+00
  0.881245E+00  0.881429E+00  0.876646E+00  0.868069E+00  0.857267E+00  0.844862E+00
  0.830375E+00  0.813794E+00  0.796329E+00  0.779172E+00  0.762759E+00  0.747958E+00
  0.736668E+00  0.730654E+00  0.730654E+00  0.736668E+00  0.747958E+00  0.762759E+00
  0.779172E+00  0.796329E+00  0.813794E+00  0.830375E+00  0.844862E+00  0.857267E+00
  0.868069E+00  0.876646E+00  0.881429E+00  0.881245E+00  0.875814E+00  0.865327E+00
  0.850303E+00  0.832366E+00  0.832366E+00  0.822790E+00  0.819076E+00  0.822790E+00
  0.832366E+00  0.844289E+00  0.855284E+00  0.863373E+00  0.867526E+00  0.866972E+00
  0.861147E+00  0.850264E+00  0.835572E+00  0.818415E+00  0.799126E+00  0.777724E+00
  0.755313E+00  0.733578E+00  0.713258E+00  0.694728E+00  0.679514E+00  0.669691E+00
  0.666361E+00  0.669691E+00  0.679514E+00  0.694728E+00  0.713258E+00  0.733578E+00
  0.755313E+00  0.777724E+00  0.799126E+00  0.818415E+00  0.835572E+00  0.850264E+00
  0.861147E+00  0.866972E+00  0.867526E+00  0.863373E+00  0.855284E+00  0.844289E+00
  0.832366E+00  0.845242E+00  0.842014E+00  0.842014E+00  0.845242E+00  0.850303E+00
  0.855284E+00  0.858585E+00  0.859078E+00  0.855783E+00  0.847717E+00  0.834291E+00
  0.815843E+00  0.793397E+00  0.767678E+00  0.739124E+00  0.709199E+00  0.680442E+00
  0.654443E+00  0.631253E+00  0.611501E+00  0.597177E+00  0.589867E+00  0.589867E+00
  0.597177E+00  0.611501E+00  0.631253E+00  0.654443E+00  0.680442E+00  0.709199E+00
  0.739124E+00  0.767678E+00  0.793397E+00  0.815843E+00  0.834291E+00  0.847717E+00
  0.855783E+00  0.859078E+00  0.858585E+00  0.855284E+00  0.850303E+00  0.845242E+00
  0.865726E+00  0.865612E+00  0.865726E+00  0.865837E+00  0.865327E+00  0.863373E+00
  0.859078E+00  0.851470E+00  0.839508E+00  0.822339E+00  0.799744E+00  0.772161E+00
  0.740010E+00  0.703554E+00  0.664254E+00  0.625527E+00  0.590640E+00  0.560470E+00
  0.534954E+00  0.515378E+00  0.503461E+00  0.499575E+00  0.503461E+00  0.515378E+00
  0.534954E+00  0.560470E+00  0.590640E+00  0.625527E+00  0.664254E+00  0.703554E+00
  0.740010E+00  0.772161E+00  0.799744E+00  0.822339E+00  0.839508E+00  0.851470E+00
  0.859078E+00  0.863373E+00  0.865327E+00  0.865837E+00  0.865726E+00  0.887013E+00
  0.887013E+00  0.885191E+00  0.881525E+00  0.875814E+00  0.867526E+00  0.855783E+00
  0.839508E+00  0.817749E+00  0.790103E+00  0.756812E+00  0.718204E+00  0.674329E+00
  0.626109E+00  0.576863E+00  0.531078E+00  0.491273E+00  0.457827E+00  0.431585E+00
  0.414163E+00  0.405907E+00  0.405907E+00  0.414163E+00  0.431585E+00  0.457827E+00
  0.491273E+00  0.531078E+00  0.576863E+00  0.626109E+00  0.674329E+00  0.718204E+00
  0.756812E+00  0.790103E+00  0.817749E+00  0.839508E+00  0.855783E+00  0.867526E+00
  0.875814E+00  0.881525E+00  0.885191E+00  0.887013E+00  0.904581E+00  0.903133E+00
  0.898819E+00  0.891621E+00  0.881245E+00  0.866972E+00  0.847717E+00  0.822339E+00
  0.790103E+00  0.750976E+00  0.705360E+00  0.653677E+00  0.596964E+00  0.538271E+00
  0.482304E+00  0.432594E+00  0.390274E+00  0.356242E+00  0.332251E+00  0.318927E+00
  0.314851E+00  0.318927E+00  0.332251E+00  0.356242E+00  0.390274E+00  0.432594E+00
  0.482304E+00  0.538271E+00  0.596964E+00  0.653677E+00  0.705360E+00  0.750976E+00
  0.790103E+00  0.822339E+00  0.847717E+00  0.866972E+00  0.881245E+00  0.891621E+00
  0.898819E+00  0.903133E+00  0.904581E+00  0.917075E+00  0.913714E+00  0.906902E+00
  0.896349E+00  0.881429E+00  0.861147E+00  0.834291E+00  0.799744E+00  0.756812E+00
  0.705360E+00  0.645890E+00  0.580098E+00  0.511744E+00  0.446147E+00  0.387510E+00
  0.337287E+00  0.296061E+00  0.265392E+00  0.246393E+00  0.237903E+00  0.237903E+00
  0.246393E+00  0.265392E+00  0.296061E+00  0.337287E+00  0.387510E+00  0.446147E+00
  0.511744E+00  0.580098E+00  0.645890E+00  0.705360E+00  0.756812E+00  0.799744E+00
  0.834291E+00  0.861147E+00  0.881429E+00  0.896349E+00  0.906902E+00  0.913714E+00
  0.917075E+00  0.917075E+00  0.924990E+00  0.919620E+00  0.910262E+00  0.896254E+00
  0.876646E+00  0.850264E+00  0.815843E+00  0.772161E+00  0.718204E+00  0.653677E+00
  0.580098E+00  0.501898E+00  0.425770E+00  0.357555E+00  0.299688E+00  0.252355E+00
  0.216060E+00  0.191606E+00  0.178353E+00  0.174309E+00  0.178353E+00  0.191606E+00
  0.216060E+00  0.252355E+00  0.299688E+00  0.357555E+00  0.425770E+00  0.501898E+00
  0.580098E+00  0.653677E+00  0.718204E+00  0.772161E+00  0.815843E+00  0.850264E+00
  0.876646E+00  0.896254E+00  0.910262E+00  0.919620E+00  0.924990E+00  0.926741E+00
  0.924990E+00  0.929303E+00  0.921888E+00  0.909914E+00  0.892386E+00  0.868069E+00
  0.835572E+00  0.793397E+00  0.740010E+00  0.674329E+00  0.596964E+00  0.511744E+00
  0.425770E+00  0.346732E+00  0.279474E+00  0.225285E+00  0.183852E+00  0.154692E+00
  0.136850E+00  0.128641E+00  0.128641E+00  0.136850E+00  0.154692E+00  0.183852E+00
  0.225285E+00  0.279474E+00  0.346732E+00  0.425770E+00  0.511744E+00  0.596964E+00
  0.674329E+00  0.740010E+00  0.793397E+00  0.835572E+00  0.868069E+00  0.892386E+00
  0.909914E+00  0.921888E+00  0.929303E+00  0.932840E+00  0.932840E+00  0.929303E+00
  0.930951E+00  0.921554E+00  0.907074E+00  0.886192E+00  0.857267E+00  0.818415E+00
  0.767678E+00  0.703554E+00  0.626109E+00  0.538271E+00  0.446147E+00  0.357555E+00
  0.279474E+00  0.216009E+00  0.167962E+00  0.133960E+00  0.111875E+00  0.996392E-01
  0.957451E-01  0.996392E-01  0.111875E+00  0.133960E+00  0.167962E+00  0.216009E+00
  0.279474E+00  0.357555E+00  0.446147E+00  0.538271E+00  0.626109E+00  0.703554E+00
  0.767678E+00  0.818415E+00  0.857267E+00  0.886192E+00  0.907074E+00  0.921554E+00
  0.930951E+00  0.936214E+00  0.937907E+00  0.936214E+00  0.930951E+00  0.930811E+00
  0.919548E+00  0.902697E+00  0.878541E+00  0.844862E+00  0.799126E+00  0.739124E+00
  0.664254E+00  0.576863E+00  0.482304E+00  0.387510E+00  0.299688E+00  0.225285E+00
  0.167962E+00  0.127353E+00  0.100519E+00  0.843371E-01  0.767256E-01  0.767256E-01
  0.843371E-01  0.100519E+00  0.127353E+00  0.167962E+00  0.225285E+00  0.299688E+00
  0.387510E+00  0.482304E+00  0.576863E+00  0.664254E+00  0.739124E+00  0.799126E+00
  0.844862E+00  0.878541E+00  0.902697E+00  0.919548E+00  0.930811E+00  0.937698E+00
  0.940962E+00  0.940962E+00  0.937698E+00  0.930811E+00  0.929550E+00  0.916312E+00
  0.896872E+00  0.869125E+00  0.830375E+00  0.777724E+00  0.709199E+00  0.625527E+00
  0.531078E+00  0.432594E+00  0.337287E+00  0.252355E+00  0.183852E+00  0.133960E+00
  0.100519E+00  0.796607E-01  0.682727E-01  0.646514E-01  0.682727E-01  0.796607E-01
  0.100519E+00  0.133960E+00  0.183852E+00  0.252355E+00  0.337287E+00  0.432594E+00
  0.531078E+00  0.625527E+00  0.709199E+00  0.777724E+00  0.830375E+00  0.869125E+00
  0.896872E+00  0.916312E+00  0.929550E+00  0.938075E+00  0.942844E+00  0.944378E+00
  0.942844E+00  0.938075E+00  0.929550E+00  0.927322E+00  0.911726E+00  0.889205E+00
  0.857485E+00  0.813794E+00  0.755313E+00  0.680442E+00  0.590640E+00  0.491273E+00
  0.390274E+00  0.296061E+00  0.216060E+00  0.154692E+00  0.111875E+00  0.843371E-01
  0.682727E-01  0.609224E-01  0.609224E-01  0.682727E-01  0.843371E-01  0.111875E+00
  0.154692E+00  0.216060E+00  0.296061E+00  0.390274E+00  0.491273E+00  0.590640E+00
  0.680442E+00  0.755313E+00  0.813794E+00  0.857485E+00  0.889205E+00  0.911726E+00
  0.927322E+00  0.937698E+00  0.944028E+00  0.947028E+00  0.947028E+00  0.944028E+00
  0.937698E+00  0.927322E+00  0.923804E+00  0.905593E+00  0.879791E+00  0.844211E+00
  0.796329E+00  0.733578E+00  0.654443E+00  0.560470E+00  0.457827E+00  0.356242E+00
  0.265392E+00  0.191606E+00  0.136850E+00  0.996392E-01  0.767256E-01  0.646514E-01
  0.609224E-01  0.646514E-01  0.767256E-01  0.996392E-01  0.136850E+00  0.191606E+00
  0.265392E+00  0.356242E+00  0.457827E+00  0.560470E+00  0.654443E+00  0.733578E+00
  0.796329E+00  0.844211E+00  0.879791E+00  0.905593E+00  0.923804E+00  0.936214E+00
  0.944183E+00  0.948624E+00  0.950051E+00  0.948624E+00  0.944183E+00  0.936214E+00
  0.923804E+00  0.918498E+00  0.897899E+00  0.869220E+00  0.830395E+00  0.779172E+00
  0.713258E+00  0.631253E+00  0.534954E+00  0.431585E+00  0.332251E+00  0.246393E+00
  0.178353E+00  0.128641E+00  0.957451E-01  0.767256E-01  0.682727E-01  0.682727E-01
  0.767256E-01  0.957451E-01  0.128641E+00  0.178353E+00  0.246393E+00  0.332251E+00
  0.431585E+00  0.534954E+00  0.631253E+00  0.713258E+00  0.779172E+00  0.830395E+00
  0.869220E+00  0.897899E+00  0.918498E+00  0.932840E+00  0.942406E+00  0.948250E+00
  0.951023E+00  0.951023E+00  0.948250E+00  0.942406E+00  0.932840E+00  0.918498E+00
  0.910820E+00  0.888457E+00  0.857711E+00  0.816484E+00  0.762759E+00  0.694728E+00
  0.611501E+00  0.515378E+00  0.414163E+00  0.318927E+00  0.237903E+00  0.174309E+00
  0.128641E+00  0.996392E-01  0.843371E-01  0.796607E-01  0.843371E-01  0.996392E-01
  0.128641E+00  0.174309E+00  0.237903E+00  0.318927E+00  0.414163E+00  0.515378E+00
  0.611501E+00  0.694728E+00  0.762759E+00  0.816484E+00  0.857711E+00  0.888457E+00
  0.910820E+00  0.926741E+00  0.937777E+00  0.945019E+00  0.949135E+00  0.950472E+00
  0.949135E+00  0.945019E+00  0.937777E+00  0.926741E+00  0.910820E+00  0.900145E+00
  0.876906E+00  0.845200E+00  0.802802E+00  0.747958E+00  0.679514E+00  0.597177E+00
  0.503461E+00  0.405907E+00  0.314851E+00  0.237903E+00  0.178353E+00  0.136850E+00
  0.111875E+00  0.100519E+00  0.100519E+00  0.111875E+00  0.136850E+00  0.178353E+00
  0.237903E+00  0.314851E+00  0.405907E+00  0.503461E+00  0.597177E+00  0.679514E+00
  0.747958E+00  0.802802E+00  0.845200E+00  0.876906E+00  0.900145E+00  0.917075E+00
  0.929344E+00  0.937986E+00  0.943552E+00  0.946290E+00  0.946290E+00  0.943552E+00
  0.937986E+00  0.929344E+00  0.917075E+00  0.900145E+00  0.886366E+00  0.863649E+00
  0.832564E+00  0.790746E+00  0.736668E+00  0.669691E+00  0.589867E+00  0.499575E+00
  0.405907E+00  0.318927E+00  0.246393E+00  0.191606E+00  0.154692E+00  0.133960E+00
  0.127353E+00  0.133960E+00  0.154692E+00  0.191606E+00  0.246393E+00  0.318927E+00
  0.405907E+00  0.499575E+00  0.589867E+00  0.669691E+00  0.736668E+00  0.790746E+00
  0.832564E+00  0.863649E+00  0.886366E+00  0.903133E+00  0.915757E+00  0.925265E+00
  0.932065E+00  0.936207E+00  0.937604E+00  0.936207E+00  0.932065E+00  0.925265E+00
  0.915757E+00  0.903133E+00  0.886366E+00  0.870887E+00  0.850692E+00  0.822024E+00
  0.782459E+00  0.730654E+00  0.666361E+00  0.589867E+00  0.503461E+00  0.414163E+00
  0.332251E+00  0.265392E+00  0.216060E+00  0.183852E+00  0.167962E+00  0.167962E+00
  0.183852E+00  0.216060E+00  0.265392E+00  0.332251E+00  0.414163E+00  0.503461E+00
  0.589867E+00  0.666361E+00  0.730654E+00  0.782459E+00  0.822024E+00  0.850692E+00
  0.870887E+00  0.885191E+00  0.895593E+00  0.903361E+00  0.909209E+00  0.913362E+00
  0.915600E+00  0.915600E+00  0.913362E+00  0.909209E+00  0.903361E+00  0.895593E+00
  0.885191E+00  0.870887E+00  0.856974E+00  0.841125E+00  0.816039E+00  0.779529E+00
  0.730654E+00  0.669691E+00  0.597177E+00  0.515378E+00  0.431585E+00  0.356242E+00
  0.296061E+00  0.252355E+00  0.225285E+00  0.216009E+00  0.225285E+00  0.252355E+00
  0.296061E+00  0.356242E+00  0.431585E+00  0.515378E+00  0.597177E+00  0.669691E+00
  0.730654E+00  0.779529E+00  0.816039E+00  0.841125E+00  0.856974E+00  0.865837E+00
  0.869270E+00  0.868461E+00  0.865110E+00  0.861526E+00  0.859381E+00  0.858780E+00
  0.859381E+00  0.861526E+00  0.865110E+00  0.868461E+00  0.869270E+00  0.865837E+00
  0.856974E+00  0.848647E+00  0.837603E+00  0.816039E+00  0.782459E+00  0.736668E+00
  0.679514E+00  0.611501E+00  0.534954E+00  0.457827E+00  0.390274E+00  0.337287E+00
  0.299688E+00  0.279474E+00  0.279474E+00  0.299688E+00  0.337287E+00  0.390274E+00
  0.457827E+00  0.534954E+00  0.611501E+00  0.679514E+00  0.736668E+00  0.782459E+00
  0.816039E+00  0.837603E+00  0.848647E+00  0.850303E+00  0.841991E+00  0.821954E+00
  0.790219E+00  0.752692E+00  0.720928E+00  0.704060E+00  0.704060E+00  0.720928E+00
  0.752692E+00  0.790219E+00  0.821954E+00  0.841991E+00  0.850303E+00  0.848647E+00
  0.848647E+00  0.841125E+00  0.822024E+00  0.790746E+00  0.747958E+00  0.694728E+00
  0.631253E+00  0.560470E+00  0.491273E+00  0.432594E+00  0.387510E+00  0.357555E+00
  0.346732E+00  0.357555E+00  0.387510E+00  0.432594E+00  0.491273E+00  0.560470E+00
  0.631253E+00  0.694728E+00  0.747958E+00  0.790746E+00  0.822024E+00  0.841125E+00
  0.848647E+00  0.844289E+00  0.823902E+00  0.777995E+00  0.695318E+00  0.578953E+00
  0.463322E+00  0.388599E+00  0.364881E+00  0.388599E+00  0.463322E+00  0.578953E+00
  0.695318E+00  0.777995E+00  0.823902E+00  0.844289E+00  0.848647E+00  0.856974E+00
  0.850692E+00  0.832564E+00  0.802802E+00  0.762759E+00  0.713258E+00  0.654443E+00
  0.590640E+00  0.531078E+00  0.482304E+00  0.446147E+00  0.425770E+00  0.425770E+00
  0.446147E+00  0.482304E+00  0.531078E+00  0.590640E+00  0.654443E+00  0.713258E+00
  0.762759E+00  0.802802E+00  0.832564E+00  0.850692E+00  0.856974E+00  0.850303E+00
  0.823902E+00  0.759459E+00  0.625811E+00  0.416158E+00  0.217618E+00  0.111349E+00
  0.752096E-01  0.752096E-01  0.111349E+00  0.217618E+00  0.416158E+00  0.625811E+00
  0.759459E+00  0.823902E+00  0.850303E+00  0.856974E+00  0.870887E+00  0.863649E+00
  0.845200E+00  0.816484E+00  0.779172E+00  0.733578E+00  0.680442E+00  0.625527E+00
  0.576863E+00  0.538271E+00  0.511744E+00  0.501898E+00  0.511744E+00  0.538271E+00
  0.576863E+00  0.625527E+00  0.680442E+00  0.733578E+00  0.779172E+00  0.816484E+00
  0.845200E+00  0.863649E+00  0.870887E+00  0.865837E+00  0.841991E+00  0.777995E+00
  0.625811E+00  0.354535E+00  0.113677E+00  0.251451E-01  0.694926E-02  0.426314E-02
  0.694926E-02  0.251451E-01  0.113677E+00  0.354535E+00  0.625811E+00  0.777995E+00
  0.841991E+00  0.865837E+00  0.870887E+00  0.886366E+00  0.876906E+00  0.857711E+00
  0.830395E+00  0.796329E+00  0.755313E+00  0.709199E+00  0.664254E+00  0.626109E+00
  0.596964E+00  0.580098E+00  0.580098E+00  0.596964E+00  0.626109E+00  0.664254E+00
  0.709199E+00  0.755313E+00  0.796329E+00  0.830395E+00  0.857711E+00  0.876906E+00
  0.886366E+00  0.885191E+00  0.869270E+00  0.821954E+00  0.695318E+00  0.416158E+00
  0.113677E+00  0.123860E-01  0.763328E-03  0.786745E-04  0.786745E-04  0.763328E-03
  0.123860E-01  0.113677E+00  0.416158E+00  0.695318E+00  0.821954E+00  0.869270E+00
  0.885191E+00  0.886366E+00  0.900145E+00  0.888457E+00  0.869220E+00  0.844211E+00
  0.813794E+00  0.777724E+00  0.739124E+00  0.703554E+00  0.674329E+00  0.653677E+00
  0.645890E+00  0.653677E+00  0.674329E+00  0.703554E+00  0.739124E+00  0.777724E+00
  0.813794E+00  0.844211E+00  0.869220E+00  0.888457E+00  0.900145E+00  0.903133E+00
  0.895593E+00  0.868461E+00  0.790219E+00  0.578953E+00  0.217618E+00  0.251451E-01
  0.763328E-03  0.494254E-05  0.130826E-06  0.494254E-05  0.763328E-03  0.251451E-01
  0.217618E+00  0.578953E+00  0.790219E+00  0.868461E+00  0.895593E+00  0.903133E+00
  0.900145E+00  0.910820E+00  0.897899E+00  0.879791E+00  0.857485E+00  0.830375E+00
  0.799126E+00  0.767678E+00  0.740010E+00  0.718204E+00  0.705360E+00  0.705360E+00
  0.718204E+00  0.740010E+00  0.767678E+00  0.799126E+00  0.830375E+00  0.857485E+00
  0.879791E+00  0.897899E+00  0.910820E+00  0.917075E+00  0.915757E+00  0.903361E+00
  0.865110E+00  0.752692E+00  0.463322E+00  0.111349E+00  0.694926E-02  0.786745E-04
  0.130826E-06  0.130826E-06  0.786745E-04  0.694926E-02  0.111349E+00  0.463322E+00
  0.752692E+00  0.865110E+00  0.903361E+00  0.915757E+00  0.917075E+00  0.910820E+00
  0.918498E+00  0.905593E+00  0.889205E+00  0.869125E+00  0.844862E+00  0.818415E+00
  0.793397E+00  0.772161E+00  0.756812E+00  0.750976E+00  0.756812E+00  0.772161E+00
  0.793397E+00  0.818415E+00  0.844862E+00  0.869125E+00  0.889205E+00  0.905593E+00
  0.918498E+00  0.926741E+00  0.929344E+00  0.925265E+00  0.909209E+00  0.861526E+00
  0.720928E+00  0.388599E+00  0.752096E-01  0.426314E-02  0.786745E-04  0.494254E-05
  0.786745E-04  0.426314E-02  0.752096E-01  0.388599E+00  0.720928E+00  0.861526E+00
  0.909209E+00  0.925265E+00  0.929344E+00  0.926741E+00  0.918498E+00  0.923804E+00
  0.911726E+00  0.896872E+00  0.878541E+00  0.857267E+00  0.835572E+00  0.815843E+00
  0.799744E+00  0.790103E+00  0.790103E+00  0.799744E+00  0.815843E+00  0.835572E+00
  0.857267E+00  0.878541E+00  0.896872E+00  0.911726E+00  0.923804E+00  0.932840E+00
  0.937777E+00  0.937986E+00  0.932065E+00  0.913362E+00  0.859381E+00  0.704060E+00
  0.364881E+00  0.752096E-01  0.694926E-02  0.763328E-03  0.763328E-03  0.694926E-02
  0.752096E-01  0.364881E+00  0.704060E+00  0.859381E+00  0.913362E+00  0.932065E+00
  0.937986E+00  0.937777E+00  0.932840E+00  0.923804E+00  0.927322E+00  0.916312E+00
  0.902697E+00  0.886192E+00  0.868069E+00  0.850264E+00  0.834291E+00  0.822339E+00
  0.817749E+00  0.822339E+00  0.834291E+00  0.850264E+00  0.868069E+00  0.886192E+00
  0.902697E+00  0.916312E+00  0.927322E+00  0.936214E+00  0.942406E+00  0.945019E+00
  0.943552E+00  0.936207E+00  0.915600E+00  0.858780E+00  0.704060E+00  0.388599E+00
  0.111349E+00  0.251451E-01  0.123860E-01  0.251451E-01  0.111349E+00  0.388599E+00
  0.704060E+00  0.858780E+00  0.915600E+00  0.936207E+00  0.943552E+00  0.945019E+00
  0.942406E+00  0.936214E+00  0.927322E+00  0.929550E+00  0.919548E+00  0.907074E+00
  0.892386E+00  0.876646E+00  0.861147E+00  0.847717E+00  0.839508E+00  0.839508E+00
  0.847717E+00  0.861147E+00  0.876646E+00  0.892386E+00  0.907074E+00  0.919548E+00
  0.929550E+00  0.937698E+00  0.944183E+00  0.948250E+00  0.949135E+00  0.946290E+00
  0.937604E+00  0.915600E+00  0.859381E+00  0.720928E+00  0.463322E+00  0.217618E+00
  0.113677E+00  0.113677E+00  0.217618E+00  0.463322E+00  0.720928E+00  0.859381E+00
  0.915600E+00  0.937604E+00  0.946290E+00  0.949135E+00  0.948250E+00  0.944183E+00
  0.937698E+00  0.929550E+00  0.930811E+00  0.921554E+00  0.909914E+00  0.896254E+00
  0.881429E+00  0.866972E+00  0.855783E+00  0.851470E+00  0.855783E+00  0.866972E+00
  0.881429E+00  0.896254E+00  0.909914E+00  0.921554E+00  0.930811E+00  0.938075E+00
  0.944028E+00  0.948624E+00  0.951023E+00  0.950472E+00  0.946290E+00  0.936207E+00
  0.913362E+00  0.861526E+00  0.752692E+00  0.578953E+00  0.416158E+00  0.354535E+00
  0.416158E+00  0.578953E+00  0.752692E+00  0.861526E+00  0.913362E+00  0.936207E+00
  0.946290E+00  0.950472E+00  0.951023E+00  0.948624E+00  0.944028E+00  0.938075E+00
  0.930811E+00  0.930951E+00  0.921888E+00  0.910262E+00  0.896349E+00  0.881245E+00
  0.867526E+00  0.859078E+00  0.859078E+00  0.867526E+00  0.881245E+00  0.896349E+00
  0.910262E+00  0.921888E+00  0.930951E+00  0.937698E+00  0.942844E+00  0.947028E+00
  0.950051E+00  0.951023E+00  0.949135E+00  0.943552E+00  0.932065E+00  0.909209E+00
  0.865110E+00  0.790219E+00  0.695318E+00  0.625811E+00  0.625811E+00  0.695318E+00
  0.790219E+00  0.865110E+00  0.909209E+00  0.932065E+00  0.943552E+00  0.949135E+00
  0.951023E+00  0.950051E+00  0.947028E+00  0.942844E+00  0.937698E+00  0.930951E+00
  0.929303E+00  0.919620E+00  0.906902E+00  0.891621E+00  0.875814E+00  0.863373E+00
  0.858585E+00  0.863373E+00  0.875814E+00  0.891621E+00  0.906902E+00  0.919620E+00
  0.929303E+00  0.936214E+00  0.940962E+00  0.944378E+00  0.947028E+00  0.948624E+00
  0.948250E+00  0.945019E+00  0.937986E+00  0.925265E+00  0.903361E+00  0.868461E+00
  0.821954E+00  0.777995E+00  0.759459E+00  0.777995E+00  0.821954E+00  0.868461E+00
  0.903361E+00  0.925265E+00  0.937986E+00  0.945019E+00  0.948250E+00  0.948624E+00
  0.947028E+00  0.944378E+00  0.940962E+00  0.936214E+00  0.929303E+00  0.924990E+00
  0.913714E+00  0.898819E+00  0.881525E+00  0.865327E+00  0.855284E+00  0.855284E+00
  0.865327E+00  0.881525E+00  0.898819E+00  0.913714E+00  0.924990E+00  0.932840E+00
  0.937907E+00  0.940962E+00  0.942844E+00  0.944028E+00  0.944183E+00  0.942406E+00
  0.937777E+00  0.929344E+00  0.915757E+00  0.895593E+00  0.869270E+00  0.841991E+00
  0.823902E+00  0.823902E+00  0.841991E+00  0.869270E+00  0.895593E+00  0.915757E+00
  0.929344E+00  0.937777E+00  0.942406E+00  0.944183E+00  0.944028E+00  0.942844E+00
  0.940962E+00  0.937907E+00  0.932840E+00  0.924990E+00  0.917075E+00  0.903133E+00
  0.885191E+00  0.865837E+00  0.850303E+00  0.844289E+00  0.850303E+00  0.865837E+00
  0.885191E+00  0.903133E+00  0.917075E+00  0.926741E+00  0.932840E+00  0.936214E+00
  0.937698E+00  0.938075E+00  0.937698E+00  0.936214E+00  0.932840E+00  0.926741E+00
  0.917075E+00  0.903133E+00  0.885191E+00  0.865837E+00  0.850303E+00  0.844289E+00
  0.850303E+00  0.865837E+00  0.885191E+00  0.903133E+00  0.917075E+00  0.926741E+00
  0.932840E+00  0.936214E+00  0.937698E+00  0.938075E+00  0.937698E+00  0.936214E+00
  0.932840E+00  0.926741E+00  0.917075E+00  0.904581E+00  0.887013E+00  0.865726E+00
  0.845242E+00  0.832366E+00  0.832366E+00  0.845242E+00  0.865726E+00  0.887013E+00
  0.904581E+00  0.917075E+00  0.924990E+00  0.929303E+00  0.930951E+00  0.930811E+00
  0.929550E+00  0.927322E+00  0.923804E+00  0.918498E+00  0.910820E+00  0.900145E+00
  0.886366E+00  0.870887E+00  0.856974E+00  0.848647E+00  0.848647E+00  0.856974E+00
  0.870887E+00  0.886366E+00  0.900145E+00  0.910820E+00  0.918498E+00  0.923804E+00
  0.927322E+00  0.929550E+00  0.930811E+00  0.930951E+00  0.929303E+00  0.924990E+00
  0.917075E+00  0.904581E+00  0.896485E+00  0.868573E+00  0.834759E+00  0.805035E+00
  0.792954E+00  0.805035E+00  0.834759E+00  0.868573E+00  0.896485E+00  0.915757E+00
  0.927781E+00  0.934591E+00  0.937586E+00  0.937725E+00  0.935958E+00  0.933061E+00
  0.929155E+00  0.923804E+00  0.916503E+00  0.906842E+00  0.894561E+00  0.880140E+00
  0.865620E+00  0.854517E+00  0.850325E+00  0.854517E+00  0.865620E+00  0.880140E+00
  0.894561E+00  0.906842E+00  0.916503E+00  0.923804E+00  0.929155E+00  0.933061E+00
  0.935958E+00  0.937725E+00  0.937586E+00  0.934591E+00  0.927781E+00  0.915757E+00
  0.896485E+00  0.868573E+00  0.831954E+00  0.793028E+00  0.766890E+00  0.766890E+00
  0.793028E+00  0.831954E+00  0.868573E+00  0.895593E+00  0.912953E+00  0.923065E+00
  0.927986E+00  0.928995E+00  0.927124E+00  0.923383E+00  0.918307E+00  0.911726E+00
  0.903363E+00  0.893280E+00  0.881601E+00  0.868463E+00  0.854811E+00  0.842981E+00
  0.836001E+00  0.836001E+00  0.842981E+00  0.854811E+00  0.868463E+00  0.881601E+00
  0.893280E+00  0.903363E+00  0.911726E+00  0.918307E+00  0.923383E+00  0.927124E+00
  0.928995E+00  0.927986E+00  0.923065E+00  0.912953E+00  0.895593E+00  0.868573E+00
  0.834759E+00  0.793028E+00  0.756525E+00  0.741749E+00  0.756525E+00  0.793028E+00
  0.834759E+00  0.869270E+00  0.892974E+00  0.907438E+00  0.915058E+00  0.917460E+00
  0.915783E+00  0.911247E+00  0.904893E+00  0.896872E+00  0.886743E+00  0.874590E+00
  0.861197E+00  0.847223E+00  0.833164E+00  0.820310E+00  0.811007E+00  0.807585E+00
  0.811007E+00  0.820310E+00  0.833164E+00  0.847223E+00  0.861197E+00  0.874590E+00
  0.886743E+00  0.896872E+00  0.904893E+00  0.911247E+00  0.915783E+00  0.917460E+00
  0.915058E+00  0.907438E+00  0.892974E+00  0.869270E+00  0.834759E+00  0.805035E+00
  0.766890E+00  0.741749E+00  0.741749E+00  0.766890E+00  0.805035E+00  0.841991E+00
  0.870166E+00  0.888661E+00  0.899201E+00  0.903380E+00  0.902206E+00  0.896781E+00
  0.888578E+00  0.878541E+00  0.866391E+00  0.851675E+00  0.835101E+00  0.818094E+00
  0.801637E+00  0.786564E+00  0.774528E+00  0.767738E+00  0.767738E+00  0.774528E+00
  0.786564E+00  0.801637E+00  0.818094E+00  0.835101E+00  0.851675E+00  0.866391E+00
  0.878541E+00  0.888578E+00  0.896781E+00  0.902206E+00  0.903380E+00  0.899201E+00
  0.888661E+00  0.870166E+00  0.841991E+00  0.805035E+00  0.792954E+00  0.766890E+00
  0.756525E+00  0.766890E+00  0.792954E+00  0.823902E+00  0.850890E+00  0.870384E+00
  0.882418E+00  0.887875E+00  0.887273E+00  0.881105E+00  0.870569E+00  0.857267E+00
  0.841850E+00  0.823882E+00  0.803499E+00  0.782219E+00  0.761703E+00  0.742938E+00
  0.727158E+00  0.716386E+00  0.712544E+00  0.716386E+00  0.727158E+00  0.742938E+00
  0.761703E+00  0.782219E+00  0.803499E+00  0.823882E+00  0.841850E+00  0.857267E+00
  0.870569E+00  0.881105E+00  0.887273E+00  0.887875E+00  0.882418E+00  0.870384E+00
  0.850890E+00  0.823902E+00  0.792954E+00  0.805035E+00  0.793028E+00  0.793028E+00
  0.805035E+00  0.823902E+00  0.843196E+00  0.858699E+00  0.868905E+00  0.873600E+00
  0.872592E+00  0.865564E+00  0.852801E+00  0.835572E+00  0.815211E+00  0.792055E+00
  0.766286E+00  0.739381E+00  0.713501E+00  0.689934E+00  0.669545E+00  0.654046E+00
  0.645610E+00  0.645610E+00  0.654046E+00  0.669545E+00  0.689934E+00  0.713501E+00
  0.739381E+00  0.766286E+00  0.792055E+00  0.815211E+00  0.835572E+00  0.852801E+00
  0.865564E+00  0.872592E+00  0.873600E+00  0.868905E+00  0.858699E+00  0.843196E+00
  0.823902E+00  0.805035E+00  0.834759E+00  0.831954E+00  0.834759E+00  0.841991E+00
  0.850890E+00  0.858699E+00  0.863628E+00  0.864712E+00  0.861154E+00  0.852050E+00
  0.836827E+00  0.815843E+00  0.790112E+00  0.760302E+00  0.726956E+00  0.691944E+00
  0.658326E+00  0.628195E+00  0.602198E+00  0.581373E+00  0.567736E+00  0.563000E+00
  0.567736E+00  0.581373E+00  0.602198E+00  0.628195E+00  0.658326E+00  0.691944E+00
  0.726956E+00  0.760302E+00  0.790112E+00  0.815843E+00  0.836827E+00  0.852050E+00
  0.861154E+00  0.864712E+00  0.863628E+00  0.858699E+00  0.850890E+00  0.841991E+00
  0.834759E+00  0.868573E+00  0.868573E+00  0.869270E+00  0.870166E+00  0.870384E+00
  0.868905E+00  0.864712E+00  0.856728E+00  0.843770E+00  0.824863E+00  0.799744E+00
  0.768851E+00  0.732543E+00  0.691126E+00  0.646469E+00  0.602559E+00  0.563063E+00
  0.529349E+00  0.502036E+00  0.482614E+00  0.472615E+00  0.472615E+00  0.482614E+00
  0.502036E+00  0.529349E+00  0.563063E+00  0.602559E+00  0.646469E+00  0.691126E+00
  0.732543E+00  0.768851E+00  0.799744E+00  0.824863E+00  0.843770E+00  0.856728E+00
  0.864712E+00  0.868905E+00  0.870384E+00  0.870166E+00  0.869270E+00  0.868573E+00
  0.896485E+00  0.895593E+00  0.892974E+00  0.888661E+00  0.882418E+00  0.873600E+00
  0.861154E+00  0.843770E+00  0.820266E+00  0.790103E+00  0.753494E+00  0.710722E+00
  0.661859E+00  0.608249E+00  0.553899E+00  0.503663E+00  0.460270E+00  0.424778E+00
  0.398564E+00  0.382893E+00  0.377786E+00  0.382893E+00  0.398564E+00  0.424778E+00
  0.460270E+00  0.503663E+00  0.553899E+00  0.608249E+00  0.661859E+00  0.710722E+00
  0.753494E+00  0.790103E+00  0.820266E+00  0.843770E+00  0.861154E+00  0.873600E+00
  0.882418E+00  0.888661E+00  0.892974E+00  0.895593E+00  0.896485E+00  0.915757E+00
  0.912953E+00  0.907438E+00  0.899201E+00  0.887875E+00  0.872592E+00  0.852050E+00
  0.824863E+00  0.790103E+00  0.747656E+00  0.697879E+00  0.641220E+00  0.579136E+00
  0.515507E+00  0.455541E+00  0.402757E+00  0.358688E+00  0.324964E+00  0.303102E+00
  0.292839E+00  0.292839E+00  0.303102E+00  0.324964E+00  0.358688E+00  0.402757E+00
  0.455541E+00  0.515507E+00  0.579136E+00  0.641220E+00  0.697879E+00  0.747656E+00
  0.790103E+00  0.824863E+00  0.852050E+00  0.872592E+00  0.887875E+00  0.899201E+00
  0.907438E+00  0.912953E+00  0.915757E+00  0.915757E+00  0.927781E+00  0.923065E+00
  0.915058E+00  0.903380E+00  0.887273E+00  0.865564E+00  0.836827E+00  0.799744E+00
  0.753494E+00  0.697879E+00  0.633445E+00  0.562314E+00  0.489174E+00  0.420053E+00
  0.359064E+00  0.307662E+00  0.267076E+00  0.238960E+00  0.223408E+00  0.218616E+00
  0.223408E+00  0.238960E+00  0.267076E+00  0.307662E+00  0.359064E+00  0.420053E+00
  0.489174E+00  0.562314E+00  0.633445E+00  0.697879E+00  0.753494E+00  0.799744E+00
  0.836827E+00  0.865564E+00  0.887273E+00  0.903380E+00  0.915058E+00  0.923065E+00
  0.927781E+00  0.929344E+00  0.927781E+00  0.934591E+00  0.927986E+00  0.917460E+00
  0.902206E+00  0.881105E+00  0.852801E+00  0.815843E+00  0.768851E+00  0.710722E+00
  0.641220E+00  0.562314E+00  0.479423E+00  0.400179E+00  0.330442E+00  0.272236E+00
  0.225939E+00  0.192336E+00  0.171589E+00  0.162145E+00  0.162145E+00  0.171589E+00
  0.192336E+00  0.225939E+00  0.272236E+00  0.330442E+00  0.400179E+00  0.479423E+00
  0.562314E+00  0.641220E+00  0.710722E+00  0.768851E+00  0.815843E+00  0.852801E+00
  0.881105E+00  0.902206E+00  0.917460E+00  0.927986E+00  0.934591E+00  0.937777E+00
  0.937777E+00  0.934591E+00  0.937586E+00  0.928995E+00  0.915783E+00  0.896781E+00
  0.870569E+00  0.835572E+00  0.790112E+00  0.732543E+00  0.661859E+00  0.579136E+00
  0.489174E+00  0.400179E+00  0.320222E+00  0.253648E+00  0.201282E+00  0.162744E+00
  0.137289E+00  0.123344E+00  0.118987E+00  0.123344E+00  0.137289E+00  0.162744E+00
  0.201282E+00  0.253648E+00  0.320222E+00  0.400179E+00  0.489174E+00  0.579136E+00
  0.661859E+00  0.732543E+00  0.790112E+00  0.835572E+00  0.870569E+00  0.896781E+00
  0.915783E+00  0.928995E+00  0.937586E+00  0.942406E+00  0.943957E+00  0.942406E+00
  0.937586E+00  0.937725E+00  0.927124E+00  0.911247E+00  0.888578E+00  0.857267E+00
  0.815211E+00  0.760302E+00  0.691126E+00  0.608249E+00  0.515507E+00  0.420053E+00
  0.330442E+00  0.253648E+00  0.193044E+00  0.148609E+00  0.118495E+00  0.100311E+00
  0.918742E-01  0.918742E-01  0.100311E+00  0.118495E+00  0.148609E+00  0.193044E+00
  0.253648E+00  0.330442E+00  0.420053E+00  0.515507E+00  0.608249E+00  0.691126E+00
  0.760302E+00  0.815211E+00  0.857267E+00  0.888578E+00  0.911247E+00  0.927124E+00
  0.937725E+00  0.944183E+00  0.947233E+00  0.947233E+00  0.944183E+00  0.937725E+00
  0.935958E+00  0.923383E+00  0.904893E+00  0.878541E+00  0.841850E+00  0.792055E+00
  0.726956E+00  0.646469E+00  0.553899E+00  0.455541E+00  0.359064E+00  0.272236E+00
  0.201282E+00  0.148609E+00  0.112620E+00  0.899499E-01  0.775859E-01  0.736695E-01
  0.775859E-01  0.899499E-01  0.112620E+00  0.148609E+00  0.201282E+00  0.272236E+00
  0.359064E+00  0.455541E+00  0.553899E+00  0.646469E+00  0.726956E+00  0.792055E+00
  0.841850E+00  0.878541E+00  0.904893E+00  0.923383E+00  0.935958E+00  0.944028E+00
  0.948525E+00  0.949969E+00  0.948525E+00  0.944028E+00  0.935958E+00  0.933061E+00
  0.918307E+00  0.896872E+00  0.866391E+00  0.823882E+00  0.766286E+00  0.691944E+00
  0.602559E+00  0.503663E+00  0.402757E+00  0.307662E+00  0.225939E+00  0.162744E+00
  0.118495E+00  0.899499E-01  0.732051E-01  0.654989E-01  0.654989E-01  0.732051E-01
  0.899499E-01  0.118495E+00  0.162744E+00  0.225939E+00  0.307662E+00  0.402757E+00
  0.503663E+00  0.602559E+00  0.691944E+00  0.766286E+00  0.823882E+00  0.866391E+00
  0.896872E+00  0.918307E+00  0.933061E+00  0.942844E+00  0.948802E+00  0.951622E+00
  0.951622E+00  0.948802E+00  0.942844E+00  0.933061E+00  0.929155E+00  0.911726E+00
  0.886743E+00  0.851675E+00  0.803499E+00  0.739381E+00  0.658326E+00  0.563063E+00
  0.460270E+00  0.358688E+00  0.267076E+00  0.192336E+00  0.137289E+00  0.100311E+00
  0.775859E-01  0.654989E-01  0.617303E-01  0.654989E-01  0.775859E-01  0.100311E+00
  0.137289E+00  0.192336E+00  0.267076E+00  0.358688E+00  0.460270E+00  0.563063E+00
  0.658326E+00  0.739381E+00  0.803499E+00  0.851675E+00  0.886743E+00  0.911726E+00
  0.929155E+00  0.940962E+00  0.948525E+00  0.952738E+00  0.954090E+00  0.952738E+00
  0.948525E+00  0.940962E+00  0.929155E+00  0.923804E+00  0.903363E+00  0.874590E+00
  0.835101E+00  0.782219E+00  0.713501E+00  0.628195E+00  0.529349E+00  0.424778E+00
  0.324964E+00  0.238960E+00  0.171589E+00  0.123344E+00  0.918742E-01  0.736695E-01
  0.654989E-01  0.654989E-01  0.736695E-01  0.918742E-01  0.123344E+00  0.171589E+00
  0.238960E+00  0.324964E+00  0.424778E+00  0.529349E+00  0.628195E+00  0.713501E+00
  0.782219E+00  0.835101E+00  0.874590E+00  0.903363E+00  0.923804E+00  0.937907E+00
  0.947233E+00  0.952890E+00  0.955560E+00  0.955560E+00  0.952890E+00  0.947233E+00
  0.937907E+00  0.923804E+00  0.916503E+00  0.893280E+00  0.861197E+00  0.818094E+00
  0.761703E+00  0.689934E+00  0.602198E+00  0.502036E+00  0.398564E+00  0.303102E+00
  0.223408E+00  0.162145E+00  0.118987E+00  0.918742E-01  0.775859E-01  0.732051E-01
  0.775859E-01  0.918742E-01  0.118987E+00  0.162145E+00  0.223408E+00  0.303102E+00
  0.398564E+00  0.502036E+00  0.602198E+00  0.689934E+00  0.761703E+00  0.818094E+00
  0.861197E+00  0.893280E+00  0.916503E+00  0.932840E+00  0.943957E+00  0.951102E+00
  0.955093E+00  0.956378E+00  0.955093E+00  0.951102E+00  0.943957E+00  0.932840E+00
  0.916503E+00  0.906842E+00  0.881601E+00  0.847223E+00  0.801637E+00  0.742938E+00
  0.669545E+00  0.581373E+00  0.482614E+00  0.382893E+00  0.292839E+00  0.218616E+00
  0.162145E+00  0.123344E+00  0.100311E+00  0.899499E-01  0.899499E-01  0.100311E+00
  0.123344E+00  0.162145E+00  0.218616E+00  0.292839E+00  0.382893E+00  0.482614E+00
  0.581373E+00  0.669545E+00  0.742938E+00  0.801637E+00  0.847223E+00  0.881601E+00
  0.906842E+00  0.924990E+00  0.937777E+00  0.946471E+00  0.951891E+00  0.954499E+00
  0.954499E+00  0.951891E+00  0.946471E+00  0.937777E+00  0.924990E+00  0.906842E+00
  0.894561E+00  0.868463E+00  0.833164E+00  0.786564E+00  0.727158E+00  0.654046E+00
  0.567736E+00  0.472615E+00  0.377786E+00  0.292839E+00  0.223408E+00  0.171589E+00
  0.137289E+00  0.118495E+00  0.112620E+00  0.118495E+00  0.137289E+00  0.171589E+00
  0.223408E+00  0.292839E+00  0.377786E+00  0.472615E+00  0.567736E+00  0.654046E+00
  0.727158E+00  0.786564E+00  0.833164E+00  0.868463E+00  0.894561E+00  0.913714E+00
  0.927781E+00  0.937986E+00  0.944999E+00  0.949128E+00  0.950494E+00  0.949128E+00
  0.944999E+00  0.937986E+00  0.927781E+00  0.913714E+00  0.894561E+00  0.880140E+00
  0.854811E+00  0.820310E+00  0.774528E+00  0.716386E+00  0.645610E+00  0.563000E+00
  0.472615E+00  0.382893E+00  0.303102E+00  0.238960E+00  0.192336E+00  0.162744E+00
  0.148609E+00  0.148609E+00  0.162744E+00  0.192336E+00  0.238960E+00  0.303102E+00
  0.382893E+00  0.472615E+00  0.563000E+00  0.645610E+00  0.716386E+00  0.774528E+00
  0.820310E+00  0.854811E+00  0.880140E+00  0.898819E+00  0.912953E+00  0.923845E+00
  0.932065E+00  0.937692E+00  0.940579E+00  0.940579E+00  0.937692E+00  0.932065E+00
  0.923845E+00  0.912953E+00  0.898819E+00  0.880140E+00  0.865620E+00  0.842981E+00
  0.811007E+00  0.767738E+00  0.712544E+00  0.645610E+00  0.567736E+00  0.482614E+00
  0.398564E+00  0.324964E+00  0.267076E+00  0.225939E+00  0.201282E+00  0.193044E+00
  0.201282E+00  0.225939E+00  0.267076E+00  0.324964E+00  0.398564E+00  0.482614E+00
  0.567736E+00  0.645610E+00  0.712544E+00  0.767738E+00  0.811007E+00  0.842981E+00
  0.865620E+00  0.881525E+00  0.892974E+00  0.901539E+00  0.908190E+00  0.913362E+00
  0.916871E+00  0.918146E+00  0.916871E+00  0.913362E+00  0.908190E+00  0.901539E+00
  0.892974E+00  0.881525E+00  0.865620E+00  0.854517E+00  0.836001E+00  0.807585E+00
  0.767738E+00  0.716386E+00  0.654046E+00  0.581373E+00  0.502036E+00  0.424778E+00
  0.358688E+00  0.307662E+00  0.272236E+00  0.253648E+00  0.253648E+00  0.272236E+00
  0.307662E+00  0.358688E+00  0.424778E+00  0.502036E+00  0.581373E+00  0.654046E+00
  0.716386E+00  0.767738E+00  0.807585E+00  0.836001E+00  0.854517E+00  0.865327E+00
  0.870166E+00  0.870177E+00  0.866788E+00  0.862387E+00  0.859381E+00  0.858340E+00
  0.858340E+00  0.859381E+00  0.862387E+00  0.866788E+00  0.870177E+00  0.870166E+00
  0.865327E+00  0.854517E+00  0.850325E+00  0.836001E+00  0.811007E+00  0.774528E+00
  0.727158E+00  0.669545E+00  0.602198E+00  0.529349E+00  0.460270E+00  0.402757E+00
  0.359064E+00  0.330442E+00  0.320222E+00  0.330442E+00  0.359064E+00  0.402757E+00
  0.460270E+00  0.529349E+00  0.602198E+00  0.669545E+00  0.727158E+00  0.774528E+00
  0.811007E+00  0.836001E+00  0.850325E+00  0.855284E+00  0.850890E+00  0.835344E+00
  0.806911E+00  0.768275E+00  0.729812E+00  0.704060E+00  0.695689E+00  0.704060E+00
  0.729812E+00  0.768275E+00  0.806911E+00  0.835344E+00  0.850890E+00  0.855284E+00
  0.850325E+00  0.854517E+00  0.842981E+00  0.820310E+00  0.786564E+00  0.742938E+00
  0.689934E+00  0.628195E+00  0.563063E+00  0.503663E+00  0.455541E+00  0.420053E+00
  0.400179E+00  0.400179E+00  0.420053E+00  0.455541E+00  0.503663E+00  0.563063E+00
  0.628195E+00  0.689934E+00  0.742938E+00  0.786564E+00  0.820310E+00  0.842981E+00
  0.854517E+00  0.855284E+00  0.843196E+00  0.811116E+00  0.746892E+00  0.642407E+00
  0.516324E+00  0.414598E+00  0.364881E+00  0.364881E+00  0.414598E+00  0.516324E+00
  0.642407E+00  0.746892E+00  0.811116E+00  0.843196E+00  0.855284E+00  0.854517E+00
  0.865620E+00  0.854811E+00  0.833164E+00  0.801637E+00  0.761703E+00  0.713501E+00
  0.658326E+00  0.602559E+00  0.553899E+00  0.515507E+00  0.489174E+00  0.479423E+00
  0.489174E+00  0.515507E+00  0.553899E+00  0.602559E+00  0.658326E+00  0.713501E+00
  0.761703E+00  0.801637E+00  0.833164E+00  0.854811E+00  0.865620E+00  0.865327E+00
  0.850890E+00  0.811116E+00  0.720901E+00  0.549610E+00  0.326854E+00  0.163247E+00
  0.924047E-01  0.752096E-01  0.924047E-01  0.163247E+00  0.326854E+00  0.549610E+00
  0.720901E+00  0.811116E+00  0.850890E+00  0.865327E+00  0.865620E+00  0.880140E+00
  0.868463E+00  0.847223E+00  0.818094E+00  0.782219E+00  0.739381E+00  0.691944E+00
  0.646469E+00  0.608249E+00  0.579136E+00  0.562314E+00  0.562314E+00  0.579136E+00
  0.608249E+00  0.646469E+00  0.691944E+00  0.739381E+00  0.782219E+00  0.818094E+00
  0.847223E+00  0.868463E+00  0.880140E+00  0.881525E+00  0.870166E+00  0.835344E+00
  0.746892E+00  0.549610E+00  0.261004E+00  0.728189E-01  0.176054E-01  0.694926E-02
  0.694926E-02  0.176054E-01  0.728189E-01  0.261004E+00  0.549610E+00  0.746892E+00
  0.835344E+00  0.870166E+00  0.881525E+00  0.880140E+00  0.894561E+00  0.881601E+00
  0.861197E+00  0.835101E+00  0.803499E+00  0.766286E+00  0.726956E+00  0.691126E+00
  0.661859E+00  0.641220E+00  0.633445E+00  0.641220E+00  0.661859E+00  0.691126E+00
  0.726956E+00  0.766286E+00  0.803499E+00  0.835101E+00  0.861197E+00  0.881601E+00
  0.894561E+00  0.898819E+00  0.892974E+00  0.870177E+00  0.806911E+00  0.642407E+00
  0.326854E+00  0.728189E-01  0.786688E-02  0.763328E-03  0.251523E-03  0.763328E-03
  0.786688E-02  0.728189E-01  0.326854E+00  0.642407E+00  0.806911E+00  0.870177E+00
  0.892974E+00  0.898819E+00  0.894561E+00  0.906842E+00  0.893280E+00  0.874590E+00
  0.851675E+00  0.823882E+00  0.792055E+00  0.760302E+00  0.732543E+00  0.710722E+00
  0.697879E+00  0.697879E+00  0.710722E+00  0.732543E+00  0.760302E+00  0.792055E+00
  0.823882E+00  0.851675E+00  0.874590E+00  0.893280E+00  0.906842E+00  0.913714E+00
  0.912953E+00  0.901539E+00  0.866788E+00  0.768275E+00  0.516324E+00  0.163247E+00
  0.176054E-01  0.763328E-03  0.331649E-04  0.331649E-04  0.763328E-03  0.176054E-01
  0.163247E+00  0.516324E+00  0.768275E+00  0.866788E+00  0.901539E+00  0.912953E+00
  0.913714E+00  0.906842E+00  0.916503E+00  0.903363E+00  0.886743E+00  0.866391E+00
  0.841850E+00  0.815211E+00  0.790112E+00  0.768851E+00  0.753494E+00  0.747656E+00
  0.753494E+00  0.768851E+00  0.790112E+00  0.815211E+00  0.841850E+00  0.866391E+00
  0.886743E+00  0.903363E+00  0.916503E+00  0.924990E+00  0.927781E+00  0.923845E+00
  0.908190E+00  0.862387E+00  0.729812E+00  0.414598E+00  0.924047E-01  0.694926E-02
  0.251523E-03  0.331649E-04  0.251523E-03  0.694926E-02  0.924047E-01  0.414598E+00
  0.729812E+00  0.862387E+00  0.908190E+00  0.923845E+00  0.927781E+00  0.924990E+00
  0.916503E+00  0.923804E+00  0.911726E+00  0.896872E+00  0.878541E+00  0.857267E+00
  0.835572E+00  0.815843E+00  0.799744E+00  0.790103E+00  0.790103E+00  0.799744E+00
  0.815843E+00  0.835572E+00  0.857267E+00  0.878541E+00  0.896872E+00  0.911726E+00
  0.923804E+00  0.932840E+00  0.937777E+00  0.937986E+00  0.932065E+00  0.913362E+00
  0.859381E+00  0.704060E+00  0.364881E+00  0.752096E-01  0.694926E-02  0.763328E-03
  0.763328E-03  0.694926E-02  0.752096E-01  0.364881E+00  0.704060E+00  0.859381E+00
  0.913362E+00  0.932065E+00  0.937986E+00  0.937777E+00  0.932840E+00  0.923804E+00
  0.929155E+00  0.918307E+00  0.904893E+00  0.888578E+00  0.870569E+00  0.852801E+00
  0.836827E+00  0.824863E+00  0.820266E+00  0.824863E+00  0.836827E+00  0.852801E+00
  0.870569E+00  0.888578E+00  0.904893E+00  0.918307E+00  0.929155E+00  0.937907E+00
  0.943957E+00  0.946471E+00  0.944999E+00  0.937692E+00  0.916871E+00  0.858340E+00
  0.695689E+00  0.364881E+00  0.924047E-01  0.176054E-01  0.786688E-02  0.176054E-01
  0.924047E-01  0.364881E+00  0.695689E+00  0.858340E+00  0.916871E+00  0.937692E+00
  0.944999E+00  0.946471E+00  0.943957E+00  0.937907E+00  0.929155E+00  0.933061E+00
  0.923383E+00  0.911247E+00  0.896781E+00  0.881105E+00  0.865564E+00  0.852050E+00
  0.843770E+00  0.843770E+00  0.852050E+00  0.865564E+00  0.881105E+00  0.896781E+00
  0.911247E+00  0.923383E+00  0.933061E+00  0.940962E+00  0.947233E+00  0.951102E+00
  0.951891E+00  0.949128E+00  0.940579E+00  0.918146E+00  0.858340E+00  0.704060E+00
  0.414598E+00  0.163247E+00  0.728189E-01  0.728189E-01  0.163247E+00  0.414598E+00
  0.704060E+00  0.858340E+00  0.918146E+00  0.940579E+00  0.949128E+00  0.951891E+00
  0.951102E+00  0.947233E+00  0.940962E+00  0.933061E+00  0.935958E+00  0.927124E+00
  0.915783E+00  0.902206E+00  0.887273E+00  0.872592E+00  0.861154E+00  0.856728E+00
  0.861154E+00  0.872592E+00  0.887273E+00  0.902206E+00  0.915783E+00  0.927124E+00
  0.935958E+00  0.942844E+00  0.948525E+00  0.952890E+00  0.955093E+00  0.954499E+00
  0.950494E+00  0.940579E+00  0.916871E+00  0.859381E+00  0.729812E+00  0.516324E+00
  0.326854E+00  0.261004E+00  0.326854E+00  0.516324E+00  0.729812E+00  0.859381E+00
  0.916871E+00  0.940579E+00  0.950494E+00  0.954499E+00  0.955093E+00  0.952890E+00
  0.948525E+00  0.942844E+00  0.935958E+00  0.937725E+00  0.928995E+00  0.917460E+00
  0.903380E+00  0.887875E+00  0.873600E+00  0.864712E+00  0.864712E+00  0.873600E+00
  0.887875E+00  0.903380E+00  0.917460E+00  0.928995E+00  0.937725E+00  0.944028E+00
  0.948802E+00  0.952738E+00  0.955560E+00  0.956378E+00  0.954499E+00  0.949128E+00
  0.937692E+00  0.913362E+00  0.862387E+00  0.768275E+00  0.642407E+00  0.549610E+00
  0.549610E+00  0.642407E+00  0.768275E+00  0.862387E+00  0.913362E+00  0.937692E+00
  0.949128E+00  0.954499E+00  0.956378E+00  0.955560E+00  0.952738E+00  0.948802E+00
  0.944028E+00  0.937725E+00  0.937586E+00  0.927986E+00  0.915058E+00  0.899201E+00
  0.882418E+00  0.868905E+00  0.863628E+00  0.868905E+00  0.882418E+00  0.899201E+00
  0.915058E+00  0.927986E+00  0.937586E+00  0.944183E+00  0.948525E+00  0.951622E+00
  0.954090E+00  0.955560E+00  0.955093E+00  0.951891E+00  0.944999E+00  0.932065E+00
  0.908190E+00  0.866788E+00  0.806911E+00  0.746892E+00  0.720901E+00  0.746892E+00
  0.806911E+00  0.866788E+00  0.908190E+00  0.932065E+00  0.944999E+00  0.951891E+00
  0.955093E+00  0.955560E+00  0.954090E+00  0.951622E+00  0.948525E+00  0.944183E+00
  0.937586E+00  0.934591E+00  0.923065E+00  0.907438E+00  0.888661E+00  0.870384E+00
  0.858699E+00  0.858699E+00  0.870384E+00  0.888661E+00  0.907438E+00  0.923065E+00
  0.934591E+00  0.942406E+00  0.947233E+00  0.949969E+00  0.951622E+00  0.952738E+00
  0.952890E+00  0.951102E+00  0.946471E+00  0.937986E+00  0.923845E+00  0.901539E+00
  0.870177E+00  0.835344E+00  0.811116E+00  0.811116E+00  0.835344E+00  0.870177E+00
  0.901539E+00  0.923845E+00  0.937986E+00  0.946471E+00  0.951102E+00  0.952890E+00
  0.952738E+00  0.951622E+00  0.949969E+00  0.947233E+00  0.942406E+00  0.934591E+00
  0.927781E+00  0.912953E+00  0.892974E+00  0.870166E+00  0.850890E+00  0.843196E+00
  0.850890E+00  0.870166E+00  0.892974E+00  0.912953E+00  0.927781E+00  0.937777E+00
  0.943957E+00  0.947233E+00  0.948525E+00  0.948802E+00  0.948525E+00  0.947233E+00
  0.943957E+00  0.937777E+00  0.927781E+00  0.912953E+00  0.892974E+00  0.870166E+00
  0.850890E+00  0.843196E+00  0.850890E+00  0.870166E+00  0.892974E+00  0.912953E+00
  0.927781E+00  0.937777E+00  0.943957E+00  0.947233E+00  0.948525E+00  0.948802E+00
  0.948525E+00  0.947233E+00  0.943957E+00  0.937777E+00  0.927781E+00  0.915757E+00
  0.895593E+00  0.869270E+00  0.841991E+00  0.823902E+00  0.823902E+00  0.841991E+00
  0.869270E+00  0.895593E+00  0.915757E+00  0.929344E+00  0.937777E+00  0.942406E+00
  0.944183E+00  0.944028E+00  0.942844E+00  0.940962E+00  0.937907E+00  0.932840E+00
  0.924990E+00  0.913714E+00  0.898819E+00  0.881525E+00  0.865327E+00  0.855284E+00
  0.855284E+00  0.865327E+00  0.881525E+00  0.898819E+00  0.913714E+00  0.924990E+00
  0.932840E+00  0.937907E+00  0.940962E+00  0.942844E+00  0.944028E+00  0.944183E+00
  0.942406E+00  0.937777E+00  0.929344E+00  0.915757E+00  0.896485E+00  0.868573E+00
  0.834759E+00  0.805035E+00  0.792954E+00  0.805035E+00  0.834759E+00  0.868573E+00
  0.896485E+00  0.915757E+00  0.927781E+00  0.934591E+00  0.937586E+00  0.937725E+00
  0.935958E+00  0.933061E+00  0.929155E+00  0.923804E+00  0.916503E+00  0.906842E+00
  0.894561E+00  0.880140E+00  0.865620E+00  0.854517E+00  0.850325E+00  0.854517E+00
  0.865620E+00  0.880140E+00  0.894561E+00  0.906842E+00  0.916503E+00  0.923804E+00
  0.929155E+00  0.933061E+00  0.935958E+00  0.937725E+00  0.937586E+00  0.934591E+00
  0.927781E+00  0.915757E+00  0.896485E+00  0.867806E+00  0.813633E+00  0.750279E+00
  0.705363E+00  0.705363E+00  0.750279E+00  0.813633E+00  0.867806E+00  0.903361E+00
  0.923845E+00  0.934999E+00  0.940551E+00  0.942229E+00  0.940938E+00  0.937617E+00
  0.933061E+00  0.927322E+00  0.919885E+00  0.910350E+00  0.898654E+00  0.885046E+00
  0.870561E+00  0.857663E+00  0.849857E+00  0.849857E+00  0.857663E+00  0.870561E+00
  0.885046E+00  0.898654E+00  0.910350E+00  0.919885E+00  0.927322E+00  0.933061E+00
  0.937617E+00  0.940938E+00  0.942229E+00  0.940551E+00  0.934999E+00  0.923845E+00
  0.903361E+00  0.867806E+00  0.813633E+00  0.739332E+00  0.669685E+00  0.640803E+00
  0.669685E+00  0.739332E+00  0.813633E+00  0.868461E+00  0.901539E+00  0.919677E+00
  0.928973E+00  0.932723E+00  0.932379E+00  0.928921E+00  0.923383E+00  0.916312E+00
  0.907443E+00  0.896472E+00  0.883720E+00  0.869821E+00  0.855442E+00  0.841911E+00
  0.831783E+00  0.827966E+00  0.831783E+00  0.841911E+00  0.855442E+00  0.869821E+00
  0.883720E+00  0.896472E+00  0.907443E+00  0.916312E+00  0.923383E+00  0.928921E+00
  0.932379E+00  0.932723E+00  0.928973E+00  0.919677E+00  0.901539E+00  0.868461E+00
  0.813633E+00  0.750279E+00  0.669685E+00  0.614737E+00  0.614737E+00  0.669685E+00
  0.750279E+00  0.821954E+00  0.870177E+00  0.898084E+00  0.912918E+00  0.919719E+00
  0.920905E+00  0.917681E+00  0.911247E+00  0.902697E+00  0.892167E+00  0.879131E+00
  0.863779E+00  0.847340E+00  0.831057E+00  0.815850E+00  0.803281E+00  0.795912E+00
  0.795912E+00  0.803281E+00  0.815850E+00  0.831057E+00  0.847340E+00  0.863779E+00
  0.879131E+00  0.892167E+00  0.902697E+00  0.911247E+00  0.917681E+00  0.920905E+00
  0.919719E+00  0.912918E+00  0.898084E+00  0.870177E+00  0.821954E+00  0.750279E+00
  0.705363E+00  0.640803E+00  0.614737E+00  0.640803E+00  0.705363E+00  0.777995E+00
  0.835344E+00  0.872146E+00  0.893062E+00  0.903537E+00  0.906756E+00  0.904133E+00
  0.896781E+00  0.886192E+00  0.873354E+00  0.857951E+00  0.839561E+00  0.819245E+00
  0.799032E+00  0.780395E+00  0.764434E+00  0.753104E+00  0.748922E+00  0.753104E+00
  0.764434E+00  0.780395E+00  0.799032E+00  0.819245E+00  0.839561E+00  0.857951E+00
  0.873354E+00  0.886192E+00  0.896781E+00  0.904133E+00  0.906756E+00  0.903537E+00
  0.893062E+00  0.872146E+00  0.835344E+00  0.777995E+00  0.705363E+00  0.705363E+00
  0.669685E+00  0.669685E+00  0.705363E+00  0.759459E+00  0.811116E+00  0.849241E+00
  0.873142E+00  0.886138E+00  0.891056E+00  0.889167E+00  0.881105E+00  0.868069E+00
  0.851685E+00  0.832599E+00  0.810395E+00  0.785531E+00  0.760179E+00  0.736608E+00
  0.716074E+00  0.700005E+00  0.690872E+00  0.690872E+00  0.700005E+00  0.716074E+00
  0.736608E+00  0.760179E+00  0.785531E+00  0.810395E+00  0.832599E+00  0.851685E+00
  0.868069E+00  0.881105E+00  0.889167E+00  0.891056E+00  0.886138E+00  0.873142E+00
  0.849241E+00  0.811116E+00  0.759459E+00  0.705363E+00  0.750279E+00  0.739332E+00
  0.750279E+00  0.777995E+00  0.811116E+00  0.839865E+00  0.860108E+00  0.871918E+00
  0.876501E+00  0.874411E+00  0.865564E+00  0.850264E+00  0.829785E+00  0.805428E+00
  0.777506E+00  0.746479E+00  0.714537E+00  0.684617E+00  0.658420E+00  0.636936E+00
  0.622169E+00  0.616815E+00  0.622169E+00  0.636936E+00  0.658420E+00  0.684617E+00
  0.714537E+00  0.746479E+00  0.777506E+00  0.805428E+00  0.829785E+00  0.850264E+00
  0.865564E+00  0.874411E+00  0.876501E+00  0.871918E+00  0.860108E+00  0.839865E+00
  0.811116E+00  0.777995E+00  0.750279E+00  0.813633E+00  0.813633E+00  0.821954E+00
  0.835344E+00  0.849241E+00  0.860108E+00  0.866314E+00  0.867388E+00  0.862894E+00
  0.852050E+00  0.834291E+00  0.809983E+00  0.780106E+00  0.745250E+00  0.706145E+00
  0.665346E+00  0.626776E+00  0.593101E+00  0.565225E+00  0.544365E+00  0.532914E+00
  0.532914E+00  0.544365E+00  0.565225E+00  0.593101E+00  0.626776E+00  0.665346E+00
  0.706145E+00  0.745250E+00  0.780106E+00  0.809983E+00  0.834291E+00  0.852050E+00
  0.862894E+00  0.867388E+00  0.866314E+00  0.860108E+00  0.849241E+00  0.835344E+00
  0.821954E+00  0.813633E+00  0.867806E+00  0.868461E+00  0.870177E+00  0.872146E+00
  0.873142E+00  0.871918E+00  0.867388E+00  0.858431E+00  0.843770E+00  0.822339E+00
  0.793862E+00  0.758769E+00  0.717344E+00  0.670036E+00  0.619366E+00  0.570169E+00
  0.526663E+00  0.490587E+00  0.462829E+00  0.444999E+00  0.438824E+00  0.444999E+00
  0.462829E+00  0.490587E+00  0.526663E+00  0.570169E+00  0.619366E+00  0.670036E+00
  0.717344E+00  0.758769E+00  0.793862E+00  0.822339E+00  0.843770E+00  0.858431E+00
  0.867388E+00  0.871918E+00  0.873142E+00  0.872146E+00  0.870177E+00  0.868461E+00
  0.867806E+00  0.903361E+00  0.901539E+00  0.898084E+00  0.893062E+00  0.886138E+00
  0.876501E+00  0.862894E+00  0.843770E+00  0.817749E+00  0.784218E+00  0.743384E+00
  0.695483E+00  0.640735E+00  0.581188E+00  0.521752E+00  0.467733E+00  0.422125E+00
  0.386391E+00  0.361893E+00  0.349566E+00  0.349566E+00  0.361893E+00  0.386391E+00
  0.422125E+00  0.467733E+00  0.521752E+00  0.581188E+00  0.640735E+00  0.695483E+00
  0.743384E+00  0.784218E+00  0.817749E+00  0.843770E+00  0.862894E+00  0.876501E+00
  0.886138E+00  0.893062E+00  0.898084E+00  0.901539E+00  0.903361E+00  0.903361E+00
  0.923845E+00  0.919677E+00  0.912918E+00  0.903537E+00  0.891056E+00  0.874411E+00
  0.852050E+00  0.822339E+00  0.784218E+00  0.737540E+00  0.682634E+00  0.620109E+00
  0.552194E+00  0.483824E+00  0.420642E+00  0.366183E+00  0.322397E+00  0.291019E+00
  0.272786E+00  0.266935E+00  0.272786E+00  0.291019E+00  0.322397E+00  0.366183E+00
  0.420642E+00  0.483824E+00  0.552194E+00  0.620109E+00  0.682634E+00  0.737540E+00
  0.784218E+00  0.822339E+00  0.852050E+00  0.874411E+00  0.891056E+00  0.903537E+00
  0.912918E+00  0.919677E+00  0.923845E+00  0.925265E+00  0.923845E+00  0.934999E+00
  0.928973E+00  0.919719E+00  0.906756E+00  0.889167E+00  0.865564E+00  0.834291E+00
  0.793862E+00  0.743384E+00  0.682634E+00  0.612350E+00  0.535488E+00  0.457975E+00
  0.386346E+00  0.324419E+00  0.273790E+00  0.236029E+00  0.212083E+00  0.200956E+00
  0.200956E+00  0.212083E+00  0.236029E+00  0.273790E+00  0.324419E+00  0.386346E+00
  0.457975E+00  0.535488E+00  0.612350E+00  0.682634E+00  0.743384E+00  0.793862E+00
  0.834291E+00  0.865564E+00  0.889167E+00  0.906756E+00  0.919719E+00  0.928973E+00
  0.934999E+00  0.937986E+00  0.937986E+00  0.934999E+00  0.940551E+00  0.932723E+00
  0.920905E+00  0.904133E+00  0.881105E+00  0.850264E+00  0.809983E+00  0.758769E+00
  0.695483E+00  0.620109E+00  0.535488E+00  0.448466E+00  0.367440E+00  0.297772E+00
  0.241029E+00  0.197805E+00  0.168606E+00  0.152530E+00  0.147535E+00  0.152530E+00
  0.168606E+00  0.197805E+00  0.241029E+00  0.297772E+00  0.367440E+00  0.448466E+00
  0.535488E+00  0.620109E+00  0.695483E+00  0.758769E+00  0.809983E+00  0.850264E+00
  0.881105E+00  0.904133E+00  0.920905E+00  0.932723E+00  0.940551E+00  0.945019E+00
  0.946471E+00  0.945019E+00  0.940551E+00  0.942229E+00  0.932379E+00  0.917681E+00
  0.896781E+00  0.868069E+00  0.829785E+00  0.780106E+00  0.717344E+00  0.640735E+00
  0.552194E+00  0.457975E+00  0.367440E+00  0.288456E+00  0.224427E+00  0.175696E+00
  0.141671E+00  0.120985E+00  0.111490E+00  0.111490E+00  0.120985E+00  0.141671E+00
  0.175696E+00  0.224427E+00  0.288456E+00  0.367440E+00  0.457975E+00  0.552194E+00
  0.640735E+00  0.717344E+00  0.780106E+00  0.829785E+00  0.868069E+00  0.896781E+00
  0.917681E+00  0.932379E+00  0.942229E+00  0.948250E+00  0.951102E+00  0.951102E+00
  0.948250E+00  0.942229E+00  0.940938E+00  0.928921E+00  0.911247E+00  0.886192E+00
  0.851685E+00  0.805428E+00  0.745250E+00  0.670036E+00  0.581188E+00  0.483824E+00
  0.386346E+00  0.297772E+00  0.224427E+00  0.168522E+00  0.129151E+00  0.103967E+00
  0.902865E-01  0.859928E-01  0.902865E-01  0.103967E+00  0.129151E+00  0.168522E+00
  0.224427E+00  0.297772E+00  0.386346E+00  0.483824E+00  0.581188E+00  0.670036E+00
  0.745250E+00  0.805428E+00  0.851685E+00  0.886192E+00  0.911247E+00  0.928921E+00
  0.940938E+00  0.948624E+00  0.952890E+00  0.954256E+00  0.952890E+00  0.948624E+00
  0.940938E+00  0.937617E+00  0.923383E+00  0.902697E+00  0.873354E+00  0.832599E+00
  0.777506E+00  0.706145E+00  0.619366E+00  0.521752E+00  0.420642E+00  0.324419E+00
  0.241029E+00  0.175696E+00  0.129151E+00  0.986993E-01  0.807574E-01  0.725193E-01
  0.725193E-01  0.807574E-01  0.986993E-01  0.129151E+00  0.175696E+00  0.241029E+00
  0.324419E+00  0.420642E+00  0.521752E+00  0.619366E+00  0.706145E+00  0.777506E+00
  0.832599E+00  0.873354E+00  0.902697E+00  0.923383E+00  0.937617E+00  0.947028E+00
  0.952738E+00  0.955432E+00  0.955432E+00  0.952738E+00  0.947028E+00  0.937617E+00
  0.933061E+00  0.916312E+00  0.892167E+00  0.857951E+00  0.810395E+00  0.746479E+00
  0.665346E+00  0.570169E+00  0.467733E+00  0.366183E+00  0.273790E+00  0.197805E+00
  0.141671E+00  0.103967E+00  0.807574E-01  0.683597E-01  0.644806E-01  0.683597E-01
  0.807574E-01  0.103967E+00  0.141671E+00  0.197805E+00  0.273790E+00  0.366183E+00
  0.467733E+00  0.570169E+00  0.665346E+00  0.746479E+00  0.810395E+00  0.857951E+00
  0.892167E+00  0.916312E+00  0.933061E+00  0.944378E+00  0.951622E+00  0.955656E+00
  0.956952E+00  0.955656E+00  0.951622E+00  0.944378E+00  0.933061E+00  0.927322E+00
  0.907443E+00  0.879131E+00  0.839561E+00  0.785531E+00  0.714537E+00  0.626776E+00
  0.526663E+00  0.422125E+00  0.322397E+00  0.236029E+00  0.168606E+00  0.120985E+00
  0.902865E-01  0.725193E-01  0.644806E-01  0.644806E-01  0.725193E-01  0.902865E-01
  0.120985E+00  0.168606E+00  0.236029E+00  0.322397E+00  0.422125E+00  0.526663E+00
  0.626776E+00  0.714537E+00  0.785531E+00  0.839561E+00  0.879131E+00  0.907443E+00
  0.927322E+00  0.940962E+00  0.949969E+00  0.955432E+00  0.958011E+00  0.958011E+00
  0.955432E+00  0.949969E+00  0.940962E+00  0.927322E+00  0.919885E+00  0.896472E+00
  0.863779E+00  0.819245E+00  0.760179E+00  0.684617E+00  0.593101E+00  0.490587E+00
  0.386391E+00  0.291019E+00  0.212083E+00  0.152530E+00  0.111490E+00  0.859928E-01
  0.725193E-01  0.683597E-01  0.725193E-01  0.859928E-01  0.111490E+00  0.152530E+00
  0.212083E+00  0.291019E+00  0.386391E+00  0.490587E+00  0.593101E+00  0.684617E+00
  0.760179E+00  0.819245E+00  0.863779E+00  0.896472E+00  0.919885E+00  0.936214E+00
  0.947233E+00  0.954256E+00  0.958153E+00  0.959402E+00  0.958153E+00  0.954256E+00
  0.947233E+00  0.936214E+00  0.919885E+00  0.910350E+00  0.883720E+00  0.847340E+00
  0.799032E+00  0.736608E+00  0.658420E+00  0.565225E+00  0.462829E+00  0.361893E+00
  0.272786E+00  0.200956E+00  0.147535E+00  0.111490E+00  0.902865E-01  0.807574E-01
  0.807574E-01  0.902865E-01  0.111490E+00  0.147535E+00  0.200956E+00  0.272786E+00
  0.361893E+00  0.462829E+00  0.565225E+00  0.658420E+00  0.736608E+00  0.799032E+00
  0.847340E+00  0.883720E+00  0.910350E+00  0.929303E+00  0.942406E+00  0.951102E+00
  0.956400E+00  0.958910E+00  0.958910E+00  0.956400E+00  0.951102E+00  0.942406E+00
  0.929303E+00  0.910350E+00  0.898654E+00  0.869821E+00  0.831057E+00  0.780395E+00
  0.716074E+00  0.636936E+00  0.544365E+00  0.444999E+00  0.349566E+00  0.266935E+00
  0.200956E+00  0.152530E+00  0.120985E+00  0.103967E+00  0.986993E-01  0.103967E+00
  0.120985E+00  0.152530E+00  0.200956E+00  0.266935E+00  0.349566E+00  0.444999E+00
  0.544365E+00  0.636936E+00  0.716074E+00  0.780395E+00  0.831057E+00  0.869821E+00
  0.898654E+00  0.919620E+00  0.934591E+00  0.945019E+00  0.951891E+00  0.955808E+00
  0.957082E+00  0.955808E+00  0.951891E+00  0.945019E+00  0.934591E+00  0.919620E+00
  0.898654E+00  0.885046E+00  0.855442E+00  0.815850E+00  0.764434E+00  0.700005E+00
  0.622169E+00  0.532914E+00  0.438824E+00  0.349566E+00  0.272786E+00  0.212083E+00
  0.168606E+00  0.141671E+00  0.129151E+00  0.129151E+00  0.141671E+00  0.168606E+00
  0.212083E+00  0.272786E+00  0.349566E+00  0.438824E+00  0.532914E+00  0.622169E+00
  0.700005E+00  0.764434E+00  0.815850E+00  0.855442E+00  0.885046E+00  0.906902E+00
  0.923065E+00  0.934999E+00  0.943552E+00  0.949128E+00  0.951890E+00  0.951890E+00
  0.949128E+00  0.943552E+00  0.934999E+00  0.923065E+00  0.906902E+00  0.885046E+00
  0.870561E+00  0.841911E+00  0.803281E+00  0.753104E+00  0.690872E+00  0.616815E+00
  0.532914E+00  0.444999E+00  0.361893E+00  0.291019E+00  0.236029E+00  0.197805E+00
  0.175696E+00  0.168522E+00  0.175696E+00  0.197805E+00  0.236029E+00  0.291019E+00
  0.361893E+00  0.444999E+00  0.532914E+00  0.616815E+00  0.690872E+00  0.753104E+00
  0.803281E+00  0.841911E+00  0.870561E+00  0.891621E+00  0.907438E+00  0.919677E+00
  0.929192E+00  0.936207E+00  0.940579E+00  0.942073E+00  0.940579E+00  0.936207E+00
  0.929192E+00  0.919677E+00  0.907438E+00  0.891621E+00  0.870561E+00  0.857663E+00
  0.831783E+00  0.795912E+00  0.748922E+00  0.690872E+00  0.622169E+00  0.544365E+00
  0.462829E+00  0.386391E+00  0.322397E+00  0.273790E+00  0.241029E+00  0.224427E+00
  0.224427E+00  0.241029E+00  0.273790E+00  0.322397E+00  0.386391E+00  0.462829E+00
  0.544365E+00  0.622169E+00  0.690872E+00  0.748922E+00  0.795912E+00  0.831783E+00
  0.857663E+00  0.875814E+00  0.888661E+00  0.898084E+00  0.905338E+00  0.911146E+00
  0.915600E+00  0.918146E+00  0.918146E+00  0.915600E+00  0.911146E+00  0.905338E+00
  0.898084E+00  0.888661E+00  0.875814E+00  0.857663E+00  0.849857E+00  0.827966E+00
  0.795912E+00  0.753104E+00  0.700005E+00  0.636936E+00  0.565225E+00  0.490587E+00
  0.422125E+00  0.366183E+00  0.324419E+00  0.297772E+00  0.288456E+00  0.297772E+00
  0.324419E+00  0.366183E+00  0.422125E+00  0.490587E+00  0.565225E+00  0.636936E+00
  0.700005E+00  0.753104E+00  0.795912E+00  0.827966E+00  0.849857E+00  0.863373E+00
  0.870384E+00  0.872146E+00  0.869747E+00  0.865091E+00  0.860868E+00  0.858780E+00
  0.858340E+00  0.858780E+00  0.860868E+00  0.865091E+00  0.869747E+00  0.872146E+00
  0.870384E+00  0.863373E+00  0.849857E+00  0.849857E+00  0.831783E+00  0.803281E+00
  0.764434E+00  0.716074E+00  0.658420E+00  0.593101E+00  0.526663E+00  0.467733E+00
  0.420642E+00  0.386346E+00  0.367440E+00  0.367440E+00  0.386346E+00  0.420642E+00
  0.467733E+00  0.526663E+00  0.593101E+00  0.658420E+00  0.716074E+00  0.764434E+00
  0.803281E+00  0.831783E+00  0.849857E+00  0.858585E+00  0.858699E+00  0.849241E+00
  0.828034E+00  0.794686E+00  0.755109E+00  0.721640E+00  0.704060E+00  0.704060E+00
  0.721640E+00  0.755109E+00  0.794686E+00  0.828034E+00  0.849241E+00  0.858699E+00
  0.858585E+00  0.849857E+00  0.857663E+00  0.841911E+00  0.815850E+00  0.780395E+00
  0.736608E+00  0.684617E+00  0.626776E+00  0.570169E+00  0.521752E+00  0.483824E+00
  0.457975E+00  0.448466E+00  0.457975E+00  0.483824E+00  0.521752E+00  0.570169E+00
  0.626776E+00  0.684617E+00  0.736608E+00  0.780395E+00  0.815850E+00  0.841911E+00
  0.857663E+00  0.863373E+00  0.858699E+00  0.839865E+00  0.797963E+00  0.721424E+00
  0.609979E+00  0.493675E+00  0.414598E+00  0.388599E+00  0.414598E+00  0.493675E+00
  0.609979E+00  0.721424E+00  0.797963E+00  0.839865E+00  0.858699E+00  0.863373E+00
  0.857663E+00  0.870561E+00  0.855442E+00  0.831057E+00  0.799032E+00  0.760179E+00
  0.714537E+00  0.665346E+00  0.619366E+00  0.581188E+00  0.552194E+00  0.535488E+00
  0.535488E+00  0.552194E+00  0.581188E+00  0.619366E+00  0.665346E+00  0.714537E+00
  0.760179E+00  0.799032E+00  0.831057E+00  0.855442E+00  0.870561E+00  0.875814E+00
  0.870384E+00  0.849241E+00  0.797963E+00  0.689240E+00  0.503559E+00  0.296564E+00
  0.163247E+00  0.111349E+00  0.111349E+00  0.163247E+00  0.296564E+00  0.503559E+00
  0.689240E+00  0.797963E+00  0.849241E+00  0.870384E+00  0.875814E+00  0.870561E+00
  0.885046E+00  0.869821E+00  0.847340E+00  0.819245E+00  0.785531E+00  0.746479E+00
  0.706145E+00  0.670036E+00  0.640735E+00  0.620109E+00  0.612350E+00  0.620109E+00
  0.640735E+00  0.670036E+00  0.706145E+00  0.746479E+00  0.785531E+00  0.819245E+00
  0.847340E+00  0.869821E+00  0.885046E+00  0.891621E+00  0.888661E+00  0.872146E+00
  0.828034E+00  0.721424E+00  0.503559E+00  0.230579E+00  0.728189E-01  0.251451E-01
  0.162960E-01  0.251451E-01  0.728189E-01  0.230579E+00  0.503559E+00  0.721424E+00
  0.828034E+00  0.872146E+00  0.888661E+00  0.891621E+00  0.885046E+00  0.898654E+00
  0.883720E+00  0.863779E+00  0.839561E+00  0.810395E+00  0.777506E+00  0.745250E+00
  0.717344E+00  0.695483E+00  0.682634E+00  0.682634E+00  0.695483E+00  0.717344E+00
  0.745250E+00  0.777506E+00  0.810395E+00  0.839561E+00  0.863779E+00  0.883720E+00
  0.898654E+00  0.906902E+00  0.907438E+00  0.898084E+00  0.869747E+00  0.794686E+00
  0.609979E+00  0.296564E+00  0.728189E-01  0.123860E-01  0.320998E-02  0.320998E-02
  0.123860E-01  0.728189E-01  0.296564E+00  0.609979E+00  0.794686E+00  0.869747E+00
  0.898084E+00  0.907438E+00  0.906902E+00  0.898654E+00  0.910350E+00  0.896472E+00
  0.879131E+00  0.857951E+00  0.832599E+00  0.805428E+00  0.780106E+00  0.758769E+00
  0.743384E+00  0.737540E+00  0.743384E+00  0.758769E+00  0.780106E+00  0.805428E+00
  0.832599E+00  0.857951E+00  0.879131E+00  0.896472E+00  0.910350E+00  0.919620E+00
  0.923065E+00  0.919677E+00  0.905338E+00  0.865091E+00  0.755109E+00  0.493675E+00
  0.163247E+00  0.251451E-01  0.320998E-02  0.117003E-02  0.320998E-02  0.251451E-01
  0.163247E+00  0.493675E+00  0.755109E+00  0.865091E+00  0.905338E+00  0.919677E+00
  0.923065E+00  0.919620E+00  0.910350E+00  0.919885E+00  0.907443E+00  0.892167E+00
  0.873354E+00  0.851685E+00  0.829785E+00  0.809983E+00  0.793862E+00  0.784218E+00
  0.784218E+00  0.793862E+00  0.809983E+00  0.829785E+00  0.851685E+00  0.873354E+00
  0.892167E+00  0.907443E+00  0.919885E+00  0.929303E+00  0.934591E+00  0.934999E+00
  0.929192E+00  0.911146E+00  0.860868E+00  0.721640E+00  0.414598E+00  0.111349E+00
  0.162960E-01  0.320998E-02  0.320998E-02  0.162960E-01  0.111349E+00  0.414598E+00
  0.721640E+00  0.860868E+00  0.911146E+00  0.929192E+00  0.934999E+00  0.934591E+00
  0.929303E+00  0.919885E+00  0.927322E+00  0.916312E+00  0.902697E+00  0.886192E+00
  0.868069E+00  0.850264E+00  0.834291E+00  0.822339E+00  0.817749E+00  0.822339E+00
  0.834291E+00  0.850264E+00  0.868069E+00  0.886192E+00  0.902697E+00  0.916312E+00
  0.927322E+00  0.936214E+00  0.942406E+00  0.945019E+00  0.943552E+00  0.936207E+00
  0.915600E+00  0.858780E+00  0.704060E+00  0.388599E+00  0.111349E+00  0.251451E-01
  0.123860E-01  0.251451E-01  0.111349E+00  0.388599E+00  0.704060E+00  0.858780E+00
  0.915600E+00  0.936207E+00  0.943552E+00  0.945019E+00  0.942406E+00  0.936214E+00
  0.927322E+00  0.933061E+00  0.923383E+00  0.911247E+00  0.896781E+00  0.881105E+00
  0.865564E+00  0.852050E+00  0.843770E+00  0.843770E+00  0.852050E+00  0.865564E+00
  0.881105E+00  0.896781E+00  0.911247E+00  0.923383E+00  0.933061E+00  0.940962E+00
  0.947233E+00  0.951102E+00  0.951891E+00  0.949128E+00  0.940579E+00  0.918146E+00
  0.858340E+00  0.704060E+00  0.414598E+00  0.163247E+00  0.728189E-01  0.728189E-01
  0.163247E+00  0.414598E+00  0.704060E+00  0.858340E+00  0.918146E+00  0.940579E+00
  0.949128E+00  0.951891E+00  0.951102E+00  0.947233E+00  0.940962E+00  0.933061E+00
  0.937617E+00  0.928921E+00  0.917681E+00  0.904133E+00  0.889167E+00  0.874411E+00
  0.862894E+00  0.858431E+00  0.862894E+00  0.874411E+00  0.889167E+00  0.904133E+00
  0.917681E+00  0.928921E+00  0.937617E+00  0.944378E+00  0.949969E+00  0.954256E+00
  0.956400E+00  0.955808E+00  0.951890E+00  0.942073E+00  0.918146E+00  0.858780E+00
  0.721640E+00  0.493675E+00  0.296564E+00  0.230579E+00  0.296564E+00  0.493675E+00
  0.721640E+00  0.858780E+00  0.918146E+00  0.942073E+00  0.951890E+00  0.955808E+00
  0.956400E+00  0.954256E+00  0.949969E+00  0.944378E+00  0.937617E+00  0.940938E+00
  0.932379E+00  0.920905E+00  0.906756E+00  0.891056E+00  0.876501E+00  0.867388E+00
  0.867388E+00  0.876501E+00  0.891056E+00  0.906756E+00  0.920905E+00  0.932379E+00
  0.940938E+00  0.947028E+00  0.951622E+00  0.955432E+00  0.958153E+00  0.958910E+00
  0.957082E+00  0.951890E+00  0.940579E+00  0.915600E+00  0.860868E+00  0.755109E+00
  0.609979E+00  0.503559E+00  0.503559E+00  0.609979E+00  0.755109E+00  0.860868E+00
  0.915600E+00  0.940579E+00  0.951890E+00  0.957082E+00  0.958910E+00  0.958153E+00
  0.955432E+00  0.951622E+00  0.947028E+00  0.940938E+00  0.942229E+00  0.932723E+00
  0.919719E+00  0.903537E+00  0.886138E+00  0.871918E+00  0.866314E+00  0.871918E+00
  0.886138E+00  0.903537E+00  0.919719E+00  0.932723E+00  0.942229E+00  0.948624E+00
  0.952738E+00  0.955656E+00  0.958011E+00  0.959402E+00  0.958910E+00  0.955808E+00
  0.949128E+00  0.936207E+00  0.911146E+00  0.865091E+00  0.794686E+00  0.721424E+00
  0.689240E+00  0.721424E+00  0.794686E+00  0.865091E+00  0.911146E+00  0.936207E+00
  0.949128E+00  0.955808E+00  0.958910E+00  0.959402E+00  0.958011E+00  0.955656E+00
  0.952738E+00  0.948624E+00  0.942229E+00  0.940551E+00  0.928973E+00  0.912918E+00
  0.893062E+00  0.873142E+00  0.860108E+00  0.860108E+00  0.873142E+00  0.893062E+00
  0.912918E+00  0.928973E+00  0.940551E+00  0.948250E+00  0.952890E+00  0.955432E+00
  0.956952E+00  0.958011E+00  0.958153E+00  0.956400E+00  0.951891E+00  0.943552E+00
  0.929192E+00  0.905338E+00  0.869747E+00  0.828034E+00  0.797963E+00  0.797963E+00
  0.828034E+00  0.869747E+00  0.905338E+00  0.929192E+00  0.943552E+00  0.951891E+00
  0.956400E+00  0.958153E+00  0.958011E+00  0.956952E+00  0.955432E+00  0.952890E+00
  0.948250E+00  0.940551E+00  0.934999E+00  0.919677E+00  0.898084E+00  0.872146E+00
  0.849241E+00  0.839865E+00  0.849241E+00  0.872146E+00  0.898084E+00  0.919677E+00
  0.934999E+00  0.945019E+00  0.951102E+00  0.954256E+00  0.955432E+00  0.955656E+00
  0.955432E+00  0.954256E+00  0.951102E+00  0.945019E+00  0.934999E+00  0.919677E+00
  0.898084E+00  0.872146E+00  0.849241E+00  0.839865E+00  0.849241E+00  0.872146E+00
  0.898084E+00  0.919677E+00  0.934999E+00  0.945019E+00  0.951102E+00  0.954256E+00
  0.955432E+00  0.955656E+00  0.955432E+00  0.954256E+00  0.951102E+00  0.945019E+00
  0.934999E+00  0.923845E+00  0.901539E+00  0.870177E+00  0.835344E+00  0.811116E+00
  0.811116E+00  0.835344E+00  0.870177E+00  0.901539E+00  0.923845E+00  0.937986E+00
  0.946471E+00  0.951102E+00  0.952890E+00  0.952738E+00  0.951622E+00  0.949969E+00
  0.947233E+00  0.942406E+00  0.934591E+00  0.923065E+00  0.907438E+00  0.888661E+00
  0.870384E+00  0.858699E+00  0.858699E+00  0.870384E+00  0.888661E+00  0.907438E+00
  0.923065E+00  0.934591E+00  0.942406E+00  0.947233E+00  0.949969E+00  0.951622E+00
  0.952738E+00  0.952890E+00  0.951102E+00  0.946471E+00  0.937986E+00  0.923845E+00
  0.903361E+00  0.868461E+00  0.821954E+00  0.777995E+00  0.759459E+00  0.777995E+00
  0.821954E+00  0.868461E+00  0.903361E+00  0.925265E+00  0.937986E+00  0.945019E+00
  0.948250E+00  0.948624E+00  0.947028E+00  0.944378E+00  0.940962E+00  0.936214E+00
  0.929303E+00  0.919620E+00  0.906902E+00  0.891621E+00  0.875814E+00  0.863373E+00
  0.858585E+00  0.863373E+00  0.875814E+00  0.891621E+00  0.906902E+00  0.919620E+00
  0.929303E+00  0.936214E+00  0.940962E+00  0.944378E+00  0.947028E+00  0.948624E+00
  0.948250E+00  0.945019E+00  0.937986E+00  0.925265E+00  0.903361E+00  0.867806E+00
  0.813633E+00  0.750279E+00  0.705363E+00  0.705363E+00  0.750279E+00  0.813633E+00
  0.867806E+00  0.903361E+00  0.923845E+00  0.934999E+00  0.940551E+00  0.942229E+00
  0.940938E+00  0.937617E+00  0.933061E+00  0.927322E+00  0.919885E+00  0.910350E+00
  0.898654E+00  0.885046E+00  0.870561E+00  0.857663E+00  0.849857E+00  0.849857E+00
  0.857663E+00  0.870561E+00  0.885046E+00  0.898654E+00  0.910350E+00  0.919885E+00
  0.927322E+00  0.933061E+00  0.937617E+00  0.940938E+00  0.942229E+00  0.940551E+00
  0.934999E+00  0.923845E+00  0.903361E+00  0.867806E+00  0.783885E+00  0.662403E+00
  0.545248E+00  0.497572E+00  0.545248E+00  0.662403E+00  0.783885E+00  0.865110E+00
  0.908190E+00  0.929192E+00  0.939195E+00  0.943411E+00  0.943725E+00  0.940938E+00
  0.935958E+00  0.929550E+00  0.921634E+00  0.911660E+00  0.899533E+00  0.885756E+00
  0.871116E+00  0.857044E+00  0.846287E+00  0.842175E+00  0.846287E+00  0.857044E+00
  0.871116E+00  0.885756E+00  0.899533E+00  0.911660E+00  0.921634E+00  0.929550E+00
  0.935958E+00  0.940938E+00  0.943725E+00  0.943411E+00  0.939195E+00  0.929192E+00
  0.908190E+00  0.865110E+00  0.783885E+00  0.662403E+00  0.513969E+00  0.417858E+00
  0.417858E+00  0.513969E+00  0.662403E+00  0.790219E+00  0.866788E+00  0.905338E+00
  0.923640E+00  0.931846E+00  0.934258E+00  0.932379E+00  0.927124E+00  0.919548E+00
  0.910135E+00  0.898465E+00  0.884327E+00  0.868584E+00  0.852525E+00  0.837206E+00
  0.824240E+00  0.816460E+00  0.816460E+00  0.824240E+00  0.837206E+00  0.852525E+00
  0.868584E+00  0.884327E+00  0.898465E+00  0.910135E+00  0.919548E+00  0.927124E+00
  0.932379E+00  0.934258E+00  0.931846E+00  0.923640E+00  0.905338E+00  0.866788E+00
  0.790219E+00  0.662403E+00  0.545248E+00  0.417858E+00  0.370392E+00  0.417858E+00
  0.545248E+00  0.695318E+00  0.806911E+00  0.869747E+00  0.900993E+00  0.915596E+00
  0.921238E+00  0.920905E+00  0.915783E+00  0.907074E+00  0.895915E+00  0.882324E+00
  0.865690E+00  0.846574E+00  0.826949E+00  0.808579E+00  0.792597E+00  0.780953E+00
  0.776565E+00  0.780953E+00  0.792597E+00  0.808579E+00  0.826949E+00  0.846574E+00
  0.865690E+00  0.882324E+00  0.895915E+00  0.907074E+00  0.915783E+00  0.920905E+00
  0.921238E+00  0.915596E+00  0.900993E+00  0.869747E+00  0.806911E+00  0.695318E+00
  0.545248E+00  0.497572E+00  0.417858E+00  0.417858E+00  0.497572E+00  0.625811E+00
  0.746892E+00  0.828034E+00  0.872810E+00  0.895165E+00  0.904952E+00  0.906756E+00
  0.902206E+00  0.892386E+00  0.878847E+00  0.862563E+00  0.843091E+00  0.820212E+00
  0.795758E+00  0.772502E+00  0.752108E+00  0.735872E+00  0.726396E+00  0.726396E+00
  0.735872E+00  0.752108E+00  0.772502E+00  0.795758E+00  0.820212E+00  0.843091E+00
  0.862563E+00  0.878847E+00  0.892386E+00  0.902206E+00  0.906756E+00  0.904952E+00
  0.895165E+00  0.872810E+00  0.828034E+00  0.746892E+00  0.625811E+00  0.497572E+00
  0.545248E+00  0.513969E+00  0.545248E+00  0.625811E+00  0.720901E+00  0.797963E+00
  0.847174E+00  0.874324E+00  0.887341E+00  0.891056E+00  0.887273E+00  0.876646E+00
  0.860388E+00  0.840153E+00  0.816466E+00  0.788979E+00  0.758897E+00  0.729441E+00
  0.703281E+00  0.681606E+00  0.666304E+00  0.660614E+00  0.666304E+00  0.681606E+00
  0.703281E+00  0.729441E+00  0.758897E+00  0.788979E+00  0.816466E+00  0.840153E+00
  0.860388E+00  0.876646E+00  0.887273E+00  0.891056E+00  0.887341E+00  0.874324E+00
  0.847174E+00  0.797963E+00  0.720901E+00  0.625811E+00  0.545248E+00  0.662403E+00
  0.662403E+00  0.695318E+00  0.746892E+00  0.797963E+00  0.836505E+00  0.860515E+00
  0.872873E+00  0.876501E+00  0.872592E+00  0.861147E+00  0.842470E+00  0.817871E+00
  0.788535E+00  0.754705E+00  0.717435E+00  0.680158E+00  0.646636E+00  0.618521E+00
  0.596880E+00  0.584524E+00  0.584524E+00  0.596880E+00  0.618521E+00  0.646636E+00
  0.680158E+00  0.717435E+00  0.754705E+00  0.788535E+00  0.817871E+00  0.842470E+00
  0.861147E+00  0.872592E+00  0.876501E+00  0.872873E+00  0.860515E+00  0.836505E+00
  0.797963E+00  0.746892E+00  0.695318E+00  0.662403E+00  0.783885E+00  0.790219E+00
  0.806911E+00  0.828034E+00  0.847174E+00  0.860515E+00  0.867154E+00  0.867388E+00
  0.861154E+00  0.847717E+00  0.826500E+00  0.797923E+00  0.762906E+00  0.721908E+00
  0.676045E+00  0.629060E+00  0.585990E+00  0.549718E+00  0.521037E+00  0.501643E+00
  0.494630E+00  0.501643E+00  0.521037E+00  0.549718E+00  0.585990E+00  0.629060E+00
  0.676045E+00  0.721908E+00  0.762906E+00  0.797923E+00  0.826500E+00  0.847717E+00
  0.861154E+00  0.867388E+00  0.867154E+00  0.860515E+00  0.847174E+00  0.828034E+00
  0.806911E+00  0.790219E+00  0.783885E+00  0.865110E+00  0.866788E+00  0.869747E+00
  0.872810E+00  0.874324E+00  0.872873E+00  0.867388E+00  0.856728E+00  0.839508E+00
  0.814591E+00  0.781758E+00  0.741444E+00  0.693853E+00  0.639758E+00  0.582755E+00
  0.528830E+00  0.482585E+00  0.445675E+00  0.419092E+00  0.404853E+00  0.404853E+00
  0.419092E+00  0.445675E+00  0.482585E+00  0.528830E+00  0.582755E+00  0.639758E+00
  0.693853E+00  0.741444E+00  0.781758E+00  0.814591E+00  0.839508E+00  0.856728E+00
  0.867388E+00  0.872873E+00  0.874324E+00  0.872810E+00  0.869747E+00  0.866788E+00
  0.865110E+00  0.865110E+00  0.908190E+00  0.905338E+00  0.900993E+00  0.895165E+00
  0.887341E+00  0.876501E+00  0.861154E+00  0.839508E+00  0.810027E+00  0.772116E+00
  0.726014E+00  0.671936E+00  0.610475E+00  0.544784E+00  0.480923E+00  0.424581E+00
  0.378727E+00  0.344747E+00  0.323795E+00  0.316720E+00  0.323795E+00  0.344747E+00
  0.378727E+00  0.424581E+00  0.480923E+00  0.544784E+00  0.610475E+00  0.671936E+00
  0.726014E+00  0.772116E+00  0.810027E+00  0.839508E+00  0.861154E+00  0.876501E+00
  0.887341E+00  0.895165E+00  0.900993E+00  0.905338E+00  0.908190E+00  0.909209E+00
  0.908190E+00  0.929192E+00  0.923640E+00  0.915596E+00  0.904952E+00  0.891056E+00
  0.872592E+00  0.847717E+00  0.814591E+00  0.772116E+00  0.720167E+00  0.659087E+00
  0.589921E+00  0.516110E+00  0.443801E+00  0.378901E+00  0.324864E+00  0.283667E+00
  0.256494E+00  0.243278E+00  0.243278E+00  0.256494E+00  0.283667E+00  0.324864E+00
  0.378901E+00  0.443801E+00  0.516110E+00  0.589921E+00  0.659087E+00  0.720167E+00
  0.772116E+00  0.814591E+00  0.847717E+00  0.872592E+00  0.891056E+00  0.904952E+00
  0.915596E+00  0.923640E+00  0.929192E+00  0.932065E+00  0.932065E+00  0.929192E+00
  0.939195E+00  0.931846E+00  0.921238E+00  0.906756E+00  0.887273E+00  0.861147E+00
  0.826500E+00  0.781758E+00  0.726014E+00  0.659087E+00  0.582218E+00  0.499732E+00
  0.418915E+00  0.346390E+00  0.285526E+00  0.237996E+00  0.205038E+00  0.186427E+00
  0.180547E+00  0.186427E+00  0.205038E+00  0.237996E+00  0.285526E+00  0.346390E+00
  0.418915E+00  0.499732E+00  0.582218E+00  0.659087E+00  0.726014E+00  0.781758E+00
  0.826500E+00  0.861147E+00  0.887273E+00  0.906756E+00  0.921238E+00  0.931846E+00
  0.939195E+00  0.943552E+00  0.944999E+00  0.943552E+00  0.939195E+00  0.943411E+00
  0.934258E+00  0.920905E+00  0.902206E+00  0.876646E+00  0.842470E+00  0.797923E+00
  0.741444E+00  0.671936E+00  0.589921E+00  0.499732E+00  0.409896E+00  0.328983E+00
  0.261358E+00  0.208193E+00  0.170012E+00  0.146428E+00  0.135569E+00  0.135569E+00
  0.146428E+00  0.170012E+00  0.208193E+00  0.261358E+00  0.328983E+00  0.409896E+00
  0.499732E+00  0.589921E+00  0.671936E+00  0.741444E+00  0.797923E+00  0.842470E+00
  0.876646E+00  0.902206E+00  0.920905E+00  0.934258E+00  0.943411E+00  0.949135E+00
  0.951891E+00  0.951891E+00  0.949135E+00  0.943411E+00  0.943725E+00  0.932379E+00
  0.915783E+00  0.892386E+00  0.860388E+00  0.817871E+00  0.762906E+00  0.693853E+00
  0.610475E+00  0.516110E+00  0.418915E+00  0.328983E+00  0.253167E+00  0.193676E+00
  0.150368E+00  0.122110E+00  0.106752E+00  0.101967E+00  0.106752E+00  0.122110E+00
  0.150368E+00  0.193676E+00  0.253167E+00  0.328983E+00  0.418915E+00  0.516110E+00
  0.610475E+00  0.693853E+00  0.762906E+00  0.817871E+00  0.860388E+00  0.892386E+00
  0.915783E+00  0.932379E+00  0.943725E+00  0.951023E+00  0.955093E+00  0.956400E+00
  0.955093E+00  0.951023E+00  0.943725E+00  0.940938E+00  0.927124E+00  0.907074E+00
  0.878847E+00  0.840153E+00  0.788535E+00  0.721908E+00  0.639758E+00  0.544784E+00
  0.443801E+00  0.346390E+00  0.261358E+00  0.193676E+00  0.144150E+00  0.110986E+00
  0.913178E-01  0.823387E-01  0.823387E-01  0.913178E-01  0.110986E+00  0.144150E+00
  0.193676E+00  0.261358E+00  0.346390E+00  0.443801E+00  0.544784E+00  0.639758E+00
  0.721908E+00  0.788535E+00  0.840153E+00  0.878847E+00  0.907074E+00  0.927124E+00
  0.940938E+00  0.950051E+00  0.955560E+00  0.958153E+00  0.958153E+00  0.955560E+00
  0.950051E+00  0.940938E+00  0.935958E+00  0.919548E+00  0.895915E+00  0.862563E+00
  0.816466E+00  0.754705E+00  0.676045E+00  0.582755E+00  0.480923E+00  0.378901E+00
  0.285526E+00  0.208193E+00  0.150368E+00  0.110986E+00  0.865446E-01  0.734825E-01
  0.694044E-01  0.734825E-01  0.865446E-01  0.110986E+00  0.150368E+00  0.208193E+00
  0.285526E+00  0.378901E+00  0.480923E+00  0.582755E+00  0.676045E+00  0.754705E+00
  0.816466E+00  0.862563E+00  0.895915E+00  0.919548E+00  0.935958E+00  0.947028E+00
  0.954090E+00  0.958011E+00  0.959268E+00  0.958011E+00  0.954090E+00  0.947028E+00
  0.935958E+00  0.929550E+00  0.910135E+00  0.882324E+00  0.843091E+00  0.788979E+00
  0.717435E+00  0.629060E+00  0.528830E+00  0.424581E+00  0.324864E+00  0.237996E+00
  0.170012E+00  0.122110E+00  0.913178E-01  0.734825E-01  0.653879E-01  0.653879E-01
  0.734825E-01  0.913178E-01  0.122110E+00  0.170012E+00  0.237996E+00  0.324864E+00
  0.424581E+00  0.528830E+00  0.629060E+00  0.717435E+00  0.788979E+00  0.843091E+00
  0.882324E+00  0.910135E+00  0.929550E+00  0.942844E+00  0.951622E+00  0.956952E+00
  0.959469E+00  0.959469E+00  0.956952E+00  0.951622E+00  0.942844E+00  0.929550E+00
  0.921634E+00  0.898465E+00  0.865690E+00  0.820212E+00  0.758897E+00  0.680158E+00
  0.585990E+00  0.482585E+00  0.378727E+00  0.283667E+00  0.205038E+00  0.146428E+00
  0.106752E+00  0.823387E-01  0.694044E-01  0.653879E-01  0.694044E-01  0.823387E-01
  0.106752E+00  0.146428E+00  0.205038E+00  0.283667E+00  0.378727E+00  0.482585E+00
  0.585990E+00  0.680158E+00  0.758897E+00  0.820212E+00  0.865690E+00  0.898465E+00
  0.921634E+00  0.937698E+00  0.948525E+00  0.955432E+00  0.959268E+00  0.960498E+00
  0.959268E+00  0.955432E+00  0.948525E+00  0.937698E+00  0.921634E+00  0.911660E+00
  0.884327E+00  0.846574E+00  0.795758E+00  0.729441E+00  0.646636E+00  0.549718E+00
  0.445675E+00  0.344747E+00  0.256494E+00  0.186427E+00  0.135569E+00  0.101967E+00
  0.823387E-01  0.734825E-01  0.734825E-01  0.823387E-01  0.101967E+00  0.135569E+00
  0.186427E+00  0.256494E+00  0.344747E+00  0.445675E+00  0.549718E+00  0.646636E+00
  0.729441E+00  0.795758E+00  0.846574E+00  0.884327E+00  0.911660E+00  0.930951E+00
  0.944183E+00  0.952890E+00  0.958153E+00  0.960631E+00  0.960631E+00  0.958153E+00
  0.952890E+00  0.944183E+00  0.930951E+00  0.911660E+00  0.899533E+00  0.868584E+00
  0.826949E+00  0.772502E+00  0.703281E+00  0.618521E+00  0.521037E+00  0.419092E+00
  0.323795E+00  0.243278E+00  0.180547E+00  0.135569E+00  0.106752E+00  0.913178E-01
  0.865446E-01  0.913178E-01  0.106752E+00  0.135569E+00  0.180547E+00  0.243278E+00
  0.323795E+00  0.419092E+00  0.521037E+00  0.618521E+00  0.703281E+00  0.772502E+00
  0.826949E+00  0.868584E+00  0.899533E+00  0.921888E+00  0.937586E+00  0.948250E+00
  0.955093E+00  0.958910E+00  0.960136E+00  0.958910E+00  0.955093E+00  0.948250E+00
  0.937586E+00  0.921888E+00  0.899533E+00  0.885756E+00  0.852525E+00  0.808579E+00
  0.752108E+00  0.681606E+00  0.596880E+00  0.501643E+00  0.404853E+00  0.316720E+00
  0.243278E+00  0.186427E+00  0.146428E+00  0.122110E+00  0.110986E+00  0.110986E+00
  0.122110E+00  0.146428E+00  0.186427E+00  0.243278E+00  0.316720E+00  0.404853E+00
  0.501643E+00  0.596880E+00  0.681606E+00  0.752108E+00  0.808579E+00  0.852525E+00
  0.885756E+00  0.910262E+00  0.927986E+00  0.940551E+00  0.949135E+00  0.954499E+00
  0.957082E+00  0.957082E+00  0.954499E+00  0.949135E+00  0.940551E+00  0.927986E+00
  0.910262E+00  0.885756E+00  0.871116E+00  0.837206E+00  0.792597E+00  0.735872E+00
  0.666304E+00  0.584524E+00  0.494630E+00  0.404853E+00  0.323795E+00  0.256494E+00
  0.205038E+00  0.170012E+00  0.150368E+00  0.144150E+00  0.150368E+00  0.170012E+00
  0.205038E+00  0.256494E+00  0.323795E+00  0.404853E+00  0.494630E+00  0.584524E+00
  0.666304E+00  0.735872E+00  0.792597E+00  0.837206E+00  0.871116E+00  0.896349E+00
  0.915058E+00  0.928973E+00  0.939195E+00  0.946290E+00  0.950494E+00  0.951890E+00
  0.950494E+00  0.946290E+00  0.939195E+00  0.928973E+00  0.915058E+00  0.896349E+00
  0.871116E+00  0.857044E+00  0.824240E+00  0.780953E+00  0.726396E+00  0.660614E+00
  0.584524E+00  0.501643E+00  0.419092E+00  0.344747E+00  0.283667E+00  0.237996E+00
  0.208193E+00  0.193676E+00  0.193676E+00  0.208193E+00  0.237996E+00  0.283667E+00
  0.344747E+00  0.419092E+00  0.501643E+00  0.584524E+00  0.660614E+00  0.726396E+00
  0.780953E+00  0.824240E+00  0.857044E+00  0.881245E+00  0.899201E+00  0.912918E+00
  0.923640E+00  0.931873E+00  0.937604E+00  0.940579E+00  0.940579E+00  0.937604E+00
  0.931873E+00  0.923640E+00  0.912918E+00  0.899201E+00  0.881245E+00  0.857044E+00
  0.846287E+00  0.816460E+00  0.776565E+00  0.726396E+00  0.666304E+00  0.596880E+00
  0.521037E+00  0.445675E+00  0.378727E+00  0.324864E+00  0.285526E+00  0.261358E+00
  0.253167E+00  0.261358E+00  0.285526E+00  0.324864E+00  0.378727E+00  0.445675E+00
  0.521037E+00  0.596880E+00  0.666304E+00  0.726396E+00  0.776565E+00  0.816460E+00
  0.846287E+00  0.867526E+00  0.882418E+00  0.893062E+00  0.900993E+00  0.907208E+00
  0.912156E+00  0.915600E+00  0.916871E+00  0.915600E+00  0.912156E+00  0.907208E+00
  0.900993E+00  0.893062E+00  0.882418E+00  0.867526E+00  0.846287E+00  0.842175E+00
  0.816460E+00  0.780953E+00  0.735872E+00  0.681606E+00  0.618521E+00  0.549718E+00
  0.482585E+00  0.424581E+00  0.378901E+00  0.346390E+00  0.328983E+00  0.328983E+00
  0.346390E+00  0.378901E+00  0.424581E+00  0.482585E+00  0.549718E+00  0.618521E+00
  0.681606E+00  0.735872E+00  0.780953E+00  0.816460E+00  0.842175E+00  0.859078E+00
  0.868905E+00  0.873142E+00  0.872810E+00  0.869175E+00  0.864412E+00  0.860868E+00
  0.859381E+00  0.859381E+00  0.860868E+00  0.864412E+00  0.869175E+00  0.872810E+00
  0.873142E+00  0.868905E+00  0.859078E+00  0.842175E+00  0.846287E+00  0.824240E+00
  0.792597E+00  0.752108E+00  0.703281E+00  0.646636E+00  0.585990E+00  0.528830E+00
  0.480923E+00  0.443801E+00  0.418915E+00  0.409896E+00  0.418915E+00  0.443801E+00
  0.480923E+00  0.528830E+00  0.585990E+00  0.646636E+00  0.703281E+00  0.752108E+00
  0.792597E+00  0.824240E+00  0.846287E+00  0.859078E+00  0.863628E+00  0.860108E+00
  0.847174E+00  0.823267E+00  0.789978E+00  0.755109E+00  0.729812E+00  0.720928E+00
  0.729812E+00  0.755109E+00  0.789978E+00  0.823267E+00  0.847174E+00  0.860108E+00
  0.863628E+00  0.859078E+00  0.846287E+00  0.857044E+00  0.837206E+00  0.808579E+00
  0.772502E+00  0.729441E+00  0.680158E+00  0.629060E+00  0.582755E+00  0.544784E+00
  0.516110E+00  0.499732E+00  0.499732E+00  0.516110E+00  0.544784E+00  0.582755E+00
  0.629060E+00  0.680158E+00  0.729441E+00  0.772502E+00  0.808579E+00  0.837206E+00
  0.857044E+00  0.867526E+00  0.868905E+00  0.860108E+00  0.836505E+00  0.789531E+00
  0.711533E+00  0.609979E+00  0.516324E+00  0.463322E+00  0.463322E+00  0.516324E+00
  0.609979E+00  0.711533E+00  0.789531E+00  0.836505E+00  0.860108E+00  0.868905E+00
  0.867526E+00  0.857044E+00  0.871116E+00  0.852525E+00  0.826949E+00  0.795758E+00
  0.758897E+00  0.717435E+00  0.676045E+00  0.639758E+00  0.610475E+00  0.589921E+00
  0.582218E+00  0.589921E+00  0.610475E+00  0.639758E+00  0.676045E+00  0.717435E+00
  0.758897E+00  0.795758E+00  0.826949E+00  0.852525E+00  0.871116E+00  0.881245E+00
  0.882418E+00  0.873142E+00  0.847174E+00  0.789531E+00  0.676926E+00  0.503559E+00
  0.326854E+00  0.217618E+00  0.184365E+00  0.217618E+00  0.326854E+00  0.503559E+00
  0.676926E+00  0.789531E+00  0.847174E+00  0.873142E+00  0.882418E+00  0.881245E+00
  0.871116E+00  0.885756E+00  0.868584E+00  0.846574E+00  0.820212E+00  0.788979E+00
  0.754705E+00  0.721908E+00  0.693853E+00  0.671936E+00  0.659087E+00  0.659087E+00
  0.671936E+00  0.693853E+00  0.721908E+00  0.754705E+00  0.788979E+00  0.820212E+00
  0.846574E+00  0.868584E+00  0.885756E+00  0.896349E+00  0.899201E+00  0.893062E+00
  0.872810E+00  0.823267E+00  0.711533E+00  0.503559E+00  0.261004E+00  0.113677E+00
  0.628891E-01  0.628891E-01  0.113677E+00  0.261004E+00  0.503559E+00  0.711533E+00
  0.823267E+00  0.872810E+00  0.893062E+00  0.899201E+00  0.896349E+00  0.885756E+00
  0.899533E+00  0.884327E+00  0.865690E+00  0.843091E+00  0.816466E+00  0.788535E+00
  0.762906E+00  0.741444E+00  0.726014E+00  0.720167E+00  0.726014E+00  0.741444E+00
  0.762906E+00  0.788535E+00  0.816466E+00  0.843091E+00  0.865690E+00  0.884327E+00
  0.899533E+00  0.910262E+00  0.915058E+00  0.912918E+00  0.900993E+00  0.869175E+00
  0.789978E+00  0.609979E+00  0.326854E+00  0.113677E+00  0.383526E-01  0.238653E-01
  0.383526E-01  0.113677E+00  0.326854E+00  0.609979E+00  0.789978E+00  0.869175E+00
  0.900993E+00  0.912918E+00  0.915058E+00  0.910262E+00  0.899533E+00  0.911660E+00
  0.898465E+00  0.882324E+00  0.862563E+00  0.840153E+00  0.817871E+00  0.797923E+00
  0.781758E+00  0.772116E+00  0.772116E+00  0.781758E+00  0.797923E+00  0.817871E+00
  0.840153E+00  0.862563E+00  0.882324E+00  0.898465E+00  0.911660E+00  0.921888E+00
  0.927986E+00  0.928973E+00  0.923640E+00  0.907208E+00  0.864412E+00  0.755109E+00
  0.516324E+00  0.217618E+00  0.628891E-01  0.238653E-01  0.238653E-01  0.628891E-01
  0.217618E+00  0.516324E+00  0.755109E+00  0.864412E+00  0.907208E+00  0.923640E+00
  0.928973E+00  0.927986E+00  0.921888E+00  0.911660E+00  0.921634E+00  0.910135E+00
  0.895915E+00  0.878847E+00  0.860388E+00  0.842470E+00  0.826500E+00  0.814591E+00
  0.810027E+00  0.814591E+00  0.826500E+00  0.842470E+00  0.860388E+00  0.878847E+00
  0.895915E+00  0.910135E+00  0.921634E+00  0.930951E+00  0.937586E+00  0.940551E+00
  0.939195E+00  0.931873E+00  0.912156E+00  0.860868E+00  0.729812E+00  0.463322E+00
  0.184365E+00  0.628891E-01  0.383526E-01  0.628891E-01  0.184365E+00  0.463322E+00
  0.729812E+00  0.860868E+00  0.912156E+00  0.931873E+00  0.939195E+00  0.940551E+00
  0.937586E+00  0.930951E+00  0.921634E+00  0.929550E+00  0.919548E+00  0.907074E+00
  0.892386E+00  0.876646E+00  0.861147E+00  0.847717E+00  0.839508E+00  0.839508E+00
  0.847717E+00  0.861147E+00  0.876646E+00  0.892386E+00  0.907074E+00  0.919548E+00
  0.929550E+00  0.937698E+00  0.944183E+00  0.948250E+00  0.949135E+00  0.946290E+00
  0.937604E+00  0.915600E+00  0.859381E+00  0.720928E+00  0.463322E+00  0.217618E+00
  0.113677E+00  0.113677E+00  0.217618E+00  0.463322E+00  0.720928E+00  0.859381E+00
  0.915600E+00  0.937604E+00  0.946290E+00  0.949135E+00  0.948250E+00  0.944183E+00
  0.937698E+00  0.929550E+00  0.935958E+00  0.927124E+00  0.915783E+00  0.902206E+00
  0.887273E+00  0.872592E+00  0.861154E+00  0.856728E+00  0.861154E+00  0.872592E+00
  0.887273E+00  0.902206E+00  0.915783E+00  0.927124E+00  0.935958E+00  0.942844E+00
  0.948525E+00  0.952890E+00  0.955093E+00  0.954499E+00  0.950494E+00  0.940579E+00
  0.916871E+00  0.859381E+00  0.729812E+00  0.516324E+00  0.326854E+00  0.261004E+00
  0.326854E+00  0.516324E+00  0.729812E+00  0.859381E+00  0.916871E+00  0.940579E+00
  0.950494E+00  0.954499E+00  0.955093E+00  0.952890E+00  0.948525E+00  0.942844E+00
  0.935958E+00  0.940938E+00  0.932379E+00  0.920905E+00  0.906756E+00  0.891056E+00
  0.876501E+00  0.867388E+00  0.867388E+00  0.876501E+00  0.891056E+00  0.906756E+00
  0.920905E+00  0.932379E+00  0.940938E+00  0.947028E+00  0.951622E+00  0.955432E+00
  0.958153E+00  0.958910E+00  0.957082E+00  0.951890E+00  0.940579E+00  0.915600E+00
  0.860868E+00  0.755109E+00  0.609979E+00  0.503559E+00  0.503559E+00  0.609979E+00
  0.755109E+00  0.860868E+00  0.915600E+00  0.940579E+00  0.951890E+00  0.957082E+00
  0.958910E+00  0.958153E+00  0.955432E+00  0.951622E+00  0.947028E+00  0.940938E+00
  0.943725E+00  0.934258E+00  0.921238E+00  0.904952E+00  0.887341E+00  0.872873E+00
  0.867154E+00  0.872873E+00  0.887341E+00  0.904952E+00  0.921238E+00  0.934258E+00
  0.943725E+00  0.950051E+00  0.954090E+00  0.956952E+00  0.959268E+00  0.960631E+00
  0.960136E+00  0.957082E+00  0.950494E+00  0.937604E+00  0.912156E+00  0.864412E+00
  0.789978E+00  0.711533E+00  0.676926E+00  0.711533E+00  0.789978E+00  0.864412E+00
  0.912156E+00  0.937604E+00  0.950494E+00  0.957082E+00  0.960136E+00  0.960631E+00
  0.959268E+00  0.956952E+00  0.954090E+00  0.950051E+00  0.943725E+00  0.943411E+00
  0.931846E+00  0.915596E+00  0.895165E+00  0.874324E+00  0.860515E+00  0.860515E+00
  0.874324E+00  0.895165E+00  0.915596E+00  0.931846E+00  0.943411E+00  0.951023E+00
  0.955560E+00  0.958011E+00  0.959469E+00  0.960498E+00  0.960631E+00  0.958910E+00
  0.954499E+00  0.946290E+00  0.931873E+00  0.907208E+00  0.869175E+00  0.823267E+00
  0.789531E+00  0.789531E+00  0.823267E+00  0.869175E+00  0.907208E+00  0.931873E+00
  0.946290E+00  0.954499E+00  0.958910E+00  0.960631E+00  0.960498E+00  0.959469E+00
  0.958011E+00  0.955560E+00  0.951023E+00  0.943411E+00  0.939195E+00  0.923640E+00
  0.900993E+00  0.872810E+00  0.847174E+00  0.836505E+00  0.847174E+00  0.872810E+00
  0.900993E+00  0.923640E+00  0.939195E+00  0.949135E+00  0.955093E+00  0.958153E+00
  0.959268E+00  0.959469E+00  0.959268E+00  0.958153E+00  0.955093E+00  0.949135E+00
  0.939195E+00  0.923640E+00  0.900993E+00  0.872810E+00  0.847174E+00  0.836505E+00
  0.847174E+00  0.872810E+00  0.900993E+00  0.923640E+00  0.939195E+00  0.949135E+00
  0.955093E+00  0.958153E+00  0.959268E+00  0.959469E+00  0.959268E+00  0.958153E+00
  0.955093E+00  0.949135E+00  0.939195E+00  0.929192E+00  0.905338E+00  0.869747E+00
  0.828034E+00  0.797963E+00  0.797963E+00  0.828034E+00  0.869747E+00  0.905338E+00
  0.929192E+00  0.943552E+00  0.951891E+00  0.956400E+00  0.958153E+00  0.958011E+00
  0.956952E+00  0.955432E+00  0.952890E+00  0.948250E+00  0.940551E+00  0.928973E+00
  0.912918E+00  0.893062E+00  0.873142E+00  0.860108E+00  0.860108E+00  0.873142E+00
  0.893062E+00  0.912918E+00  0.928973E+00  0.940551E+00  0.948250E+00  0.952890E+00
  0.955432E+00  0.956952E+00  0.958011E+00  0.958153E+00  0.956400E+00  0.951891E+00
  0.943552E+00  0.929192E+00  0.908190E+00  0.866788E+00  0.806911E+00  0.746892E+00
  0.720901E+00  0.746892E+00  0.806911E+00  0.866788E+00  0.908190E+00  0.932065E+00
  0.944999E+00  0.951891E+00  0.955093E+00  0.955560E+00  0.954090E+00  0.951622E+00
  0.948525E+00  0.944183E+00  0.937586E+00  0.927986E+00  0.915058E+00  0.899201E+00
  0.882418E+00  0.868905E+00  0.863628E+00  0.868905E+00  0.882418E+00  0.899201E+00
  0.915058E+00  0.927986E+00  0.937586E+00  0.944183E+00  0.948525E+00  0.951622E+00
  0.954090E+00  0.955560E+00  0.955093E+00  0.951891E+00  0.944999E+00  0.932065E+00
  0.908190E+00  0.865110E+00  0.790219E+00  0.695318E+00  0.625811E+00  0.625811E+00
  0.695318E+00  0.790219E+00  0.865110E+00  0.909209E+00  0.932065E+00  0.943552E+00
  0.949135E+00  0.951023E+00  0.950051E+00  0.947028E+00  0.942844E+00  0.937698E+00
  0.930951E+00  0.921888E+00  0.910262E+00  0.896349E+00  0.881245E+00  0.867526E+00
  0.859078E+00  0.859078E+00  0.867526E+00  0.881245E+00  0.896349E+00  0.910262E+00
  0.921888E+00  0.930951E+00  0.937698E+00  0.942844E+00  0.947028E+00  0.950051E+00
  0.951023E+00  0.949135E+00  0.943552E+00  0.932065E+00  0.909209E+00  0.865110E+00
  0.783885E+00  0.662403E+00  0.545248E+00  0.497572E+00  0.545248E+00  0.662403E+00
  0.783885E+00  0.865110E+00  0.908190E+00  0.929192E+00  0.939195E+00  0.943411E+00
  0.943725E+00  0.940938E+00  0.935958E+00  0.929550E+00  0.921634E+00  0.911660E+00
  0.899533E+00  0.885756E+00  0.871116E+00  0.857044E+00  0.846287E+00  0.842175E+00
  0.846287E+00  0.857044E+00  0.871116E+00  0.885756E+00  0.899533E+00  0.911660E+00
  0.921634E+00  0.929550E+00  0.935958E+00  0.940938E+00  0.943725E+00  0.943411E+00
  0.939195E+00  0.929192E+00  0.908190E+00  0.865110E+00  0.783885E+00  0.555030E+00
  0.340468E+00  0.224906E+00  0.224906E+00  0.340468E+00  0.555030E+00  0.752692E+00
  0.862387E+00  0.911146E+00  0.931873E+00  0.940576E+00  0.943411E+00  0.942229E+00
  0.937725E+00  0.930811E+00  0.922167E+00  0.911506E+00  0.898358E+00  0.883233E+00
  0.867364E+00  0.851943E+00  0.838692E+00  0.830641E+00  0.830641E+00  0.838692E+00
  0.851943E+00  0.867364E+00  0.883233E+00  0.898358E+00  0.911506E+00  0.922167E+00
  0.930811E+00  0.937725E+00  0.942229E+00  0.943411E+00  0.940576E+00  0.931873E+00
  0.911146E+00  0.862387E+00  0.752692E+00  0.555030E+00  0.340468E+00  0.184562E+00
  0.139598E+00  0.184562E+00  0.340468E+00  0.578953E+00  0.768275E+00  0.865091E+00
  0.907208E+00  0.924954E+00  0.931846E+00  0.932723E+00  0.928995E+00  0.921554E+00
  0.911506E+00  0.899170E+00  0.883940E+00  0.865971E+00  0.846985E+00  0.828875E+00
  0.812902E+00  0.801086E+00  0.796581E+00  0.801086E+00  0.812902E+00  0.828875E+00
  0.846985E+00  0.865971E+00  0.883940E+00  0.899170E+00  0.911506E+00  0.921554E+00
  0.928995E+00  0.932723E+00  0.931846E+00  0.924954E+00  0.907208E+00  0.865091E+00
  0.768275E+00  0.578953E+00  0.340468E+00  0.224906E+00  0.139598E+00  0.139598E+00
  0.224906E+00  0.416158E+00  0.642407E+00  0.794686E+00  0.869175E+00  0.901939E+00
  0.915596E+00  0.919719E+00  0.917460E+00  0.909914E+00  0.898358E+00  0.883940E+00
  0.866439E+00  0.845300E+00  0.821904E+00  0.799131E+00  0.778972E+00  0.762750E+00
  0.753143E+00  0.753143E+00  0.762750E+00  0.778972E+00  0.799131E+00  0.821904E+00
  0.845300E+00  0.866439E+00  0.883940E+00  0.898358E+00  0.909914E+00  0.917460E+00
  0.919719E+00  0.915596E+00  0.901939E+00  0.869175E+00  0.794686E+00  0.642407E+00
  0.416158E+00  0.224906E+00  0.224906E+00  0.184562E+00  0.224906E+00  0.354535E+00
  0.549610E+00  0.721424E+00  0.823267E+00  0.872933E+00  0.895165E+00  0.903537E+00
  0.903380E+00  0.896254E+00  0.883233E+00  0.865971E+00  0.845300E+00  0.820625E+00
  0.792375E+00  0.763623E+00  0.737684E+00  0.716076E+00  0.700629E+00  0.694809E+00
  0.700629E+00  0.716076E+00  0.737684E+00  0.763623E+00  0.792375E+00  0.820625E+00
  0.845300E+00  0.865971E+00  0.883233E+00  0.896254E+00  0.903380E+00  0.903537E+00
  0.895165E+00  0.872933E+00  0.823267E+00  0.721424E+00  0.549610E+00  0.354535E+00
  0.224906E+00  0.340468E+00  0.340468E+00  0.416158E+00  0.549610E+00  0.689240E+00
  0.789531E+00  0.846272E+00  0.874324E+00  0.886138E+00  0.887875E+00  0.881429E+00
  0.867364E+00  0.846985E+00  0.821904E+00  0.792375E+00  0.758404E+00  0.722610E+00
  0.689370E+00  0.661224E+00  0.639315E+00  0.626565E+00  0.626565E+00  0.639315E+00
  0.661224E+00  0.689370E+00  0.722610E+00  0.758404E+00  0.792375E+00  0.821904E+00
  0.846985E+00  0.867364E+00  0.881429E+00  0.887875E+00  0.886138E+00  0.874324E+00
  0.846272E+00  0.789531E+00  0.689240E+00  0.549610E+00  0.416158E+00  0.340468E+00
  0.555030E+00  0.578953E+00  0.642407E+00  0.721424E+00  0.789531E+00  0.835112E+00
  0.860515E+00  0.871918E+00  0.873600E+00  0.866972E+00  0.851943E+00  0.828875E+00
  0.799131E+00  0.763623E+00  0.722610E+00  0.678384E+00  0.636052E+00  0.599719E+00
  0.570593E+00  0.550355E+00  0.542854E+00  0.550355E+00  0.570593E+00  0.599719E+00
  0.636052E+00  0.678384E+00  0.722610E+00  0.763623E+00  0.799131E+00  0.828875E+00
  0.851943E+00  0.866972E+00  0.873600E+00  0.871918E+00  0.860515E+00  0.835112E+00
  0.789531E+00  0.721424E+00  0.642407E+00  0.578953E+00  0.555030E+00  0.752692E+00
  0.768275E+00  0.794686E+00  0.823267E+00  0.846272E+00  0.860515E+00  0.866314E+00
  0.864712E+00  0.855783E+00  0.838692E+00  0.812902E+00  0.778972E+00  0.737684E+00
  0.689370E+00  0.636052E+00  0.583241E+00  0.536835E+00  0.499257E+00  0.471310E+00
  0.455695E+00  0.455695E+00  0.471310E+00  0.499257E+00  0.536835E+00  0.583241E+00
  0.636052E+00  0.689370E+00  0.737684E+00  0.778972E+00  0.812902E+00  0.838692E+00
  0.855783E+00  0.864712E+00  0.866314E+00  0.860515E+00  0.846272E+00  0.823267E+00
  0.794686E+00  0.768275E+00  0.752692E+00  0.752692E+00  0.862387E+00  0.865091E+00
  0.869175E+00  0.872933E+00  0.874324E+00  0.871918E+00  0.864712E+00  0.851470E+00
  0.830641E+00  0.801086E+00  0.762750E+00  0.716076E+00  0.661224E+00  0.599719E+00
  0.536835E+00  0.479674E+00  0.432565E+00  0.396706E+00  0.373444E+00  0.365248E+00
  0.373444E+00  0.396706E+00  0.432565E+00  0.479674E+00  0.536835E+00  0.599719E+00
  0.661224E+00  0.716076E+00  0.762750E+00  0.801086E+00  0.830641E+00  0.851470E+00
  0.864712E+00  0.871918E+00  0.874324E+00  0.872933E+00  0.869175E+00  0.865091E+00
  0.862387E+00  0.861526E+00  0.862387E+00  0.911146E+00  0.907208E+00  0.901939E+00
  0.895165E+00  0.886138E+00  0.873600E+00  0.855783E+00  0.830641E+00  0.796581E+00
  0.753143E+00  0.700629E+00  0.639315E+00  0.570593E+00  0.499257E+00  0.432565E+00
  0.376120E+00  0.332334E+00  0.302226E+00  0.286794E+00  0.286794E+00  0.302226E+00
  0.332334E+00  0.376120E+00  0.432565E+00  0.499257E+00  0.570593E+00  0.639315E+00
  0.700629E+00  0.753143E+00  0.796581E+00  0.830641E+00  0.855783E+00  0.873600E+00
  0.886138E+00  0.895165E+00  0.901939E+00  0.907208E+00  0.911146E+00  0.913362E+00
  0.913362E+00  0.911146E+00  0.931873E+00  0.924954E+00  0.915596E+00  0.903537E+00
  0.887875E+00  0.866972E+00  0.838692E+00  0.801086E+00  0.753143E+00  0.694809E+00
  0.626565E+00  0.550355E+00  0.471310E+00  0.396706E+00  0.332334E+00  0.281231E+00
  0.244835E+00  0.223437E+00  0.216448E+00  0.223437E+00  0.244835E+00  0.281231E+00
  0.332334E+00  0.396706E+00  0.471310E+00  0.550355E+00  0.626565E+00  0.694809E+00
  0.753143E+00  0.801086E+00  0.838692E+00  0.866972E+00  0.887875E+00  0.903537E+00
  0.915596E+00  0.924954E+00  0.931873E+00  0.936207E+00  0.937692E+00  0.936207E+00
  0.931873E+00  0.940576E+00  0.931846E+00  0.919719E+00  0.903380E+00  0.881429E+00
  0.851943E+00  0.812902E+00  0.762750E+00  0.700629E+00  0.626565E+00  0.542854E+00
  0.455695E+00  0.373444E+00  0.302226E+00  0.244835E+00  0.202672E+00  0.175980E+00
  0.163427E+00  0.163427E+00  0.175980E+00  0.202672E+00  0.244835E+00  0.302226E+00
  0.373444E+00  0.455695E+00  0.542854E+00  0.626565E+00  0.700629E+00  0.762750E+00
  0.812902E+00  0.851943E+00  0.881429E+00  0.903380E+00  0.919719E+00  0.931846E+00
  0.940576E+00  0.946290E+00  0.949128E+00  0.949128E+00  0.946290E+00  0.940576E+00
  0.943411E+00  0.932723E+00  0.917460E+00  0.896254E+00  0.867364E+00  0.828875E+00
  0.778972E+00  0.716076E+00  0.639315E+00  0.550355E+00  0.455695E+00  0.365248E+00
  0.286794E+00  0.223437E+00  0.175980E+00  0.144346E+00  0.126977E+00  0.121557E+00
  0.126977E+00  0.144346E+00  0.175980E+00  0.223437E+00  0.286794E+00  0.365248E+00
  0.455695E+00  0.550355E+00  0.639315E+00  0.716076E+00  0.778972E+00  0.828875E+00
  0.867364E+00  0.896254E+00  0.917460E+00  0.932723E+00  0.943411E+00  0.950472E+00
  0.954499E+00  0.955808E+00  0.954499E+00  0.950472E+00  0.943411E+00  0.942229E+00
  0.928995E+00  0.909914E+00  0.883233E+00  0.846985E+00  0.799131E+00  0.737684E+00
  0.661224E+00  0.570593E+00  0.471310E+00  0.373444E+00  0.286794E+00  0.216448E+00
  0.163427E+00  0.126977E+00  0.105133E+00  0.951903E-01  0.951903E-01  0.105133E+00
  0.126977E+00  0.163427E+00  0.216448E+00  0.286794E+00  0.373444E+00  0.471310E+00
  0.570593E+00  0.661224E+00  0.737684E+00  0.799131E+00  0.846985E+00  0.883233E+00
  0.909914E+00  0.928995E+00  0.942229E+00  0.951023E+00  0.956378E+00  0.958910E+00
  0.958910E+00  0.956378E+00  0.951023E+00  0.942229E+00  0.937725E+00  0.921554E+00
  0.898358E+00  0.865971E+00  0.821904E+00  0.763623E+00  0.689370E+00  0.599719E+00
  0.499257E+00  0.396706E+00  0.302226E+00  0.223437E+00  0.163427E+00  0.121557E+00
  0.951903E-01  0.811002E-01  0.767236E-01  0.811002E-01  0.951903E-01  0.121557E+00
  0.163427E+00  0.223437E+00  0.302226E+00  0.396706E+00  0.499257E+00  0.599719E+00
  0.689370E+00  0.763623E+00  0.821904E+00  0.865971E+00  0.898358E+00  0.921554E+00
  0.937725E+00  0.948624E+00  0.955560E+00  0.959402E+00  0.960631E+00  0.959402E+00
  0.955560E+00  0.948624E+00  0.937725E+00  0.930811E+00  0.911506E+00  0.883940E+00
  0.845300E+00  0.792375E+00  0.722610E+00  0.636052E+00  0.536835E+00  0.432565E+00
  0.332334E+00  0.244835E+00  0.175980E+00  0.126977E+00  0.951903E-01  0.767236E-01
  0.683560E-01  0.683560E-01  0.767236E-01  0.951903E-01  0.126977E+00  0.175980E+00
  0.244835E+00  0.332334E+00  0.432565E+00  0.536835E+00  0.636052E+00  0.722610E+00
  0.792375E+00  0.845300E+00  0.883940E+00  0.911506E+00  0.930811E+00  0.944028E+00
  0.952738E+00  0.958011E+00  0.960498E+00  0.960498E+00  0.958011E+00  0.952738E+00
  0.944028E+00  0.930811E+00  0.922167E+00  0.899170E+00  0.866439E+00  0.820625E+00
  0.758404E+00  0.678384E+00  0.583241E+00  0.479674E+00  0.376120E+00  0.281231E+00
  0.202672E+00  0.144346E+00  0.105133E+00  0.811002E-01  0.683560E-01  0.643901E-01
  0.683560E-01  0.811002E-01  0.105133E+00  0.144346E+00  0.202672E+00  0.281231E+00
  0.376120E+00  0.479674E+00  0.583241E+00  0.678384E+00  0.758404E+00  0.820625E+00
  0.866439E+00  0.899170E+00  0.922167E+00  0.938075E+00  0.948802E+00  0.955656E+00
  0.959469E+00  0.960693E+00  0.959469E+00  0.955656E+00  0.948802E+00  0.938075E+00
  0.922167E+00  0.911506E+00  0.883940E+00  0.845300E+00  0.792375E+00  0.722610E+00
  0.636052E+00  0.536835E+00  0.432565E+00  0.332334E+00  0.244835E+00  0.175980E+00
  0.126977E+00  0.951903E-01  0.767236E-01  0.683560E-01  0.683560E-01  0.767236E-01
  0.951903E-01  0.126977E+00  0.175980E+00  0.244835E+00  0.332334E+00  0.432565E+00
  0.536835E+00  0.636052E+00  0.722610E+00  0.792375E+00  0.845300E+00  0.883940E+00
  0.911506E+00  0.930811E+00  0.944028E+00  0.952738E+00  0.958011E+00  0.960498E+00
  0.960498E+00  0.958011E+00  0.952738E+00  0.944028E+00  0.930811E+00  0.911506E+00
  0.898358E+00  0.865971E+00  0.821904E+00  0.763623E+00  0.689370E+00  0.599719E+00
  0.499257E+00  0.396706E+00  0.302226E+00  0.223437E+00  0.163427E+00  0.121557E+00
  0.951903E-01  0.811002E-01  0.767236E-01  0.811002E-01  0.951903E-01  0.121557E+00
  0.163427E+00  0.223437E+00  0.302226E+00  0.396706E+00  0.499257E+00  0.599719E+00
  0.689370E+00  0.763623E+00  0.821904E+00  0.865971E+00  0.898358E+00  0.921554E+00
  0.937725E+00  0.948624E+00  0.955560E+00  0.959402E+00  0.960631E+00  0.959402E+00
  0.955560E+00  0.948624E+00  0.937725E+00  0.921554E+00  0.898358E+00  0.883233E+00
  0.846985E+00  0.799131E+00  0.737684E+00  0.661224E+00  0.570593E+00  0.471310E+00
  0.373444E+00  0.286794E+00  0.216448E+00  0.163427E+00  0.126977E+00  0.105133E+00
  0.951903E-01  0.951903E-01  0.105133E+00  0.126977E+00  0.163427E+00  0.216448E+00
  0.286794E+00  0.373444E+00  0.471310E+00  0.570593E+00  0.661224E+00  0.737684E+00
  0.799131E+00  0.846985E+00  0.883233E+00  0.909914E+00  0.928995E+00  0.942229E+00
  0.951023E+00  0.956378E+00  0.958910E+00  0.958910E+00  0.956378E+00  0.951023E+00
  0.942229E+00  0.928995E+00  0.909914E+00  0.883233E+00  0.867364E+00  0.828875E+00
  0.778972E+00  0.716076E+00  0.639315E+00  0.550355E+00  0.455695E+00  0.365248E+00
  0.286794E+00  0.223437E+00  0.175980E+00  0.144346E+00  0.126977E+00  0.121557E+00
  0.126977E+00  0.144346E+00  0.175980E+00  0.223437E+00  0.286794E+00  0.365248E+00
  0.455695E+00  0.550355E+00  0.639315E+00  0.716076E+00  0.778972E+00  0.828875E+00
  0.867364E+00  0.896254E+00  0.917460E+00  0.932723E+00  0.943411E+00  0.950472E+00
  0.954499E+00  0.955808E+00  0.954499E+00  0.950472E+00  0.943411E+00  0.932723E+00
  0.917460E+00  0.896254E+00  0.867364E+00  0.851943E+00  0.812902E+00  0.762750E+00
  0.700629E+00  0.626565E+00  0.542854E+00  0.455695E+00  0.373444E+00  0.302226E+00
  0.244835E+00  0.202672E+00  0.175980E+00  0.163427E+00  0.163427E+00  0.175980E+00
  0.202672E+00  0.244835E+00  0.302226E+00  0.373444E+00  0.455695E+00  0.542854E+00
  0.626565E+00  0.700629E+00  0.762750E+00  0.812902E+00  0.851943E+00  0.881429E+00
  0.903380E+00  0.919719E+00  0.931846E+00  0.940576E+00  0.946290E+00  0.949128E+00
  0.949128E+00  0.946290E+00  0.940576E+00  0.931846E+00  0.919719E+00  0.903380E+00
  0.881429E+00  0.851943E+00  0.838692E+00  0.801086E+00  0.753143E+00  0.694809E+00
  0.626565E+00  0.550355E+00  0.471310E+00  0.396706E+00  0.332334E+00  0.281231E+00
  0.244835E+00  0.223437E+00  0.216448E+00  0.223437E+00  0.244835E+00  0.281231E+00
  0.332334E+00  0.396706E+00  0.471310E+00  0.550355E+00  0.626565E+00  0.694809E+00
  0.753143E+00  0.801086E+00  0.838692E+00  0.866972E+00  0.887875E+00  0.903537E+00
  0.915596E+00  0.924954E+00  0.931873E+00  0.936207E+00  0.937692E+00  0.936207E+00
  0.931873E+00  0.924954E+00  0.915596E+00  0.903537E+00  0.887875E+00  0.866972E+00
  0.838692E+00  0.830641E+00  0.796581E+00  0.753143E+00  0.700629E+00  0.639315E+00
  0.570593E+00  0.499257E+00  0.432565E+00  0.376120E+00  0.332334E+00  0.302226E+00
  0.286794E+00  0.286794E+00  0.302226E+00  0.332334E+00  0.376120E+00  0.432565E+00
  0.499257E+00  0.570593E+00  0.639315E+00  0.700629E+00  0.753143E+00  0.796581E+00
  0.830641E+00  0.855783E+00  0.873600E+00  0.886138E+00  0.895165E+00  0.901939E+00
  0.907208E+00  0.911146E+00  0.913362E+00  0.913362E+00  0.911146E+00  0.907208E+00
  0.901939E+00  0.895165E+00  0.886138E+00  0.873600E+00  0.855783E+00  0.830641E+00
  0.830641E+00  0.801086E+00  0.762750E+00  0.716076E+00  0.661224E+00  0.599719E+00
  0.536835E+00  0.479674E+00  0.432565E+00  0.396706E+00  0.373444E+00  0.365248E+00
  0.373444E+00  0.396706E+00  0.432565E+00  0.479674E+00  0.536835E+00  0.599719E+00
  0.661224E+00  0.716076E+00  0.762750E+00  0.801086E+00  0.830641E+00  0.851470E+00
  0.864712E+00  0.871918E+00  0.874324E+00  0.872933E+00  0.869175E+00  0.865091E+00
  0.862387E+00  0.861526E+00  0.862387E+00  0.865091E+00  0.869175E+00  0.872933E+00
  0.874324E+00  0.871918E+00  0.864712E+00  0.851470E+00  0.830641E+00  0.838692E+00
  0.812902E+00  0.778972E+00  0.737684E+00  0.689370E+00  0.636052E+00  0.583241E+00
  0.536835E+00  0.499257E+00  0.471310E+00  0.455695E+00  0.455695E+00  0.471310E+00
  0.499257E+00  0.536835E+00  0.583241E+00  0.636052E+00  0.689370E+00  0.737684E+00
  0.778972E+00  0.812902E+00  0.838692E+00  0.855783E+00  0.864712E+00  0.866314E+00
  0.860515E+00  0.846272E+00  0.823267E+00  0.794686E+00  0.768275E+00  0.752692E+00
  0.752692E+00  0.768275E+00  0.794686E+00  0.823267E+00  0.846272E+00  0.860515E+00
  0.866314E+00  0.864712E+00  0.855783E+00  0.838692E+00  0.851943E+00  0.828875E+00
  0.799131E+00  0.763623E+00  0.722610E+00  0.678384E+00  0.636052E+00  0.599719E+00
  0.570593E+00  0.550355E+00  0.542854E+00  0.550355E+00  0.570593E+00  0.599719E+00
  0.636052E+00  0.678384E+00  0.722610E+00  0.763623E+00  0.799131E+00  0.828875E+00
  0.851943E+00  0.866972E+00  0.873600E+00  0.871918E+00  0.860515E+00  0.835112E+00
  0.789531E+00  0.721424E+00  0.642407E+00  0.578953E+00  0.555030E+00  0.578953E+00
  0.642407E+00  0.721424E+00  0.789531E+00  0.835112E+00  0.860515E+00  0.871918E+00
  0.873600E+00  0.866972E+00  0.851943E+00  0.867364E+00  0.846985E+00  0.821904E+00
  0.792375E+00  0.758404E+00  0.722610E+00  0.689370E+00  0.661224E+00  0.639315E+00
  0.626565E+00  0.626565E+00  0.639315E+00  0.661224E+00  0.689370E+00  0.722610E+00
  0.758404E+00  0.792375E+00  0.821904E+00  0.846985E+00  0.867364E+00  0.881429E+00
  0.887875E+00  0.886138E+00  0.874324E+00  0.846272E+00  0.789531E+00  0.689240E+00
  0.549610E+00  0.416158E+00  0.340468E+00  0.340468E+00  0.416158E+00  0.549610E+00
  0.689240E+00  0.789531E+00  0.846272E+00  0.874324E+00  0.886138E+00  0.887875E+00
  0.881429E+00  0.867364E+00  0.883233E+00  0.865971E+00  0.845300E+00  0.820625E+00
  0.792375E+00  0.763623E+00  0.737684E+00  0.716076E+00  0.700629E+00  0.694809E+00
  0.700629E+00  0.716076E+00  0.737684E+00  0.763623E+00  0.792375E+00  0.820625E+00
  0.845300E+00  0.865971E+00  0.883233E+00  0.896254E+00  0.903380E+00  0.903537E+00
  0.895165E+00  0.872933E+00  0.823267E+00  0.721424E+00  0.549610E+00  0.354535E+00
  0.224906E+00  0.184562E+00  0.224906E+00  0.354535E+00  0.549610E+00  0.721424E+00
  0.823267E+00  0.872933E+00  0.895165E+00  0.903537E+00  0.903380E+00  0.896254E+00
  0.883233E+00  0.898358E+00  0.883940E+00  0.866439E+00  0.845300E+00  0.821904E+00
  0.799131E+00  0.778972E+00  0.762750E+00  0.753143E+00  0.753143E+00  0.762750E+00
  0.778972E+00  0.799131E+00  0.821904E+00  0.845300E+00  0.866439E+00  0.883940E+00
  0.898358E+00  0.909914E+00  0.917460E+00  0.919719E+00  0.915596E+00  0.901939E+00
  0.869175E+00  0.794686E+00  0.642407E+00  0.416158E+00  0.224906E+00  0.139598E+00
  0.139598E+00  0.224906E+00  0.416158E+00  0.642407E+00  0.794686E+00  0.869175E+00
  0.901939E+00  0.915596E+00  0.919719E+00  0.917460E+00  0.909914E+00  0.898358E+00
  0.911506E+00  0.899170E+00  0.883940E+00  0.865971E+00  0.846985E+00  0.828875E+00
  0.812902E+00  0.801086E+00  0.796581E+00  0.801086E+00  0.812902E+00  0.828875E+00
  0.846985E+00  0.865971E+00  0.883940E+00  0.899170E+00  0.911506E+00  0.921554E+00
  0.928995E+00  0.932723E+00  0.931846E+00  0.924954E+00  0.907208E+00  0.865091E+00
  0.768275E+00  0.578953E+00  0.340468E+00  0.184562E+00  0.139598E+00  0.184562E+00
  0.340468E+00  0.578953E+00  0.768275E+00  0.865091E+00  0.907208E+00  0.924954E+00
  0.931846E+00  0.932723E+00  0.928995E+00  0.921554E+00  0.911506E+00  0.922167E+00
  0.911506E+00  0.898358E+00  0.883233E+00  0.867364E+00  0.851943E+00  0.838692E+00
  0.830641E+00  0.830641E+00  0.838692E+00  0.851943E+00  0.867364E+00  0.883233E+00
  0.898358E+00  0.911506E+00  0.922167E+00  0.930811E+00  0.937725E+00  0.942229E+00
  0.943411E+00  0.940576E+00  0.931873E+00  0.911146E+00  0.862387E+00  0.752692E+00
  0.555030E+00  0.340468E+00  0.224906E+00  0.224906E+00  0.340468E+00  0.555030E+00
  0.752692E+00  0.862387E+00  0.911146E+00  0.931873E+00  0.940576E+00  0.943411E+00
  0.942229E+00  0.937725E+00  0.930811E+00  0.922167E+00  0.930811E+00  0.921554E+00
  0.909914E+00  0.896254E+00  0.881429E+00  0.866972E+00  0.855783E+00  0.851470E+00
  0.855783E+00  0.866972E+00  0.881429E+00  0.896254E+00  0.909914E+00  0.921554E+00
  0.930811E+00  0.938075E+00  0.944028E+00  0.948624E+00  0.951023E+00  0.950472E+00
  0.946290E+00  0.936207E+00  0.913362E+00  0.861526E+00  0.752692E+00  0.578953E+00
  0.416158E+00  0.354535E+00  0.416158E+00  0.578953E+00  0.752692E+00  0.861526E+00
  0.913362E+00  0.936207E+00  0.946290E+00  0.950472E+00  0.951023E+00  0.948624E+00
  0.944028E+00  0.938075E+00  0.930811E+00  0.937725E+00  0.928995E+00  0.917460E+00
  0.903380E+00  0.887875E+00  0.873600E+00  0.864712E+00  0.864712E+00  0.873600E+00
  0.887875E+00  0.903380E+00  0.917460E+00  0.928995E+00  0.937725E+00  0.944028E+00
  0.948802E+00  0.952738E+00  0.955560E+00  0.956378E+00  0.954499E+00  0.949128E+00
  0.937692E+00  0.913362E+00  0.862387E+00  0.768275E+00  0.642407E+00  0.549610E+00
  0.549610E+00  0.642407E+00  0.768275E+00  0.862387E+00  0.913362E+00  0.937692E+00
  0.949128E+00  0.954499E+00  0.956378E+00  0.955560E+00  0.952738E+00  0.948802E+00
  0.944028E+00  0.937725E+00  0.942229E+00  0.932723E+00  0.919719E+00  0.903537E+00
  0.886138E+00  0.871918E+00  0.866314E+00  0.871918E+00  0.886138E+00  0.903537E+00
  0.919719E+00  0.932723E+00  0.942229E+00  0.948624E+00  0.952738E+00  0.955656E+00
  0.958011E+00  0.959402E+00  0.958910E+00  0.955808E+00  0.949128E+00  0.936207E+00
  0.911146E+00  0.865091E+00  0.794686E+00  0.721424E+00  0.689240E+00  0.721424E+00
  0.794686E+00  0.865091E+00  0.911146E+00  0.936207E+00  0.949128E+00  0.955808E+00
  0.958910E+00  0.959402E+00  0.958011E+00  0.955656E+00  0.952738E+00  0.948624E+00
  0.942229E+00  0.943411E+00  0.931846E+00  0.915596E+00  0.895165E+00  0.874324E+00
  0.860515E+00  0.860515E+00  0.874324E+00  0.895165E+00  0.915596E+00  0.931846E+00
  0.943411E+00  0.951023E+00  0.955560E+00  0.958011E+00  0.959469E+00  0.960498E+00
  0.960631E+00  0.958910E+00  0.954499E+00  0.946290E+00  0.931873E+00  0.907208E+00
  0.869175E+00  0.823267E+00  0.789531E+00  0.789531E+00  0.823267E+00  0.869175E+00
  0.907208E+00  0.931873E+00  0.946290E+00  0.954499E+00  0.958910E+00  0.960631E+00
  0.960498E+00  0.959469E+00  0.958011E+00  0.955560E+00  0.951023E+00  0.943411E+00
  0.940576E+00  0.924954E+00  0.901939E+00  0.872933E+00  0.846272E+00  0.835112E+00
  0.846272E+00  0.872933E+00  0.901939E+00  0.924954E+00  0.940576E+00  0.950472E+00
  0.956378E+00  0.959402E+00  0.960498E+00  0.960693E+00  0.960498E+00  0.959402E+00
  0.956378E+00  0.950472E+00  0.940576E+00  0.924954E+00  0.901939E+00  0.872933E+00
  0.846272E+00  0.835112E+00  0.846272E+00  0.872933E+00  0.901939E+00  0.924954E+00
  0.940576E+00  0.950472E+00  0.956378E+00  0.959402E+00  0.960498E+00  0.960693E+00
  0.960498E+00  0.959402E+00  0.956378E+00  0.950472E+00  0.940576E+00  0.931873E+00
  0.907208E+00  0.869175E+00  0.823267E+00  0.789531E+00  0.789531E+00  0.823267E+00
  0.869175E+00  0.907208E+00  0.931873E+00  0.946290E+00  0.954499E+00  0.958910E+00
  0.960631E+00  0.960498E+00  0.959469E+00  0.958011E+00  0.955560E+00  0.951023E+00
  0.943411E+00  0.931846E+00  0.915596E+00  0.895165E+00  0.874324E+00  0.860515E+00
  0.860515E+00  0.874324E+00  0.895165E+00  0.915596E+00  0.931846E+00  0.943411E+00
  0.951023E+00  0.955560E+00  0.958011E+00  0.959469E+00  0.960498E+00  0.960631E+00
  0.958910E+00  0.954499E+00  0.946290E+00  0.931873E+00  0.911146E+00  0.865091E+00
  0.794686E+00  0.721424E+00  0.689240E+00  0.721424E+00  0.794686E+00  0.865091E+00
  0.911146E+00  0.936207E+00  0.949128E+00  0.955808E+00  0.958910E+00  0.959402E+00
  0.958011E+00  0.955656E+00  0.952738E+00  0.948624E+00  0.942229E+00  0.932723E+00
  0.919719E+00  0.903537E+00  0.886138E+00  0.871918E+00  0.866314E+00  0.871918E+00
  0.886138E+00  0.903537E+00  0.919719E+00  0.932723E+00  0.942229E+00  0.948624E+00
  0.952738E+00  0.955656E+00  0.958011E+00  0.959402E+00  0.958910E+00  0.955808E+00
  0.949128E+00  0.936207E+00  0.911146E+00  0.862387E+00  0.768275E+00  0.642407E+00
  0.549610E+00  0.549610E+00  0.642407E+00  0.768275E+00  0.862387E+00  0.913362E+00
  0.937692E+00  0.949128E+00  0.954499E+00  0.956378E+00  0.955560E+00  0.952738E+00
  0.948802E+00  0.944028E+00  0.937725E+00  0.928995E+00  0.917460E+00  0.903380E+00
  0.887875E+00  0.873600E+00  0.864712E+00  0.864712E+00  0.873600E+00  0.887875E+00
  0.903380E+00  0.917460E+00  0.928995E+00  0.937725E+00  0.944028E+00  0.948802E+00
  0.952738E+00  0.955560E+00  0.956378E+00  0.954499E+00  0.949128E+00  0.937692E+00
  0.913362E+00  0.862387E+00  0.752692E+00  0.578953E+00  0.416158E+00  0.354535E+00
  0.416158E+00  0.578953E+00  0.752692E+00  0.861526E+00  0.913362E+00  0.936207E+00
  0.946290E+00  0.950472E+00  0.951023E+00  0.948624E+00  0.944028E+00  0.938075E+00
  0.930811E+00  0.921554E+00  0.909914E+00  0.896254E+00  0.881429E+00  0.866972E+00
  0.855783E+00  0.851470E+00  0.855783E+00  0.866972E+00  0.881429E+00  0.896254E+00
  0.909914E+00  0.921554E+00  0.930811E+00  0.938075E+00  0.944028E+00  0.948624E+00
  0.951023E+00  0.950472E+00  0.946290E+00  0.936207E+00  0.913362E+00  0.861526E+00
  0.752692E+00  0.555030E+00  0.340468E+00  0.224906E+00  0.224906E+00  0.340468E+00
  0.555030E+00  0.752692E+00  0.862387E+00  0.911146E+00  0.931873E+00  0.940576E+00
  0.943411E+00  0.942229E+00  0.937725E+00  0.930811E+00  0.922167E+00  0.911506E+00
  0.898358E+00  0.883233E+00  0.867364E+00  0.851943E+00  0.838692E+00  0.830641E+00
  0.830641E+00  0.838692E+00  0.851943E+00  0.867364E+00  0.883233E+00  0.898358E+00
  0.911506E+00  0.922167E+00  0.930811E+00  0.937725E+00  0.942229E+00  0.943411E+00
  0.940576E+00  0.931873E+00  0.911146E+00  0.862387E+00  0.752692E+00  0.555030E+00
  0.184365E+00  0.628891E-01  0.383526E-01  0.628891E-01  0.184365E+00  0.463322E+00
  0.729812E+00  0.860868E+00  0.912156E+00  0.931873E+00  0.939195E+00  0.940551E+00
  0.937586E+00  0.930951E+00  0.921634E+00  0.910135E+00  0.895915E+00  0.878847E+00
  0.860388E+00  0.842470E+00  0.826500E+00  0.814591E+00  0.810027E+00  0.814591E+00
  0.826500E+00  0.842470E+00  0.860388E+00  0.878847E+00  0.895915E+00  0.910135E+00
  0.921634E+00  0.930951E+00  0.937586E+00  0.940551E+00  0.939195E+00  0.931873E+00
  0.912156E+00  0.860868E+00  0.729812E+00  0.463322E+00  0.184365E+00  0.628891E-01
  0.238653E-01  0.238653E-01  0.628891E-01  0.217618E+00  0.516324E+00  0.755109E+00
  0.864412E+00  0.907208E+00  0.923640E+00  0.928973E+00  0.927986E+00  0.921888E+00
  0.911660E+00  0.898465E+00  0.882324E+00  0.862563E+00  0.840153E+00  0.817871E+00
  0.797923E+00  0.781758E+00  0.772116E+00  0.772116E+00  0.781758E+00  0.797923E+00
  0.817871E+00  0.840153E+00  0.862563E+00  0.882324E+00  0.898465E+00  0.911660E+00
  0.921888E+00  0.927986E+00  0.928973E+00  0.923640E+00  0.907208E+00  0.864412E+00
  0.755109E+00  0.516324E+00  0.217618E+00  0.628891E-01  0.383526E-01  0.238653E-01
  0.383526E-01  0.113677E+00  0.326854E+00  0.609979E+00  0.789978E+00  0.869175E+00
  0.900993E+00  0.912918E+00  0.915058E+00  0.910262E+00  0.899533E+00  0.884327E+00
  0.865690E+00  0.843091E+00  0.816466E+00  0.788535E+00  0.762906E+00  0.741444E+00
  0.726014E+00  0.720167E+00  0.726014E+00  0.741444E+00  0.762906E+00  0.788535E+00
  0.816466E+00  0.843091E+00  0.865690E+00  0.884327E+00  0.899533E+00  0.910262E+00
  0.915058E+00  0.912918E+00  0.900993E+00  0.869175E+00  0.789978E+00  0.609979E+00
  0.326854E+00  0.113677E+00  0.383526E-01  0.628891E-01  0.628891E-01  0.113677E+00
  0.261004E+00  0.503559E+00  0.711533E+00  0.823267E+00  0.872810E+00  0.893062E+00
  0.899201E+00  0.896349E+00  0.885756E+00  0.868584E+00  0.846574E+00  0.820212E+00
  0.788979E+00  0.754705E+00  0.721908E+00  0.693853E+00  0.671936E+00  0.659087E+00
  0.659087E+00  0.671936E+00  0.693853E+00  0.721908E+00  0.754705E+00  0.788979E+00
  0.820212E+00  0.846574E+00  0.868584E+00  0.885756E+00  0.896349E+00  0.899201E+00
  0.893062E+00  0.872810E+00  0.823267E+00  0.711533E+00  0.503559E+00  0.261004E+00
  0.113677E+00  0.628891E-01  0.184365E+00  0.217618E+00  0.326854E+00  0.503559E+00
  0.676926E+00  0.789531E+00  0.847174E+00  0.873142E+00  0.882418E+00  0.881245E+00
  0.871116E+00  0.852525E+00  0.826949E+00  0.795758E+00  0.758897E+00  0.717435E+00
  0.676045E+00  0.639758E+00  0.610475E+00  0.589921E+00  0.582218E+00  0.589921E+00
  0.610475E+00  0.639758E+00  0.676045E+00  0.717435E+00  0.758897E+00  0.795758E+00
  0.826949E+00  0.852525E+00  0.871116E+00  0.881245E+00  0.882418E+00  0.873142E+00
  0.847174E+00  0.789531E+00  0.676926E+00  0.503559E+00  0.326854E+00  0.217618E+00
  0.184365E+00  0.463322E+00  0.516324E+00  0.609979E+00  0.711533E+00  0.789531E+00
  0.836505E+00  0.860108E+00  0.868905E+00  0.867526E+00  0.857044E+00  0.837206E+00
  0.808579E+00  0.772502E+00  0.729441E+00  0.680158E+00  0.629060E+00  0.582755E+00
  0.544784E+00  0.516110E+00  0.499732E+00  0.499732E+00  0.516110E+00  0.544784E+00
  0.582755E+00  0.629060E+00  0.680158E+00  0.729441E+00  0.772502E+00  0.808579E+00
  0.837206E+00  0.857044E+00  0.867526E+00  0.868905E+00  0.860108E+00  0.836505E+00
  0.789531E+00  0.711533E+00  0.609979E+00  0.516324E+00  0.463322E+00  0.463322E+00
  0.729812E+00  0.755109E+00  0.789978E+00  0.823267E+00  0.847174E+00  0.860108E+00
  0.863628E+00  0.859078E+00  0.846287E+00  0.824240E+00  0.792597E+00  0.752108E+00
  0.703281E+00  0.646636E+00  0.585990E+00  0.528830E+00  0.480923E+00  0.443801E+00
  0.418915E+00  0.409896E+00  0.418915E+00  0.443801E+00  0.480923E+00  0.528830E+00
  0.585990E+00  0.646636E+00  0.703281E+00  0.752108E+00  0.792597E+00  0.824240E+00
  0.846287E+00  0.859078E+00  0.863628E+00  0.860108E+00  0.847174E+00  0.823267E+00
  0.789978E+00  0.755109E+00  0.729812E+00  0.720928E+00  0.729812E+00  0.860868E+00
  0.864412E+00  0.869175E+00  0.872810E+00  0.873142E+00  0.868905E+00  0.859078E+00
  0.842175E+00  0.816460E+00  0.780953E+00  0.735872E+00  0.681606E+00  0.618521E+00
  0.549718E+00  0.482585E+00  0.424581E+00  0.378901E+00  0.346390E+00  0.328983E+00
  0.328983E+00  0.346390E+00  0.378901E+00  0.424581E+00  0.482585E+00  0.549718E+00
  0.618521E+00  0.681606E+00  0.735872E+00  0.780953E+00  0.816460E+00  0.842175E+00
  0.859078E+00  0.868905E+00  0.873142E+00  0.872810E+00  0.869175E+00  0.864412E+00
  0.860868E+00  0.859381E+00  0.859381E+00  0.860868E+00  0.912156E+00  0.907208E+00
  0.900993E+00  0.893062E+00  0.882418E+00  0.867526E+00  0.846287E+00  0.816460E+00
  0.776565E+00  0.726396E+00  0.666304E+00  0.596880E+00  0.521037E+00  0.445675E+00
  0.378727E+00  0.324864E+00  0.285526E+00  0.261358E+00  0.253167E+00  0.261358E+00
  0.285526E+00  0.324864E+00  0.378727E+00  0.445675E+00  0.521037E+00  0.596880E+00
  0.666304E+00  0.726396E+00  0.776565E+00  0.816460E+00  0.846287E+00  0.867526E+00
  0.882418E+00  0.893062E+00  0.900993E+00  0.907208E+00  0.912156E+00  0.915600E+00
  0.916871E+00  0.915600E+00  0.912156E+00  0.931873E+00  0.923640E+00  0.912918E+00
  0.899201E+00  0.881245E+00  0.857044E+00  0.824240E+00  0.780953E+00  0.726396E+00
  0.660614E+00  0.584524E+00  0.501643E+00  0.419092E+00  0.344747E+00  0.283667E+00
  0.237996E+00  0.208193E+00  0.193676E+00  0.193676E+00  0.208193E+00  0.237996E+00
  0.283667E+00  0.344747E+00  0.419092E+00  0.501643E+00  0.584524E+00  0.660614E+00
  0.726396E+00  0.780953E+00  0.824240E+00  0.857044E+00  0.881245E+00  0.899201E+00
  0.912918E+00  0.923640E+00  0.931873E+00  0.937604E+00  0.940579E+00  0.940579E+00
  0.937604E+00  0.931873E+00  0.939195E+00  0.928973E+00  0.915058E+00  0.896349E+00
  0.871116E+00  0.837206E+00  0.792597E+00  0.735872E+00  0.666304E+00  0.584524E+00
  0.494630E+00  0.404853E+00  0.323795E+00  0.256494E+00  0.205038E+00  0.170012E+00
  0.150368E+00  0.144150E+00  0.150368E+00  0.170012E+00  0.205038E+00  0.256494E+00
  0.323795E+00  0.404853E+00  0.494630E+00  0.584524E+00  0.666304E+00  0.735872E+00
  0.792597E+00  0.837206E+00  0.871116E+00  0.896349E+00  0.915058E+00  0.928973E+00
  0.939195E+00  0.946290E+00  0.950494E+00  0.951890E+00  0.950494E+00  0.946290E+00
  0.939195E+00  0.940551E+00  0.927986E+00  0.910262E+00  0.885756E+00  0.852525E+00
  0.808579E+00  0.752108E+00  0.681606E+00  0.596880E+00  0.501643E+00  0.404853E+00
  0.316720E+00  0.243278E+00  0.186427E+00  0.146428E+00  0.122110E+00  0.110986E+00
  0.110986E+00  0.122110E+00  0.146428E+00  0.186427E+00  0.243278E+00  0.316720E+00
  0.404853E+00  0.501643E+00  0.596880E+00  0.681606E+00  0.752108E+00  0.808579E+00
  0.852525E+00  0.885756E+00  0.910262E+00  0.927986E+00  0.940551E+00  0.949135E+00
  0.954499E+00  0.957082E+00  0.957082E+00  0.954499E+00  0.949135E+00  0.940551E+00
  0.937586E+00  0.921888E+00  0.899533E+00  0.868584E+00  0.826949E+00  0.772502E+00
  0.703281E+00  0.618521E+00  0.521037E+00  0.419092E+00  0.323795E+00  0.243278E+00
  0.180547E+00  0.135569E+00  0.106752E+00  0.913178E-01  0.865446E-01  0.913178E-01
  0.106752E+00  0.135569E+00  0.180547E+00  0.243278E+00  0.323795E+00  0.419092E+00
  0.521037E+00  0.618521E+00  0.703281E+00  0.772502E+00  0.826949E+00  0.868584E+00
  0.899533E+00  0.921888E+00  0.937586E+00  0.948250E+00  0.955093E+00  0.958910E+00
  0.960136E+00  0.958910E+00  0.955093E+00  0.948250E+00  0.937586E+00  0.930951E+00
  0.911660E+00  0.884327E+00  0.846574E+00  0.795758E+00  0.729441E+00  0.646636E+00
  0.549718E+00  0.445675E+00  0.344747E+00  0.256494E+00  0.186427E+00  0.135569E+00
  0.101967E+00  0.823387E-01  0.734825E-01  0.734825E-01  0.823387E-01  0.101967E+00
  0.135569E+00  0.186427E+00  0.256494E+00  0.344747E+00  0.445675E+00  0.549718E+00
  0.646636E+00  0.729441E+00  0.795758E+00  0.846574E+00  0.884327E+00  0.911660E+00
  0.930951E+00  0.944183E+00  0.952890E+00  0.958153E+00  0.960631E+00  0.960631E+00
  0.958153E+00  0.952890E+00  0.944183E+00  0.930951E+00  0.921634E+00  0.898465E+00
  0.865690E+00  0.820212E+00  0.758897E+00  0.680158E+00  0.585990E+00  0.482585E+00
  0.378727E+00  0.283667E+00  0.205038E+00  0.146428E+00  0.106752E+00  0.823387E-01
  0.694044E-01  0.653879E-01  0.694044E-01  0.823387E-01  0.106752E+00  0.146428E+00
  0.205038E+00  0.283667E+00  0.378727E+00  0.482585E+00  0.585990E+00  0.680158E+00
  0.758897E+00  0.820212E+00  0.865690E+00  0.898465E+00  0.921634E+00  0.937698E+00
  0.948525E+00  0.955432E+00  0.959268E+00  0.960498E+00  0.959268E+00  0.955432E+00
  0.948525E+00  0.937698E+00  0.921634E+00  0.910135E+00  0.882324E+00  0.843091E+00
  0.788979E+00  0.717435E+00  0.629060E+00  0.528830E+00  0.424581E+00  0.324864E+00
  0.237996E+00  0.170012E+00  0.122110E+00  0.913178E-01  0.734825E-01  0.653879E-01
  0.653879E-01  0.734825E-01  0.913178E-01  0.122110E+00  0.170012E+00  0.237996E+00
  0.324864E+00  0.424581E+00  0.528830E+00  0.629060E+00  0.717435E+00  0.788979E+00
  0.843091E+00  0.882324E+00  0.910135E+00  0.929550E+00  0.942844E+00  0.951622E+00
  0.956952E+00  0.959469E+00  0.959469E+00  0.956952E+00  0.951622E+00  0.942844E+00
  0.929550E+00  0.910135E+00  0.895915E+00  0.862563E+00  0.816466E+00  0.754705E+00
  0.676045E+00  0.582755E+00  0.480923E+00  0.378901E+00  0.285526E+00  0.208193E+00
  0.150368E+00  0.110986E+00  0.865446E-01  0.734825E-01  0.694044E-01  0.734825E-01
  0.865446E-01  0.110986E+00  0.150368E+00  0.208193E+00  0.285526E+00  0.378901E+00
  0.480923E+00  0.582755E+00  0.676045E+00  0.754705E+00  0.816466E+00  0.862563E+00
  0.895915E+00  0.919548E+00  0.935958E+00  0.947028E+00  0.954090E+00  0.958011E+00
  0.959268E+00  0.958011E+00  0.954090E+00  0.947028E+00  0.935958E+00  0.919548E+00
  0.895915E+00  0.878847E+00  0.840153E+00  0.788535E+00  0.721908E+00  0.639758E+00
  0.544784E+00  0.443801E+00  0.346390E+00  0.261358E+00  0.193676E+00  0.144150E+00
  0.110986E+00  0.913178E-01  0.823387E-01  0.823387E-01  0.913178E-01  0.110986E+00
  0.144150E+00  0.193676E+00  0.261358E+00  0.346390E+00  0.443801E+00  0.544784E+00
  0.639758E+00  0.721908E+00  0.788535E+00  0.840153E+00  0.878847E+00  0.907074E+00
  0.927124E+00  0.940938E+00  0.950051E+00  0.955560E+00  0.958153E+00  0.958153E+00
  0.955560E+00  0.950051E+00  0.940938E+00  0.927124E+00  0.907074E+00  0.878847E+00
  0.860388E+00  0.817871E+00  0.762906E+00  0.693853E+00  0.610475E+00  0.516110E+00
  0.418915E+00  0.328983E+00  0.253167E+00  0.193676E+00  0.150368E+00  0.122110E+00
  0.106752E+00  0.101967E+00  0.106752E+00  0.122110E+00  0.150368E+00  0.193676E+00
  0.253167E+00  0.328983E+00  0.418915E+00  0.516110E+00  0.610475E+00  0.693853E+00
  0.762906E+00  0.817871E+00  0.860388E+00  0.892386E+00  0.915783E+00  0.932379E+00
  0.943725E+00  0.951023E+00  0.955093E+00  0.956400E+00  0.955093E+00  0.951023E+00
  0.943725E+00  0.932379E+00  0.915783E+00  0.892386E+00  0.860388E+00  0.842470E+00
  0.797923E+00  0.741444E+00  0.671936E+00  0.589921E+00  0.499732E+00  0.409896E+00
  0.328983E+00  0.261358E+00  0.208193E+00  0.170012E+00  0.146428E+00  0.135569E+00
  0.135569E+00  0.146428E+00  0.170012E+00  0.208193E+00  0.261358E+00  0.328983E+00
  0.409896E+00  0.499732E+00  0.589921E+00  0.671936E+00  0.741444E+00  0.797923E+00
  0.842470E+00  0.876646E+00  0.902206E+00  0.920905E+00  0.934258E+00  0.943411E+00
  0.949135E+00  0.951891E+00  0.951891E+00  0.949135E+00  0.943411E+00  0.934258E+00
  0.920905E+00  0.902206E+00  0.876646E+00  0.842470E+00  0.826500E+00  0.781758E+00
  0.726014E+00  0.659087E+00  0.582218E+00  0.499732E+00  0.418915E+00  0.346390E+00
  0.285526E+00  0.237996E+00  0.205038E+00  0.186427E+00  0.180547E+00  0.186427E+00
  0.205038E+00  0.237996E+00  0.285526E+00  0.346390E+00  0.418915E+00  0.499732E+00
  0.582218E+00  0.659087E+00  0.726014E+00  0.781758E+00  0.826500E+00  0.861147E+00
  0.887273E+00  0.906756E+00  0.921238E+00  0.931846E+00  0.939195E+00  0.943552E+00
  0.944999E+00  0.943552E+00  0.939195E+00  0.931846E+00  0.921238E+00  0.906756E+00
  0.887273E+00  0.861147E+00  0.826500E+00  0.814591E+00  0.772116E+00  0.720167E+00
  0.659087E+00  0.589921E+00  0.516110E+00  0.443801E+00  0.378901E+00  0.324864E+00
  0.283667E+00  0.256494E+00  0.243278E+00  0.243278E+00  0.256494E+00  0.283667E+00
  0.324864E+00  0.378901E+00  0.443801E+00  0.516110E+00  0.589921E+00  0.659087E+00
  0.720167E+00  0.772116E+00  0.814591E+00  0.847717E+00  0.872592E+00  0.891056E+00
  0.904952E+00  0.915596E+00  0.923640E+00  0.929192E+00  0.932065E+00  0.932065E+00
  0.929192E+00  0.923640E+00  0.915596E+00  0.904952E+00  0.891056E+00  0.872592E+00
  0.847717E+00  0.814591E+00  0.810027E+00  0.772116E+00  0.726014E+00  0.671936E+00
  0.610475E+00  0.544784E+00  0.480923E+00  0.424581E+00  0.378727E+00  0.344747E+00
  0.323795E+00  0.316720E+00  0.323795E+00  0.344747E+00  0.378727E+00  0.424581E+00
  0.480923E+00  0.544784E+00  0.610475E+00  0.671936E+00  0.726014E+00  0.772116E+00
  0.810027E+00  0.839508E+00  0.861154E+00  0.876501E+00  0.887341E+00  0.895165E+00
  0.900993E+00  0.905338E+00  0.908190E+00  0.909209E+00  0.908190E+00  0.905338E+00
  0.900993E+00  0.895165E+00  0.887341E+00  0.876501E+00  0.861154E+00  0.839508E+00
  0.810027E+00  0.814591E+00  0.781758E+00  0.741444E+00  0.693853E+00  0.639758E+00
  0.582755E+00  0.528830E+00  0.482585E+00  0.445675E+00  0.419092E+00  0.404853E+00
  0.404853E+00  0.419092E+00  0.445675E+00  0.482585E+00  0.528830E+00  0.582755E+00
  0.639758E+00  0.693853E+00  0.741444E+00  0.781758E+00  0.814591E+00  0.839508E+00
  0.856728E+00  0.867388E+00  0.872873E+00  0.874324E+00  0.872810E+00  0.869747E+00
  0.866788E+00  0.865110E+00  0.865110E+00  0.866788E+00  0.869747E+00  0.872810E+00
  0.874324E+00  0.872873E+00  0.867388E+00  0.856728E+00  0.839508E+00  0.814591E+00
  0.826500E+00  0.797923E+00  0.762906E+00  0.721908E+00  0.676045E+00  0.629060E+00
  0.585990E+00  0.549718E+00  0.521037E+00  0.501643E+00  0.494630E+00  0.501643E+00
  0.521037E+00  0.549718E+00  0.585990E+00  0.629060E+00  0.676045E+00  0.721908E+00
  0.762906E+00  0.797923E+00  0.826500E+00  0.847717E+00  0.861154E+00  0.867388E+00
  0.867154E+00  0.860515E+00  0.847174E+00  0.828034E+00  0.806911E+00  0.790219E+00
  0.783885E+00  0.790219E+00  0.806911E+00  0.828034E+00  0.847174E+00  0.860515E+00
  0.867154E+00  0.867388E+00  0.861154E+00  0.847717E+00  0.826500E+00  0.842470E+00
  0.817871E+00  0.788535E+00  0.754705E+00  0.717435E+00  0.680158E+00  0.646636E+00
  0.618521E+00  0.596880E+00  0.584524E+00  0.584524E+00  0.596880E+00  0.618521E+00
  0.646636E+00  0.680158E+00  0.717435E+00  0.754705E+00  0.788535E+00  0.817871E+00
  0.842470E+00  0.861147E+00  0.872592E+00  0.876501E+00  0.872873E+00  0.860515E+00
  0.836505E+00  0.797963E+00  0.746892E+00  0.695318E+00  0.662403E+00  0.662403E+00
  0.695318E+00  0.746892E+00  0.797963E+00  0.836505E+00  0.860515E+00  0.872873E+00
  0.876501E+00  0.872592E+00  0.861147E+00  0.842470E+00  0.860388E+00  0.840153E+00
  0.816466E+00  0.788979E+00  0.758897E+00  0.729441E+00  0.703281E+00  0.681606E+00
  0.666304E+00  0.660614E+00  0.666304E+00  0.681606E+00  0.703281E+00  0.729441E+00
  0.758897E+00  0.788979E+00  0.816466E+00  0.840153E+00  0.860388E+00  0.876646E+00
  0.887273E+00  0.891056E+00  0.887341E+00  0.874324E+00  0.847174E+00  0.797963E+00
  0.720901E+00  0.625811E+00  0.545248E+00  0.513969E+00  0.545248E+00  0.625811E+00
  0.720901E+00  0.797963E+00  0.847174E+00  0.874324E+00  0.887341E+00  0.891056E+00
  0.887273E+00  0.876646E+00  0.860388E+00  0.878847E+00  0.862563E+00  0.843091E+00
  0.820212E+00  0.795758E+00  0.772502E+00  0.752108E+00  0.735872E+00  0.726396E+00
  0.726396E+00  0.735872E+00  0.752108E+00  0.772502E+00  0.795758E+00  0.820212E+00
  0.843091E+00  0.862563E+00  0.878847E+00  0.892386E+00  0.902206E+00  0.906756E+00
  0.904952E+00  0.895165E+00  0.872810E+00  0.828034E+00  0.746892E+00  0.625811E+00
  0.497572E+00  0.417858E+00  0.417858E+00  0.497572E+00  0.625811E+00  0.746892E+00
  0.828034E+00  0.872810E+00  0.895165E+00  0.904952E+00  0.906756E+00  0.902206E+00
  0.892386E+00  0.878847E+00  0.895915E+00  0.882324E+00  0.865690E+00  0.846574E+00
  0.826949E+00  0.808579E+00  0.792597E+00  0.780953E+00  0.776565E+00  0.780953E+00
  0.792597E+00  0.808579E+00  0.826949E+00  0.846574E+00  0.865690E+00  0.882324E+00
  0.895915E+00  0.907074E+00  0.915783E+00  0.920905E+00  0.921238E+00  0.915596E+00
  0.900993E+00  0.869747E+00  0.806911E+00  0.695318E+00  0.545248E+00  0.417858E+00
  0.370392E+00  0.417858E+00  0.545248E+00  0.695318E+00  0.806911E+00  0.869747E+00
  0.900993E+00  0.915596E+00  0.921238E+00  0.920905E+00  0.915783E+00  0.907074E+00
  0.895915E+00  0.910135E+00  0.898465E+00  0.884327E+00  0.868584E+00  0.852525E+00
  0.837206E+00  0.824240E+00  0.816460E+00  0.816460E+00  0.824240E+00  0.837206E+00
  0.852525E+00  0.868584E+00  0.884327E+00  0.898465E+00  0.910135E+00  0.919548E+00
  0.927124E+00  0.932379E+00  0.934258E+00  0.931846E+00  0.923640E+00  0.905338E+00
  0.866788E+00  0.790219E+00  0.662403E+00  0.513969E+00  0.417858E+00  0.417858E+00
  0.513969E+00  0.662403E+00  0.790219E+00  0.866788E+00  0.905338E+00  0.923640E+00
  0.931846E+00  0.934258E+00  0.932379E+00  0.927124E+00  0.919548E+00  0.910135E+00
  0.921634E+00  0.911660E+00  0.899533E+00  0.885756E+00  0.871116E+00  0.857044E+00
  0.846287E+00  0.842175E+00  0.846287E+00  0.857044E+00  0.871116E+00  0.885756E+00
  0.899533E+00  0.911660E+00  0.921634E+00  0.929550E+00  0.935958E+00  0.940938E+00
  0.943725E+00  0.943411E+00  0.939195E+00  0.929192E+00  0.908190E+00  0.865110E+00
  0.783885E+00  0.662403E+00  0.545248E+00  0.497572E+00  0.545248E+00  0.662403E+00
  0.783885E+00  0.865110E+00  0.908190E+00  0.929192E+00  0.939195E+00  0.943411E+00
  0.943725E+00  0.940938E+00  0.935958E+00  0.929550E+00  0.921634E+00  0.930951E+00
  0.921888E+00  0.910262E+00  0.896349E+00  0.881245E+00  0.867526E+00  0.859078E+00
  0.859078E+00  0.867526E+00  0.881245E+00  0.896349E+00  0.910262E+00  0.921888E+00
  0.930951E+00  0.937698E+00  0.942844E+00  0.947028E+00  0.950051E+00  0.951023E+00
  0.949135E+00  0.943552E+00  0.932065E+00  0.909209E+00  0.865110E+00  0.790219E+00
  0.695318E+00  0.625811E+00  0.625811E+00  0.695318E+00  0.790219E+00  0.865110E+00
  0.909209E+00  0.932065E+00  0.943552E+00  0.949135E+00  0.951023E+00  0.950051E+00
  0.947028E+00  0.942844E+00  0.937698E+00  0.930951E+00  0.937586E+00  0.927986E+00
  0.915058E+00  0.899201E+00  0.882418E+00  0.868905E+00  0.863628E+00  0.868905E+00
  0.882418E+00  0.899201E+00  0.915058E+00  0.927986E+00  0.937586E+00  0.944183E+00
  0.948525E+00  0.951622E+00  0.954090E+00  0.955560E+00  0.955093E+00  0.951891E+00
  0.944999E+00  0.932065E+00  0.908190E+00  0.866788E+00  0.806911E+00  0.746892E+00
  0.720901E+00  0.746892E+00  0.806911E+00  0.866788E+00  0.908190E+00  0.932065E+00
  0.944999E+00  0.951891E+00  0.955093E+00  0.955560E+00  0.954090E+00  0.951622E+00
  0.948525E+00  0.944183E+00  0.937586E+00  0.940551E+00  0.928973E+00  0.912918E+00
  0.893062E+00  0.873142E+00  0.860108E+00  0.860108E+00  0.873142E+00  0.893062E+00
  0.912918E+00  0.928973E+00  0.940551E+00  0.948250E+00  0.952890E+00  0.955432E+00
  0.956952E+00  0.958011E+00  0.958153E+00  0.956400E+00  0.951891E+00  0.943552E+00
  0.929192E+00  0.905338E+00  0.869747E+00  0.828034E+00  0.797963E+00  0.797963E+00
  0.828034E+00  0.869747E+00  0.905338E+00  0.929192E+00  0.943552E+00  0.951891E+00
  0.956400E+00  0.958153E+00  0.958011E+00  0.956952E+00  0.955432E+00  0.952890E+00
  0.948250E+00  0.940551E+00  0.939195E+00  0.923640E+00  0.900993E+00  0.872810E+00
  0.847174E+00  0.836505E+00  0.847174E+00  0.872810E+00  0.900993E+00  0.923640E+00
  0.939195E+00  0.949135E+00  0.955093E+00  0.958153E+00  0.959268E+00  0.959469E+00
  0.959268E+00  0.958153E+00  0.955093E+00  0.949135E+00  0.939195E+00  0.923640E+00
  0.900993E+00  0.872810E+00  0.847174E+00  0.836505E+00  0.847174E+00  0.872810E+00
  0.900993E+00  0.923640E+00  0.939195E+00  0.949135E+00  0.955093E+00  0.958153E+00
  0.959268E+00  0.959469E+00  0.959268E+00  0.958153E+00  0.955093E+00  0.949135E+00
  0.939195E+00  0.931873E+00  0.907208E+00  0.869175E+00  0.823267E+00  0.789531E+00
  0.789531E+00  0.823267E+00  0.869175E+00  0.907208E+00  0.931873E+00  0.946290E+00
  0.954499E+00  0.958910E+00  0.960631E+00  0.960498E+00  0.959469E+00  0.958011E+00
  0.955560E+00  0.951023E+00  0.943411E+00  0.931846E+00  0.915596E+00  0.895165E+00
  0.874324E+00  0.860515E+00  0.860515E+00  0.874324E+00  0.895165E+00  0.915596E+00
  0.931846E+00  0.943411E+00  0.951023E+00  0.955560E+00  0.958011E+00  0.959469E+00
  0.960498E+00  0.960631E+00  0.958910E+00  0.954499E+00  0.946290E+00  0.931873E+00
  0.912156E+00  0.864412E+00  0.789978E+00  0.711533E+00  0.676926E+00  0.711533E+00
  0.789978E+00  0.864412E+00  0.912156E+00  0.937604E+00  0.950494E+00  0.957082E+00
  0.960136E+00  0.960631E+00  0.959268E+00  0.956952E+00  0.954090E+00  0.950051E+00
  0.943725E+00  0.934258E+00  0.921238E+00  0.904952E+00  0.887341E+00  0.872873E+00
  0.867154E+00  0.872873E+00  0.887341E+00  0.904952E+00  0.921238E+00  0.934258E+00
  0.943725E+00  0.950051E+00  0.954090E+00  0.956952E+00  0.959268E+00  0.960631E+00
  0.960136E+00  0.957082E+00  0.950494E+00  0.937604E+00  0.912156E+00  0.860868E+00
  0.755109E+00  0.609979E+00  0.503559E+00  0.503559E+00  0.609979E+00  0.755109E+00
  0.860868E+00  0.915600E+00  0.940579E+00  0.951890E+00  0.957082E+00  0.958910E+00
  0.958153E+00  0.955432E+00  0.951622E+00  0.947028E+00  0.940938E+00  0.932379E+00
  0.920905E+00  0.906756E+00  0.891056E+00  0.876501E+00  0.867388E+00  0.867388E+00
  0.876501E+00  0.891056E+00  0.906756E+00  0.920905E+00  0.932379E+00  0.940938E+00
  0.947028E+00  0.951622E+00  0.955432E+00  0.958153E+00  0.958910E+00  0.957082E+00
  0.951890E+00  0.940579E+00  0.915600E+00  0.860868E+00  0.729812E+00  0.516324E+00
  0.326854E+00  0.261004E+00  0.326854E+00  0.516324E+00  0.729812E+00  0.859381E+00
  0.916871E+00  0.940579E+00  0.950494E+00  0.954499E+00  0.955093E+00  0.952890E+00
  0.948525E+00  0.942844E+00  0.935958E+00  0.927124E+00  0.915783E+00  0.902206E+00
  0.887273E+00  0.872592E+00  0.861154E+00  0.856728E+00  0.861154E+00  0.872592E+00
  0.887273E+00  0.902206E+00  0.915783E+00  0.927124E+00  0.935958E+00  0.942844E+00
  0.948525E+00  0.952890E+00  0.955093E+00  0.954499E+00  0.950494E+00  0.940579E+00
  0.916871E+00  0.859381E+00  0.729812E+00  0.463322E+00  0.217618E+00  0.113677E+00
  0.113677E+00  0.217618E+00  0.463322E+00  0.720928E+00  0.859381E+00  0.915600E+00
  0.937604E+00  0.946290E+00  0.949135E+00  0.948250E+00  0.944183E+00  0.937698E+00
  0.929550E+00  0.919548E+00  0.907074E+00  0.892386E+00  0.876646E+00  0.861147E+00
  0.847717E+00  0.839508E+00  0.839508E+00  0.847717E+00  0.861147E+00  0.876646E+00
  0.892386E+00  0.907074E+00  0.919548E+00  0.929550E+00  0.937698E+00  0.944183E+00
  0.948250E+00  0.949135E+00  0.946290E+00  0.937604E+00  0.915600E+00  0.859381E+00
  0.720928E+00  0.463322E+00  0.184365E+00  0.628891E-01  0.383526E-01  0.628891E-01
  0.184365E+00  0.463322E+00  0.729812E+00  0.860868E+00  0.912156E+00  0.931873E+00
  0.939195E+00  0.940551E+00  0.937586E+00  0.930951E+00  0.921634E+00  0.910135E+00
  0.895915E+00  0.878847E+00  0.860388E+00  0.842470E+00  0.826500E+00  0.814591E+00
  0.810027E+00  0.814591E+00  0.826500E+00  0.842470E+00  0.860388E+00  0.878847E+00
  0.895915E+00  0.910135E+00  0.921634E+00  0.930951E+00  0.937586E+00  0.940551E+00
  0.939195E+00  0.931873E+00  0.912156E+00  0.860868E+00  0.729812E+00  0.463322E+00
  0.184365E+00  0.162960E-01  0.320998E-02  0.320998E-02  0.162960E-01  0.111349E+00
  0.414598E+00  0.721640E+00  0.860868E+00  0.911146E+00  0.929192E+00  0.934999E+00
  0.934591E+00  0.929303E+00  0.919885E+00  0.907443E+00  0.892167E+00  0.873354E+00
  0.851685E+00  0.829785E+00  0.809983E+00  0.793862E+00  0.784218E+00  0.784218E+00
  0.793862E+00  0.809983E+00  0.829785E+00  0.851685E+00  0.873354E+00  0.892167E+00
  0.907443E+00  0.919885E+00  0.929303E+00  0.934591E+00  0.934999E+00  0.929192E+00
  0.911146E+00  0.860868E+00  0.721640E+00  0.414598E+00  0.111349E+00  0.162960E-01
  0.320998E-02  0.117003E-02  0.320998E-02  0.251451E-01  0.163247E+00  0.493675E+00
  0.755109E+00  0.865091E+00  0.905338E+00  0.919677E+00  0.923065E+00  0.919620E+00
  0.910350E+00  0.896472E+00  0.879131E+00  0.857951E+00  0.832599E+00  0.805428E+00
  0.780106E+00  0.758769E+00  0.743384E+00  0.737540E+00  0.743384E+00  0.758769E+00
  0.780106E+00  0.805428E+00  0.832599E+00  0.857951E+00  0.879131E+00  0.896472E+00
  0.910350E+00  0.919620E+00  0.923065E+00  0.919677E+00  0.905338E+00  0.865091E+00
  0.755109E+00  0.493675E+00  0.163247E+00  0.251451E-01  0.320998E-02  0.320998E-02
  0.320998E-02  0.123860E-01  0.728189E-01  0.296564E+00  0.609979E+00  0.794686E+00
  0.869747E+00  0.898084E+00  0.907438E+00  0.906902E+00  0.898654E+00  0.883720E+00
  0.863779E+00  0.839561E+00  0.810395E+00  0.777506E+00  0.745250E+00  0.717344E+00
  0.695483E+00  0.682634E+00  0.682634E+00  0.695483E+00  0.717344E+00  0.745250E+00
  0.777506E+00  0.810395E+00  0.839561E+00  0.863779E+00  0.883720E+00  0.898654E+00
  0.906902E+00  0.907438E+00  0.898084E+00  0.869747E+00  0.794686E+00  0.609979E+00
  0.296564E+00  0.728189E-01  0.123860E-01  0.320998E-02  0.162960E-01  0.251451E-01
  0.728189E-01  0.230579E+00  0.503559E+00  0.721424E+00  0.828034E+00  0.872146E+00
  0.888661E+00  0.891621E+00  0.885046E+00  0.869821E+00  0.847340E+00  0.819245E+00
  0.785531E+00  0.746479E+00  0.706145E+00  0.670036E+00  0.640735E+00  0.620109E+00
  0.612350E+00  0.620109E+00  0.640735E+00  0.670036E+00  0.706145E+00  0.746479E+00
  0.785531E+00  0.819245E+00  0.847340E+00  0.869821E+00  0.885046E+00  0.891621E+00
  0.888661E+00  0.872146E+00  0.828034E+00  0.721424E+00  0.503559E+00  0.230579E+00
  0.728189E-01  0.251451E-01  0.162960E-01  0.111349E+00  0.163247E+00  0.296564E+00
  0.503559E+00  0.689240E+00  0.797963E+00  0.849241E+00  0.870384E+00  0.875814E+00
  0.870561E+00  0.855442E+00  0.831057E+00  0.799032E+00  0.760179E+00  0.714537E+00
  0.665346E+00  0.619366E+00  0.581188E+00  0.552194E+00  0.535488E+00  0.535488E+00
  0.552194E+00  0.581188E+00  0.619366E+00  0.665346E+00  0.714537E+00  0.760179E+00
  0.799032E+00  0.831057E+00  0.855442E+00  0.870561E+00  0.875814E+00  0.870384E+00
  0.849241E+00  0.797963E+00  0.689240E+00  0.503559E+00  0.296564E+00  0.163247E+00
  0.111349E+00  0.111349E+00  0.414598E+00  0.493675E+00  0.609979E+00  0.721424E+00
  0.797963E+00  0.839865E+00  0.858699E+00  0.863373E+00  0.857663E+00  0.841911E+00
  0.815850E+00  0.780395E+00  0.736608E+00  0.684617E+00  0.626776E+00  0.570169E+00
  0.521752E+00  0.483824E+00  0.457975E+00  0.448466E+00  0.457975E+00  0.483824E+00
  0.521752E+00  0.570169E+00  0.626776E+00  0.684617E+00  0.736608E+00  0.780395E+00
  0.815850E+00  0.841911E+00  0.857663E+00  0.863373E+00  0.858699E+00  0.839865E+00
  0.797963E+00  0.721424E+00  0.609979E+00  0.493675E+00  0.414598E+00  0.388599E+00
  0.414598E+00  0.721640E+00  0.755109E+00  0.794686E+00  0.828034E+00  0.849241E+00
  0.858699E+00  0.858585E+00  0.849857E+00  0.831783E+00  0.803281E+00  0.764434E+00
  0.716074E+00  0.658420E+00  0.593101E+00  0.526663E+00  0.467733E+00  0.420642E+00
  0.386346E+00  0.367440E+00  0.367440E+00  0.386346E+00  0.420642E+00  0.467733E+00
  0.526663E+00  0.593101E+00  0.658420E+00  0.716074E+00  0.764434E+00  0.803281E+00
  0.831783E+00  0.849857E+00  0.858585E+00  0.858699E+00  0.849241E+00  0.828034E+00
  0.794686E+00  0.755109E+00  0.721640E+00  0.704060E+00  0.704060E+00  0.721640E+00
  0.860868E+00  0.865091E+00  0.869747E+00  0.872146E+00  0.870384E+00  0.863373E+00
  0.849857E+00  0.827966E+00  0.795912E+00  0.753104E+00  0.700005E+00  0.636936E+00
  0.565225E+00  0.490587E+00  0.422125E+00  0.366183E+00  0.324419E+00  0.297772E+00
  0.288456E+00  0.297772E+00  0.324419E+00  0.366183E+00  0.422125E+00  0.490587E+00
  0.565225E+00  0.636936E+00  0.700005E+00  0.753104E+00  0.795912E+00  0.827966E+00
  0.849857E+00  0.863373E+00  0.870384E+00  0.872146E+00  0.869747E+00  0.865091E+00
  0.860868E+00  0.858780E+00  0.858340E+00  0.858780E+00  0.860868E+00  0.911146E+00
  0.905338E+00  0.898084E+00  0.888661E+00  0.875814E+00  0.857663E+00  0.831783E+00
  0.795912E+00  0.748922E+00  0.690872E+00  0.622169E+00  0.544365E+00  0.462829E+00
  0.386391E+00  0.322397E+00  0.273790E+00  0.241029E+00  0.224427E+00  0.224427E+00
  0.241029E+00  0.273790E+00  0.322397E+00  0.386391E+00  0.462829E+00  0.544365E+00
  0.622169E+00  0.690872E+00  0.748922E+00  0.795912E+00  0.831783E+00  0.857663E+00
  0.875814E+00  0.888661E+00  0.898084E+00  0.905338E+00  0.911146E+00  0.915600E+00
  0.918146E+00  0.918146E+00  0.915600E+00  0.911146E+00  0.929192E+00  0.919677E+00
  0.907438E+00  0.891621E+00  0.870561E+00  0.841911E+00  0.803281E+00  0.753104E+00
  0.690872E+00  0.616815E+00  0.532914E+00  0.444999E+00  0.361893E+00  0.291019E+00
  0.236029E+00  0.197805E+00  0.175696E+00  0.168522E+00  0.175696E+00  0.197805E+00
  0.236029E+00  0.291019E+00  0.361893E+00  0.444999E+00  0.532914E+00  0.616815E+00
  0.690872E+00  0.753104E+00  0.803281E+00  0.841911E+00  0.870561E+00  0.891621E+00
  0.907438E+00  0.919677E+00  0.929192E+00  0.936207E+00  0.940579E+00  0.942073E+00
  0.940579E+00  0.936207E+00  0.929192E+00  0.934999E+00  0.923065E+00  0.906902E+00
  0.885046E+00  0.855442E+00  0.815850E+00  0.764434E+00  0.700005E+00  0.622169E+00
  0.532914E+00  0.438824E+00  0.349566E+00  0.272786E+00  0.212083E+00  0.168606E+00
  0.141671E+00  0.129151E+00  0.129151E+00  0.141671E+00  0.168606E+00  0.212083E+00
  0.272786E+00  0.349566E+00  0.438824E+00  0.532914E+00  0.622169E+00  0.700005E+00
  0.764434E+00  0.815850E+00  0.855442E+00  0.885046E+00  0.906902E+00  0.923065E+00
  0.934999E+00  0.943552E+00  0.949128E+00  0.951890E+00  0.951890E+00  0.949128E+00
  0.943552E+00  0.934999E+00  0.934591E+00  0.919620E+00  0.898654E+00  0.869821E+00
  0.831057E+00  0.780395E+00  0.716074E+00  0.636936E+00  0.544365E+00  0.444999E+00
  0.349566E+00  0.266935E+00  0.200956E+00  0.152530E+00  0.120985E+00  0.103967E+00
  0.986993E-01  0.103967E+00  0.120985E+00  0.152530E+00  0.200956E+00  0.266935E+00
  0.349566E+00  0.444999E+00  0.544365E+00  0.636936E+00  0.716074E+00  0.780395E+00
  0.831057E+00  0.869821E+00  0.898654E+00  0.919620E+00  0.934591E+00  0.945019E+00
  0.951891E+00  0.955808E+00  0.957082E+00  0.955808E+00  0.951891E+00  0.945019E+00
  0.934591E+00  0.929303E+00  0.910350E+00  0.883720E+00  0.847340E+00  0.799032E+00
  0.736608E+00  0.658420E+00  0.565225E+00  0.462829E+00  0.361893E+00  0.272786E+00
  0.200956E+00  0.147535E+00  0.111490E+00  0.902865E-01  0.807574E-01  0.807574E-01
  0.902865E-01  0.111490E+00  0.147535E+00  0.200956E+00  0.272786E+00  0.361893E+00
  0.462829E+00  0.565225E+00  0.658420E+00  0.736608E+00  0.799032E+00  0.847340E+00
  0.883720E+00  0.910350E+00  0.929303E+00  0.942406E+00  0.951102E+00  0.956400E+00
  0.958910E+00  0.958910E+00  0.956400E+00  0.951102E+00  0.942406E+00  0.929303E+00
  0.919885E+00  0.896472E+00  0.863779E+00  0.819245E+00  0.760179E+00  0.684617E+00
  0.593101E+00  0.490587E+00  0.386391E+00  0.291019E+00  0.212083E+00  0.152530E+00
  0.111490E+00  0.859928E-01  0.725193E-01  0.683597E-01  0.725193E-01  0.859928E-01
  0.111490E+00  0.152530E+00  0.212083E+00  0.291019E+00  0.386391E+00  0.490587E+00
  0.593101E+00  0.684617E+00  0.760179E+00  0.819245E+00  0.863779E+00  0.896472E+00
  0.919885E+00  0.936214E+00  0.947233E+00  0.954256E+00  0.958153E+00  0.959402E+00
  0.958153E+00  0.954256E+00  0.947233E+00  0.936214E+00  0.919885E+00  0.907443E+00
  0.879131E+00  0.839561E+00  0.785531E+00  0.714537E+00  0.626776E+00  0.526663E+00
  0.422125E+00  0.322397E+00  0.236029E+00  0.168606E+00  0.120985E+00  0.902865E-01
  0.725193E-01  0.644806E-01  0.644806E-01  0.725193E-01  0.902865E-01  0.120985E+00
  0.168606E+00  0.236029E+00  0.322397E+00  0.422125E+00  0.526663E+00  0.626776E+00
  0.714537E+00  0.785531E+00  0.839561E+00  0.879131E+00  0.907443E+00  0.927322E+00
  0.940962E+00  0.949969E+00  0.955432E+00  0.958011E+00  0.958011E+00  0.955432E+00
  0.949969E+00  0.940962E+00  0.927322E+00  0.907443E+00  0.892167E+00  0.857951E+00
  0.810395E+00  0.746479E+00  0.665346E+00  0.570169E+00  0.467733E+00  0.366183E+00
  0.273790E+00  0.197805E+00  0.141671E+00  0.103967E+00  0.807574E-01  0.683597E-01
  0.644806E-01  0.683597E-01  0.807574E-01  0.103967E+00  0.141671E+00  0.197805E+00
  0.273790E+00  0.366183E+00  0.467733E+00  0.570169E+00  0.665346E+00  0.746479E+00
  0.810395E+00  0.857951E+00  0.892167E+00  0.916312E+00  0.933061E+00  0.944378E+00
  0.951622E+00  0.955656E+00  0.956952E+00  0.955656E+00  0.951622E+00  0.944378E+00
  0.933061E+00  0.916312E+00  0.892167E+00  0.873354E+00  0.832599E+00  0.777506E+00
  0.706145E+00  0.619366E+00  0.521752E+00  0.420642E+00  0.324419E+00  0.241029E+00
  0.175696E+00  0.129151E+00  0.986993E-01  0.807574E-01  0.725193E-01  0.725193E-01
  0.807574E-01  0.986993E-01  0.129151E+00  0.175696E+00  0.241029E+00  0.324419E+00
  0.420642E+00  0.521752E+00  0.619366E+00  0.706145E+00  0.777506E+00  0.832599E+00
  0.873354E+00  0.902697E+00  0.923383E+00  0.937617E+00  0.947028E+00  0.952738E+00
  0.955432E+00  0.955432E+00  0.952738E+00  0.947028E+00  0.937617E+00  0.923383E+00
  0.902697E+00  0.873354E+00  0.851685E+00  0.805428E+00  0.745250E+00  0.670036E+00
  0.581188E+00  0.483824E+00  0.386346E+00  0.297772E+00  0.224427E+00  0.168522E+00
  0.129151E+00  0.103967E+00  0.902865E-01  0.859928E-01  0.902865E-01  0.103967E+00
  0.129151E+00  0.168522E+00  0.224427E+00  0.297772E+00  0.386346E+00  0.483824E+00
  0.581188E+00  0.670036E+00  0.745250E+00  0.805428E+00  0.851685E+00  0.886192E+00
  0.911247E+00  0.928921E+00  0.940938E+00  0.948624E+00  0.952890E+00  0.954256E+00
  0.952890E+00  0.948624E+00  0.940938E+00  0.928921E+00  0.911247E+00  0.886192E+00
  0.851685E+00  0.829785E+00  0.780106E+00  0.717344E+00  0.640735E+00  0.552194E+00
  0.457975E+00  0.367440E+00  0.288456E+00  0.224427E+00  0.175696E+00  0.141671E+00
  0.120985E+00  0.111490E+00  0.111490E+00  0.120985E+00  0.141671E+00  0.175696E+00
  0.224427E+00  0.288456E+00  0.367440E+00  0.457975E+00  0.552194E+00  0.640735E+00
  0.717344E+00  0.780106E+00  0.829785E+00  0.868069E+00  0.896781E+00  0.917681E+00
  0.932379E+00  0.942229E+00  0.948250E+00  0.951102E+00  0.951102E+00  0.948250E+00
  0.942229E+00  0.932379E+00  0.917681E+00  0.896781E+00  0.868069E+00  0.829785E+00
  0.809983E+00  0.758769E+00  0.695483E+00  0.620109E+00  0.535488E+00  0.448466E+00
  0.367440E+00  0.297772E+00  0.241029E+00  0.197805E+00  0.168606E+00  0.152530E+00
  0.147535E+00  0.152530E+00  0.168606E+00  0.197805E+00  0.241029E+00  0.297772E+00
  0.367440E+00  0.448466E+00  0.535488E+00  0.620109E+00  0.695483E+00  0.758769E+00
  0.809983E+00  0.850264E+00  0.881105E+00  0.904133E+00  0.920905E+00  0.932723E+00
  0.940551E+00  0.945019E+00  0.946471E+00  0.945019E+00  0.940551E+00  0.932723E+00
  0.920905E+00  0.904133E+00  0.881105E+00  0.850264E+00  0.809983E+00  0.793862E+00
  0.743384E+00  0.682634E+00  0.612350E+00  0.535488E+00  0.457975E+00  0.386346E+00
  0.324419E+00  0.273790E+00  0.236029E+00  0.212083E+00  0.200956E+00  0.200956E+00
  0.212083E+00  0.236029E+00  0.273790E+00  0.324419E+00  0.386346E+00  0.457975E+00
  0.535488E+00  0.612350E+00  0.682634E+00  0.743384E+00  0.793862E+00  0.834291E+00
  0.865564E+00  0.889167E+00  0.906756E+00  0.919719E+00  0.928973E+00  0.934999E+00
  0.937986E+00  0.937986E+00  0.934999E+00  0.928973E+00  0.919719E+00  0.906756E+00
  0.889167E+00  0.865564E+00  0.834291E+00  0.793862E+00  0.784218E+00  0.737540E+00
  0.682634E+00  0.620109E+00  0.552194E+00  0.483824E+00  0.420642E+00  0.366183E+00
  0.322397E+00  0.291019E+00  0.272786E+00  0.266935E+00  0.272786E+00  0.291019E+00
  0.322397E+00  0.366183E+00  0.420642E+00  0.483824E+00  0.552194E+00  0.620109E+00
  0.682634E+00  0.737540E+00  0.784218E+00  0.822339E+00  0.852050E+00  0.874411E+00
  0.891056E+00  0.903537E+00  0.912918E+00  0.919677E+00  0.923845E+00  0.925265E+00
  0.923845E+00  0.919677E+00  0.912918E+00  0.903537E+00  0.891056E+00  0.874411E+00
  0.852050E+00  0.822339E+00  0.784218E+00  0.784218E+00  0.743384E+00  0.695483E+00
  0.640735E+00  0.581188E+00  0.521752E+00  0.467733E+00  0.422125E+00  0.386391E+00
  0.361893E+00  0.349566E+00  0.349566E+00  0.361893E+00  0.386391E+00  0.422125E+00
  0.467733E+00  0.521752E+00  0.581188E+00  0.640735E+00  0.695483E+00  0.743384E+00
  0.784218E+00  0.817749E+00  0.843770E+00  0.862894E+00  0.876501E+00  0.886138E+00
  0.893062E+00  0.898084E+00  0.901539E+00  0.903361E+00  0.903361E+00  0.901539E+00
  0.898084E+00  0.893062E+00  0.886138E+00  0.876501E+00  0.862894E+00  0.843770E+00
  0.817749E+00  0.784218E+00  0.793862E+00  0.758769E+00  0.717344E+00  0.670036E+00
  0.619366E+00  0.570169E+00  0.526663E+00  0.490587E+00  0.462829E+00  0.444999E+00
  0.438824E+00  0.444999E+00  0.462829E+00  0.490587E+00  0.526663E+00  0.570169E+00
  0.619366E+00  0.670036E+00  0.717344E+00  0.758769E+00  0.793862E+00  0.822339E+00
  0.843770E+00  0.858431E+00  0.867388E+00  0.871918E+00  0.873142E+00  0.872146E+00
  0.870177E+00  0.868461E+00  0.867806E+00  0.868461E+00  0.870177E+00  0.872146E+00
  0.873142E+00  0.871918E+00  0.867388E+00  0.858431E+00  0.843770E+00  0.822339E+00
  0.793862E+00  0.809983E+00  0.780106E+00  0.745250E+00  0.706145E+00  0.665346E+00
  0.626776E+00  0.593101E+00  0.565225E+00  0.544365E+00  0.532914E+00  0.532914E+00
  0.544365E+00  0.565225E+00  0.593101E+00  0.626776E+00  0.665346E+00  0.706145E+00
  0.745250E+00  0.780106E+00  0.809983E+00  0.834291E+00  0.852050E+00  0.862894E+00
  0.867388E+00  0.866314E+00  0.860108E+00  0.849241E+00  0.835344E+00  0.821954E+00
  0.813633E+00  0.813633E+00  0.821954E+00  0.835344E+00  0.849241E+00  0.860108E+00
  0.866314E+00  0.867388E+00  0.862894E+00  0.852050E+00  0.834291E+00  0.809983E+00
  0.829785E+00  0.805428E+00  0.777506E+00  0.746479E+00  0.714537E+00  0.684617E+00
  0.658420E+00  0.636936E+00  0.622169E+00  0.616815E+00  0.622169E+00  0.636936E+00
  0.658420E+00  0.684617E+00  0.714537E+00  0.746479E+00  0.777506E+00  0.805428E+00
  0.829785E+00  0.850264E+00  0.865564E+00  0.874411E+00  0.876501E+00  0.871918E+00
  0.860108E+00  0.839865E+00  0.811116E+00  0.777995E+00  0.750279E+00  0.739332E+00
  0.750279E+00  0.777995E+00  0.811116E+00  0.839865E+00  0.860108E+00  0.871918E+00
  0.876501E+00  0.874411E+00  0.865564E+00  0.850264E+00  0.829785E+00  0.851685E+00
  0.832599E+00  0.810395E+00  0.785531E+00  0.760179E+00  0.736608E+00  0.716074E+00
  0.700005E+00  0.690872E+00  0.690872E+00  0.700005E+00  0.716074E+00  0.736608E+00
  0.760179E+00  0.785531E+00  0.810395E+00  0.832599E+00  0.851685E+00  0.868069E+00
  0.881105E+00  0.889167E+00  0.891056E+00  0.886138E+00  0.873142E+00  0.849241E+00
  0.811116E+00  0.759459E+00  0.705363E+00  0.669685E+00  0.669685E+00  0.705363E+00
  0.759459E+00  0.811116E+00  0.849241E+00  0.873142E+00  0.886138E+00  0.891056E+00
  0.889167E+00  0.881105E+00  0.868069E+00  0.851685E+00  0.873354E+00  0.857951E+00
  0.839561E+00  0.819245E+00  0.799032E+00  0.780395E+00  0.764434E+00  0.753104E+00
  0.748922E+00  0.753104E+00  0.764434E+00  0.780395E+00  0.799032E+00  0.819245E+00
  0.839561E+00  0.857951E+00  0.873354E+00  0.886192E+00  0.896781E+00  0.904133E+00
  0.906756E+00  0.903537E+00  0.893062E+00  0.872146E+00  0.835344E+00  0.777995E+00
  0.705363E+00  0.640803E+00  0.614737E+00  0.640803E+00  0.705363E+00  0.777995E+00
  0.835344E+00  0.872146E+00  0.893062E+00  0.903537E+00  0.906756E+00  0.904133E+00
  0.896781E+00  0.886192E+00  0.873354E+00  0.892167E+00  0.879131E+00  0.863779E+00
  0.847340E+00  0.831057E+00  0.815850E+00  0.803281E+00  0.795912E+00  0.795912E+00
  0.803281E+00  0.815850E+00  0.831057E+00  0.847340E+00  0.863779E+00  0.879131E+00
  0.892167E+00  0.902697E+00  0.911247E+00  0.917681E+00  0.920905E+00  0.919719E+00
  0.912918E+00  0.898084E+00  0.870177E+00  0.821954E+00  0.750279E+00  0.669685E+00
  0.614737E+00  0.614737E+00  0.669685E+00  0.750279E+00  0.821954E+00  0.870177E+00
  0.898084E+00  0.912918E+00  0.919719E+00  0.920905E+00  0.917681E+00  0.911247E+00
  0.902697E+00  0.892167E+00  0.907443E+00  0.896472E+00  0.883720E+00  0.869821E+00
  0.855442E+00  0.841911E+00  0.831783E+00  0.827966E+00  0.831783E+00  0.841911E+00
  0.855442E+00  0.869821E+00  0.883720E+00  0.896472E+00  0.907443E+00  0.916312E+00
  0.923383E+00  0.928921E+00  0.932379E+00  0.932723E+00  0.928973E+00  0.919677E+00
  0.901539E+00  0.868461E+00  0.813633E+00  0.739332E+00  0.669685E+00  0.640803E+00
  0.669685E+00  0.739332E+00  0.813633E+00  0.868461E+00  0.901539E+00  0.919677E+00
  0.928973E+00  0.932723E+00  0.932379E+00  0.928921E+00  0.923383E+00  0.916312E+00
  0.907443E+00  0.919885E+00  0.910350E+00  0.898654E+00  0.885046E+00  0.870561E+00
  0.857663E+00  0.849857E+00  0.849857E+00  0.857663E+00  0.870561E+00  0.885046E+00
  0.898654E+00  0.910350E+00  0.919885E+00  0.927322E+00  0.933061E+00  0.937617E+00
  0.940938E+00  0.942229E+00  0.940551E+00  0.934999E+00  0.923845E+00  0.903361E+00
  0.867806E+00  0.813633E+00  0.750279E+00  0.705363E+00  0.705363E+00  0.750279E+00
  0.813633E+00  0.867806E+00  0.903361E+00  0.923845E+00  0.934999E+00  0.940551E+00
  0.942229E+00  0.940938E+00  0.937617E+00  0.933061E+00  0.927322E+00  0.919885E+00
  0.929303E+00  0.919620E+00  0.906902E+00  0.891621E+00  0.875814E+00  0.863373E+00
  0.858585E+00  0.863373E+00  0.875814E+00  0.891621E+00  0.906902E+00  0.919620E+00
  0.929303E+00  0.936214E+00  0.940962E+00  0.944378E+00  0.947028E+00  0.948624E+00
  0.948250E+00  0.945019E+00  0.937986E+00  0.925265E+00  0.903361E+00  0.868461E+00
  0.821954E+00  0.777995E+00  0.759459E+00  0.777995E+00  0.821954E+00  0.868461E+00
  0.903361E+00  0.925265E+00  0.937986E+00  0.945019E+00  0.948250E+00  0.948624E+00
  0.947028E+00  0.944378E+00  0.940962E+00  0.936214E+00  0.929303E+00  0.934591E+00
  0.923065E+00  0.907438E+00  0.888661E+00  0.870384E+00  0.858699E+00  0.858699E+00
  0.870384E+00  0.888661E+00  0.907438E+00  0.923065E+00  0.934591E+00  0.942406E+00
  0.947233E+00  0.949969E+00  0.951622E+00  0.952738E+00  0.952890E+00  0.951102E+00
  0.946471E+00  0.937986E+00  0.923845E+00  0.901539E+00  0.870177E+00  0.835344E+00
  0.811116E+00  0.811116E+00  0.835344E+00  0.870177E+00  0.901539E+00  0.923845E+00
  0.937986E+00  0.946471E+00  0.951102E+00  0.952890E+00  0.952738E+00  0.951622E+00
  0.949969E+00  0.947233E+00  0.942406E+00  0.934591E+00  0.934999E+00  0.919677E+00
  0.898084E+00  0.872146E+00  0.849241E+00  0.839865E+00  0.849241E+00  0.872146E+00
  0.898084E+00  0.919677E+00  0.934999E+00  0.945019E+00  0.951102E+00  0.954256E+00
  0.955432E+00  0.955656E+00  0.955432E+00  0.954256E+00  0.951102E+00  0.945019E+00
  0.934999E+00  0.919677E+00  0.898084E+00  0.872146E+00  0.849241E+00  0.839865E+00
  0.849241E+00  0.872146E+00  0.898084E+00  0.919677E+00  0.934999E+00  0.945019E+00
  0.951102E+00  0.954256E+00  0.955432E+00  0.955656E+00  0.955432E+00  0.954256E+00
  0.951102E+00  0.945019E+00  0.934999E+00  0.929192E+00  0.905338E+00  0.869747E+00
  0.828034E+00  0.797963E+00  0.797963E+00  0.828034E+00  0.869747E+00  0.905338E+00
  0.929192E+00  0.943552E+00  0.951891E+00  0.956400E+00  0.958153E+00  0.958011E+00
  0.956952E+00  0.955432E+00  0.952890E+00  0.948250E+00  0.940551E+00  0.928973E+00
  0.912918E+00  0.893062E+00  0.873142E+00  0.860108E+00  0.860108E+00  0.873142E+00
  0.893062E+00  0.912918E+00  0.928973E+00  0.940551E+00  0.948250E+00  0.952890E+00
  0.955432E+00  0.956952E+00  0.958011E+00  0.958153E+00  0.956400E+00  0.951891E+00
  0.943552E+00  0.929192E+00  0.911146E+00  0.865091E+00  0.794686E+00  0.721424E+00
  0.689240E+00  0.721424E+00  0.794686E+00  0.865091E+00  0.911146E+00  0.936207E+00
  0.949128E+00  0.955808E+00  0.958910E+00  0.959402E+00  0.958011E+00  0.955656E+00
  0.952738E+00  0.948624E+00  0.942229E+00  0.932723E+00  0.919719E+00  0.903537E+00
  0.886138E+00  0.871918E+00  0.866314E+00  0.871918E+00  0.886138E+00  0.903537E+00
  0.919719E+00  0.932723E+00  0.942229E+00  0.948624E+00  0.952738E+00  0.955656E+00
  0.958011E+00  0.959402E+00  0.958910E+00  0.955808E+00  0.949128E+00  0.936207E+00
  0.911146E+00  0.860868E+00  0.755109E+00  0.609979E+00  0.503559E+00  0.503559E+00
  0.609979E+00  0.755109E+00  0.860868E+00  0.915600E+00  0.940579E+00  0.951890E+00
  0.957082E+00  0.958910E+00  0.958153E+00  0.955432E+00  0.951622E+00  0.947028E+00
  0.940938E+00  0.932379E+00  0.920905E+00  0.906756E+00  0.891056E+00  0.876501E+00
  0.867388E+00  0.867388E+00  0.876501E+00  0.891056E+00  0.906756E+00  0.920905E+00
  0.932379E+00  0.940938E+00  0.947028E+00  0.951622E+00  0.955432E+00  0.958153E+00
  0.958910E+00  0.957082E+00  0.951890E+00  0.940579E+00  0.915600E+00  0.860868E+00
  0.721640E+00  0.493675E+00  0.296564E+00  0.230579E+00  0.296564E+00  0.493675E+00
  0.721640E+00  0.858780E+00  0.918146E+00  0.942073E+00  0.951890E+00  0.955808E+00
  0.956400E+00  0.954256E+00  0.949969E+00  0.944378E+00  0.937617E+00  0.928921E+00
  0.917681E+00  0.904133E+00  0.889167E+00  0.874411E+00  0.862894E+00  0.858431E+00
  0.862894E+00  0.874411E+00  0.889167E+00  0.904133E+00  0.917681E+00  0.928921E+00
  0.937617E+00  0.944378E+00  0.949969E+00  0.954256E+00  0.956400E+00  0.955808E+00
  0.951890E+00  0.942073E+00  0.918146E+00  0.858780E+00  0.721640E+00  0.414598E+00
  0.163247E+00  0.728189E-01  0.728189E-01  0.163247E+00  0.414598E+00  0.704060E+00
  0.858340E+00  0.918146E+00  0.940579E+00  0.949128E+00  0.951891E+00  0.951102E+00
  0.947233E+00  0.940962E+00  0.933061E+00  0.923383E+00  0.911247E+00  0.896781E+00
  0.881105E+00  0.865564E+00  0.852050E+00  0.843770E+00  0.843770E+00  0.852050E+00
  0.865564E+00  0.881105E+00  0.896781E+00  0.911247E+00  0.923383E+00  0.933061E+00
  0.940962E+00  0.947233E+00  0.951102E+00  0.951891E+00  0.949128E+00  0.940579E+00
  0.918146E+00  0.858340E+00  0.704060E+00  0.414598E+00  0.111349E+00  0.251451E-01
  0.123860E-01  0.251451E-01  0.111349E+00  0.388599E+00  0.704060E+00  0.858780E+00
  0.915600E+00  0.936207E+00  0.943552E+00  0.945019E+00  0.942406E+00  0.936214E+00
  0.927322E+00  0.916312E+00  0.902697E+00  0.886192E+00  0.868069E+00  0.850264E+00
  0.834291E+00  0.822339E+00  0.817749E+00  0.822339E+00  0.834291E+00  0.850264E+00
  0.868069E+00  0.886192E+00  0.902697E+00  0.916312E+00  0.927322E+00  0.936214E+00
  0.942406E+00  0.945019E+00  0.943552E+00  0.936207E+00  0.915600E+00  0.858780E+00
  0.704060E+00  0.388599E+00  0.111349E+00  0.162960E-01  0.320998E-02  0.320998E-02
  0.162960E-01  0.111349E+00  0.414598E+00  0.721640E+00  0.860868E+00  0.911146E+00
  0.929192E+00  0.934999E+00  0.934591E+00  0.929303E+00  0.919885E+00  0.907443E+00
  0.892167E+00  0.873354E+00  0.851685E+00  0.829785E+00  0.809983E+00  0.793862E+00
  0.784218E+00  0.784218E+00  0.793862E+00  0.809983E+00  0.829785E+00  0.851685E+00
  0.873354E+00  0.892167E+00  0.907443E+00  0.919885E+00  0.929303E+00  0.934591E+00
  0.934999E+00  0.929192E+00  0.911146E+00  0.860868E+00  0.721640E+00  0.414598E+00
  0.111349E+00  0.162960E-01  0.251523E-03  0.331649E-04  0.251523E-03  0.694926E-02
  0.924047E-01  0.414598E+00  0.729812E+00  0.862387E+00  0.908190E+00  0.923845E+00
  0.927781E+00  0.924990E+00  0.916503E+00  0.903363E+00  0.886743E+00  0.866391E+00
  0.841850E+00  0.815211E+00  0.790112E+00  0.768851E+00  0.753494E+00  0.747656E+00
  0.753494E+00  0.768851E+00  0.790112E+00  0.815211E+00  0.841850E+00  0.866391E+00
  0.886743E+00  0.903363E+00  0.916503E+00  0.924990E+00  0.927781E+00  0.923845E+00
  0.908190E+00  0.862387E+00  0.729812E+00  0.414598E+00  0.924047E-01  0.694926E-02
  0.251523E-03  0.331649E-04  0.331649E-04  0.763328E-03  0.176054E-01  0.163247E+00
  0.516324E+00  0.768275E+00  0.866788E+00  0.901539E+00  0.912953E+00  0.913714E+00
  0.906842E+00  0.893280E+00  0.874590E+00  0.851675E+00  0.823882E+00  0.792055E+00
  0.760302E+00  0.732543E+00  0.710722E+00  0.697879E+00  0.697879E+00  0.710722E+00
  0.732543E+00  0.760302E+00  0.792055E+00  0.823882E+00  0.851675E+00  0.874590E+00
  0.893280E+00  0.906842E+00  0.913714E+00  0.912953E+00  0.901539E+00  0.866788E+00
  0.768275E+00  0.516324E+00  0.163247E+00  0.176054E-01  0.763328E-03  0.331649E-04
  0.251523E-03  0.763328E-03  0.786688E-02  0.728189E-01  0.326854E+00  0.642407E+00
  0.806911E+00  0.870177E+00  0.892974E+00  0.898819E+00  0.894561E+00  0.881601E+00
  0.861197E+00  0.835101E+00  0.803499E+00  0.766286E+00  0.726956E+00  0.691126E+00
  0.661859E+00  0.641220E+00  0.633445E+00  0.641220E+00  0.661859E+00  0.691126E+00
  0.726956E+00  0.766286E+00  0.803499E+00  0.835101E+00  0.861197E+00  0.881601E+00
  0.894561E+00  0.898819E+00  0.892974E+00  0.870177E+00  0.806911E+00  0.642407E+00
  0.326854E+00  0.728189E-01  0.786688E-02  0.763328E-03  0.251523E-03  0.694926E-02
  0.176054E-01  0.728189E-01  0.261004E+00  0.549610E+00  0.746892E+00  0.835344E+00
  0.870166E+00  0.881525E+00  0.880140E+00  0.868463E+00  0.847223E+00  0.818094E+00
  0.782219E+00  0.739381E+00  0.691944E+00  0.646469E+00  0.608249E+00  0.579136E+00
  0.562314E+00  0.562314E+00  0.579136E+00  0.608249E+00  0.646469E+00  0.691944E+00
  0.739381E+00  0.782219E+00  0.818094E+00  0.847223E+00  0.868463E+00  0.880140E+00
  0.881525E+00  0.870166E+00  0.835344E+00  0.746892E+00  0.549610E+00  0.261004E+00
  0.728189E-01  0.176054E-01  0.694926E-02  0.694926E-02  0.924047E-01  0.163247E+00
  0.326854E+00  0.549610E+00  0.720901E+00  0.811116E+00  0.850890E+00  0.865327E+00
  0.865620E+00  0.854811E+00  0.833164E+00  0.801637E+00  0.761703E+00  0.713501E+00
  0.658326E+00  0.602559E+00  0.553899E+00  0.515507E+00  0.489174E+00  0.479423E+00
  0.489174E+00  0.515507E+00  0.553899E+00  0.602559E+00  0.658326E+00  0.713501E+00
  0.761703E+00  0.801637E+00  0.833164E+00  0.854811E+00  0.865620E+00  0.865327E+00
  0.850890E+00  0.811116E+00  0.720901E+00  0.549610E+00  0.326854E+00  0.163247E+00
  0.924047E-01  0.752096E-01  0.924047E-01  0.414598E+00  0.516324E+00  0.642407E+00
  0.746892E+00  0.811116E+00  0.843196E+00  0.855284E+00  0.854517E+00  0.842981E+00
  0.820310E+00  0.786564E+00  0.742938E+00  0.689934E+00  0.628195E+00  0.563063E+00
  0.503663E+00  0.455541E+00  0.420053E+00  0.400179E+00  0.400179E+00  0.420053E+00
  0.455541E+00  0.503663E+00  0.563063E+00  0.628195E+00  0.689934E+00  0.742938E+00
  0.786564E+00  0.820310E+00  0.842981E+00  0.854517E+00  0.855284E+00  0.843196E+00
  0.811116E+00  0.746892E+00  0.642407E+00  0.516324E+00  0.414598E+00  0.364881E+00
  0.364881E+00  0.414598E+00  0.729812E+00  0.768275E+00  0.806911E+00  0.835344E+00
  0.850890E+00  0.855284E+00  0.850325E+00  0.836001E+00  0.811007E+00  0.774528E+00
  0.727158E+00  0.669545E+00  0.602198E+00  0.529349E+00  0.460270E+00  0.402757E+00
  0.359064E+00  0.330442E+00  0.320222E+00  0.330442E+00  0.359064E+00  0.402757E+00
  0.460270E+00  0.529349E+00  0.602198E+00  0.669545E+00  0.727158E+00  0.774528E+00
  0.811007E+00  0.836001E+00  0.850325E+00  0.855284E+00  0.850890E+00  0.835344E+00
  0.806911E+00  0.768275E+00  0.729812E+00  0.704060E+00  0.695689E+00  0.704060E+00
  0.729812E+00  0.862387E+00  0.866788E+00  0.870177E+00  0.870166E+00  0.865327E+00
  0.854517E+00  0.836001E+00  0.807585E+00  0.767738E+00  0.716386E+00  0.654046E+00
  0.581373E+00  0.502036E+00  0.424778E+00  0.358688E+00  0.307662E+00  0.272236E+00
  0.253648E+00  0.253648E+00  0.272236E+00  0.307662E+00  0.358688E+00  0.424778E+00
  0.502036E+00  0.581373E+00  0.654046E+00  0.716386E+00  0.767738E+00  0.807585E+00
  0.836001E+00  0.854517E+00  0.865327E+00  0.870166E+00  0.870177E+00  0.866788E+00
  0.862387E+00  0.859381E+00  0.858340E+00  0.858340E+00  0.859381E+00  0.862387E+00
  0.908190E+00  0.901539E+00  0.892974E+00  0.881525E+00  0.865620E+00  0.842981E+00
  0.811007E+00  0.767738E+00  0.712544E+00  0.645610E+00  0.567736E+00  0.482614E+00
  0.398564E+00  0.324964E+00  0.267076E+00  0.225939E+00  0.201282E+00  0.193044E+00
  0.201282E+00  0.225939E+00  0.267076E+00  0.324964E+00  0.398564E+00  0.482614E+00
  0.567736E+00  0.645610E+00  0.712544E+00  0.767738E+00  0.811007E+00  0.842981E+00
  0.865620E+00  0.881525E+00  0.892974E+00  0.901539E+00  0.908190E+00  0.913362E+00
  0.916871E+00  0.918146E+00  0.916871E+00  0.913362E+00  0.908190E+00  0.923845E+00
  0.912953E+00  0.898819E+00  0.880140E+00  0.854811E+00  0.820310E+00  0.774528E+00
  0.716386E+00  0.645610E+00  0.563000E+00  0.472615E+00  0.382893E+00  0.303102E+00
  0.238960E+00  0.192336E+00  0.162744E+00  0.148609E+00  0.148609E+00  0.162744E+00
  0.192336E+00  0.238960E+00  0.303102E+00  0.382893E+00  0.472615E+00  0.563000E+00
  0.645610E+00  0.716386E+00  0.774528E+00  0.820310E+00  0.854811E+00  0.880140E+00
  0.898819E+00  0.912953E+00  0.923845E+00  0.932065E+00  0.937692E+00  0.940579E+00
  0.940579E+00  0.937692E+00  0.932065E+00  0.923845E+00  0.927781E+00  0.913714E+00
  0.894561E+00  0.868463E+00  0.833164E+00  0.786564E+00  0.727158E+00  0.654046E+00
  0.567736E+00  0.472615E+00  0.377786E+00  0.292839E+00  0.223408E+00  0.171589E+00
  0.137289E+00  0.118495E+00  0.112620E+00  0.118495E+00  0.137289E+00  0.171589E+00
  0.223408E+00  0.292839E+00  0.377786E+00  0.472615E+00  0.567736E+00  0.654046E+00
  0.727158E+00  0.786564E+00  0.833164E+00  0.868463E+00  0.894561E+00  0.913714E+00
  0.927781E+00  0.937986E+00  0.944999E+00  0.949128E+00  0.950494E+00  0.949128E+00
  0.944999E+00  0.937986E+00  0.927781E+00  0.924990E+00  0.906842E+00  0.881601E+00
  0.847223E+00  0.801637E+00  0.742938E+00  0.669545E+00  0.581373E+00  0.482614E+00
  0.382893E+00  0.292839E+00  0.218616E+00  0.162145E+00  0.123344E+00  0.100311E+00
  0.899499E-01  0.899499E-01  0.100311E+00  0.123344E+00  0.162145E+00  0.218616E+00
  0.292839E+00  0.382893E+00  0.482614E+00  0.581373E+00  0.669545E+00  0.742938E+00
  0.801637E+00  0.847223E+00  0.881601E+00  0.906842E+00  0.924990E+00  0.937777E+00
  0.946471E+00  0.951891E+00  0.954499E+00  0.954499E+00  0.951891E+00  0.946471E+00
  0.937777E+00  0.924990E+00  0.916503E+00  0.893280E+00  0.861197E+00  0.818094E+00
  0.761703E+00  0.689934E+00  0.602198E+00  0.502036E+00  0.398564E+00  0.303102E+00
  0.223408E+00  0.162145E+00  0.118987E+00  0.918742E-01  0.775859E-01  0.732051E-01
  0.775859E-01  0.918742E-01  0.118987E+00  0.162145E+00  0.223408E+00  0.303102E+00
  0.398564E+00  0.502036E+00  0.602198E+00  0.689934E+00  0.761703E+00  0.818094E+00
  0.861197E+00  0.893280E+00  0.916503E+00  0.932840E+00  0.943957E+00  0.951102E+00
  0.955093E+00  0.956378E+00  0.955093E+00  0.951102E+00  0.943957E+00  0.932840E+00
  0.916503E+00  0.903363E+00  0.874590E+00  0.835101E+00  0.782219E+00  0.713501E+00
  0.628195E+00  0.529349E+00  0.424778E+00  0.324964E+00  0.238960E+00  0.171589E+00
  0.123344E+00  0.918742E-01  0.736695E-01  0.654989E-01  0.654989E-01  0.736695E-01
  0.918742E-01  0.123344E+00  0.171589E+00  0.238960E+00  0.324964E+00  0.424778E+00
  0.529349E+00  0.628195E+00  0.713501E+00  0.782219E+00  0.835101E+00  0.874590E+00
  0.903363E+00  0.923804E+00  0.937907E+00  0.947233E+00  0.952890E+00  0.955560E+00
  0.955560E+00  0.952890E+00  0.947233E+00  0.937907E+00  0.923804E+00  0.903363E+00
  0.886743E+00  0.851675E+00  0.803499E+00  0.739381E+00  0.658326E+00  0.563063E+00
  0.460270E+00  0.358688E+00  0.267076E+00  0.192336E+00  0.137289E+00  0.100311E+00
  0.775859E-01  0.654989E-01  0.617303E-01  0.654989E-01  0.775859E-01  0.100311E+00
  0.137289E+00  0.192336E+00  0.267076E+00  0.358688E+00  0.460270E+00  0.563063E+00
  0.658326E+00  0.739381E+00  0.803499E+00  0.851675E+00  0.886743E+00  0.911726E+00
  0.929155E+00  0.940962E+00  0.948525E+00  0.952738E+00  0.954090E+00  0.952738E+00
  0.948525E+00  0.940962E+00  0.929155E+00  0.911726E+00  0.886743E+00  0.866391E+00
  0.823882E+00  0.766286E+00  0.691944E+00  0.602559E+00  0.503663E+00  0.402757E+00
  0.307662E+00  0.225939E+00  0.162744E+00  0.118495E+00  0.899499E-01  0.732051E-01
  0.654989E-01  0.654989E-01  0.732051E-01  0.899499E-01  0.118495E+00  0.162744E+00
  0.225939E+00  0.307662E+00  0.402757E+00  0.503663E+00  0.602559E+00  0.691944E+00
  0.766286E+00  0.823882E+00  0.866391E+00  0.896872E+00  0.918307E+00  0.933061E+00
  0.942844E+00  0.948802E+00  0.951622E+00  0.951622E+00  0.948802E+00  0.942844E+00
  0.933061E+00  0.918307E+00  0.896872E+00  0.866391E+00  0.841850E+00  0.792055E+00
  0.726956E+00  0.646469E+00  0.553899E+00  0.455541E+00  0.359064E+00  0.272236E+00
  0.201282E+00  0.148609E+00  0.112620E+00  0.899499E-01  0.775859E-01  0.736695E-01
  0.775859E-01  0.899499E-01  0.112620E+00  0.148609E+00  0.201282E+00  0.272236E+00
  0.359064E+00  0.455541E+00  0.553899E+00  0.646469E+00  0.726956E+00  0.792055E+00
  0.841850E+00  0.878541E+00  0.904893E+00  0.923383E+00  0.935958E+00  0.944028E+00
  0.948525E+00  0.949969E+00  0.948525E+00  0.944028E+00  0.935958E+00  0.923383E+00
  0.904893E+00  0.878541E+00  0.841850E+00  0.815211E+00  0.760302E+00  0.691126E+00
  0.608249E+00  0.515507E+00  0.420053E+00  0.330442E+00  0.253648E+00  0.193044E+00
  0.148609E+00  0.118495E+00  0.100311E+00  0.918742E-01  0.918742E-01  0.100311E+00
  0.118495E+00  0.148609E+00  0.193044E+00  0.253648E+00  0.330442E+00  0.420053E+00
  0.515507E+00  0.608249E+00  0.691126E+00  0.760302E+00  0.815211E+00  0.857267E+00
  0.888578E+00  0.911247E+00  0.927124E+00  0.937725E+00  0.944183E+00  0.947233E+00
  0.947233E+00  0.944183E+00  0.937725E+00  0.927124E+00  0.911247E+00  0.888578E+00
  0.857267E+00  0.815211E+00  0.790112E+00  0.732543E+00  0.661859E+00  0.579136E+00
  0.489174E+00  0.400179E+00  0.320222E+00  0.253648E+00  0.201282E+00  0.162744E+00
  0.137289E+00  0.123344E+00  0.118987E+00  0.123344E+00  0.137289E+00  0.162744E+00
  0.201282E+00  0.253648E+00  0.320222E+00  0.400179E+00  0.489174E+00  0.579136E+00
  0.661859E+00  0.732543E+00  0.790112E+00  0.835572E+00  0.870569E+00  0.896781E+00
  0.915783E+00  0.928995E+00  0.937586E+00  0.942406E+00  0.943957E+00  0.942406E+00
  0.937586E+00  0.928995E+00  0.915783E+00  0.896781E+00  0.870569E+00  0.835572E+00
  0.790112E+00  0.768851E+00  0.710722E+00  0.641220E+00  0.562314E+00  0.479423E+00
  0.400179E+00  0.330442E+00  0.272236E+00  0.225939E+00  0.192336E+00  0.171589E+00
  0.162145E+00  0.162145E+00  0.171589E+00  0.192336E+00  0.225939E+00  0.272236E+00
  0.330442E+00  0.400179E+00  0.479423E+00  0.562314E+00  0.641220E+00  0.710722E+00
  0.768851E+00  0.815843E+00  0.852801E+00  0.881105E+00  0.902206E+00  0.917460E+00
  0.927986E+00  0.934591E+00  0.937777E+00  0.937777E+00  0.934591E+00  0.927986E+00
  0.917460E+00  0.902206E+00  0.881105E+00  0.852801E+00  0.815843E+00  0.768851E+00
  0.753494E+00  0.697879E+00  0.633445E+00  0.562314E+00  0.489174E+00  0.420053E+00
  0.359064E+00  0.307662E+00  0.267076E+00  0.238960E+00  0.223408E+00  0.218616E+00
  0.223408E+00  0.238960E+00  0.267076E+00  0.307662E+00  0.359064E+00  0.420053E+00
  0.489174E+00  0.562314E+00  0.633445E+00  0.697879E+00  0.753494E+00  0.799744E+00
  0.836827E+00  0.865564E+00  0.887273E+00  0.903380E+00  0.915058E+00  0.923065E+00
  0.927781E+00  0.929344E+00  0.927781E+00  0.923065E+00  0.915058E+00  0.903380E+00
  0.887273E+00  0.865564E+00  0.836827E+00  0.799744E+00  0.753494E+00  0.747656E+00
  0.697879E+00  0.641220E+00  0.579136E+00  0.515507E+00  0.455541E+00  0.402757E+00
  0.358688E+00  0.324964E+00  0.303102E+00  0.292839E+00  0.292839E+00  0.303102E+00
  0.324964E+00  0.358688E+00  0.402757E+00  0.455541E+00  0.515507E+00  0.579136E+00
  0.641220E+00  0.697879E+00  0.747656E+00  0.790103E+00  0.824863E+00  0.852050E+00
  0.872592E+00  0.887875E+00  0.899201E+00  0.907438E+00  0.912953E+00  0.915757E+00
  0.915757E+00  0.912953E+00  0.907438E+00  0.899201E+00  0.887875E+00  0.872592E+00
  0.852050E+00  0.824863E+00  0.790103E+00  0.747656E+00  0.753494E+00  0.710722E+00
  0.661859E+00  0.608249E+00  0.553899E+00  0.503663E+00  0.460270E+00  0.424778E+00
  0.398564E+00  0.382893E+00  0.377786E+00  0.382893E+00  0.398564E+00  0.424778E+00
  0.460270E+00  0.503663E+00  0.553899E+00  0.608249E+00  0.661859E+00  0.710722E+00
  0.753494E+00  0.790103E+00  0.820266E+00  0.843770E+00  0.861154E+00  0.873600E+00
  0.882418E+00  0.888661E+00  0.892974E+00  0.895593E+00  0.896485E+00  0.895593E+00
  0.892974E+00  0.888661E+00  0.882418E+00  0.873600E+00  0.861154E+00  0.843770E+00
  0.820266E+00  0.790103E+00  0.753494E+00  0.768851E+00  0.732543E+00  0.691126E+00
  0.646469E+00  0.602559E+00  0.563063E+00  0.529349E+00  0.502036E+00  0.482614E+00
  0.472615E+00  0.472615E+00  0.482614E+00  0.502036E+00  0.529349E+00  0.563063E+00
  0.602559E+00  0.646469E+00  0.691126E+00  0.732543E+00  0.768851E+00  0.799744E+00
  0.824863E+00  0.843770E+00  0.856728E+00  0.864712E+00  0.868905E+00  0.870384E+00
  0.870166E+00  0.869270E+00  0.868573E+00  0.868573E+00  0.869270E+00  0.870166E+00
  0.870384E+00  0.868905E+00  0.864712E+00  0.856728E+00  0.843770E+00  0.824863E+00
  0.799744E+00  0.768851E+00  0.790112E+00  0.760302E+00  0.726956E+00  0.691944E+00
  0.658326E+00  0.628195E+00  0.602198E+00  0.581373E+00  0.567736E+00  0.563000E+00
  0.567736E+00  0.581373E+00  0.602198E+00  0.628195E+00  0.658326E+00  0.691944E+00
  0.726956E+00  0.760302E+00  0.790112E+00  0.815843E+00  0.836827E+00  0.852050E+00
  0.861154E+00  0.864712E+00  0.863628E+00  0.858699E+00  0.850890E+00  0.841991E+00
  0.834759E+00  0.831954E+00  0.834759E+00  0.841991E+00  0.850890E+00  0.858699E+00
  0.863628E+00  0.864712E+00  0.861154E+00  0.852050E+00  0.836827E+00  0.815843E+00
  0.790112E+00  0.815211E+00  0.792055E+00  0.766286E+00  0.739381E+00  0.713501E+00
  0.689934E+00  0.669545E+00  0.654046E+00  0.645610E+00  0.645610E+00  0.654046E+00
  0.669545E+00  0.689934E+00  0.713501E+00  0.739381E+00  0.766286E+00  0.792055E+00
  0.815211E+00  0.835572E+00  0.852801E+00  0.865564E+00  0.872592E+00  0.873600E+00
  0.868905E+00  0.858699E+00  0.843196E+00  0.823902E+00  0.805035E+00  0.793028E+00
  0.793028E+00  0.805035E+00  0.823902E+00  0.843196E+00  0.858699E+00  0.868905E+00
  0.873600E+00  0.872592E+00  0.865564E+00  0.852801E+00  0.835572E+00  0.815211E+00
  0.841850E+00  0.823882E+00  0.803499E+00  0.782219E+00  0.761703E+00  0.742938E+00
  0.727158E+00  0.716386E+00  0.712544E+00  0.716386E+00  0.727158E+00  0.742938E+00
  0.761703E+00  0.782219E+00  0.803499E+00  0.823882E+00  0.841850E+00  0.857267E+00
  0.870569E+00  0.881105E+00  0.887273E+00  0.887875E+00  0.882418E+00  0.870384E+00
  0.850890E+00  0.823902E+00  0.792954E+00  0.766890E+00  0.756525E+00  0.766890E+00
  0.792954E+00  0.823902E+00  0.850890E+00  0.870384E+00  0.882418E+00  0.887875E+00
  0.887273E+00  0.881105E+00  0.870569E+00  0.857267E+00  0.841850E+00  0.866391E+00
  0.851675E+00  0.835101E+00  0.818094E+00  0.801637E+00  0.786564E+00  0.774528E+00
  0.767738E+00  0.767738E+00  0.774528E+00  0.786564E+00  0.801637E+00  0.818094E+00
  0.835101E+00  0.851675E+00  0.866391E+00  0.878541E+00  0.888578E+00  0.896781E+00
  0.902206E+00  0.903380E+00  0.899201E+00  0.888661E+00  0.870166E+00  0.841991E+00
  0.805035E+00  0.766890E+00  0.741749E+00  0.741749E+00  0.766890E+00  0.805035E+00
  0.841991E+00  0.870166E+00  0.888661E+00  0.899201E+00  0.903380E+00  0.902206E+00
  0.896781E+00  0.888578E+00  0.878541E+00  0.866391E+00  0.886743E+00  0.874590E+00
  0.861197E+00  0.847223E+00  0.833164E+00  0.820310E+00  0.811007E+00  0.807585E+00
  0.811007E+00  0.820310E+00  0.833164E+00  0.847223E+00  0.861197E+00  0.874590E+00
  0.886743E+00  0.896872E+00  0.904893E+00  0.911247E+00  0.915783E+00  0.917460E+00
  0.915058E+00  0.907438E+00  0.892974E+00  0.869270E+00  0.834759E+00  0.793028E+00
  0.756525E+00  0.741749E+00  0.756525E+00  0.793028E+00  0.834759E+00  0.869270E+00
  0.892974E+00  0.907438E+00  0.915058E+00  0.917460E+00  0.915783E+00  0.911247E+00
  0.904893E+00  0.896872E+00  0.886743E+00  0.903363E+00  0.893280E+00  0.881601E+00
  0.868463E+00  0.854811E+00  0.842981E+00  0.836001E+00  0.836001E+00  0.842981E+00
  0.854811E+00  0.868463E+00  0.881601E+00  0.893280E+00  0.903363E+00  0.911726E+00
  0.918307E+00  0.923383E+00  0.927124E+00  0.928995E+00  0.927986E+00  0.923065E+00
  0.912953E+00  0.895593E+00  0.868573E+00  0.831954E+00  0.793028E+00  0.766890E+00
  0.766890E+00  0.793028E+00  0.831954E+00  0.868573E+00  0.895593E+00  0.912953E+00
  0.923065E+00  0.927986E+00  0.928995E+00  0.927124E+00  0.923383E+00  0.918307E+00
  0.911726E+00  0.903363E+00  0.916503E+00  0.906842E+00  0.894561E+00  0.880140E+00
  0.865620E+00  0.854517E+00  0.850325E+00  0.854517E+00  0.865620E+00  0.880140E+00
  0.894561E+00  0.906842E+00  0.916503E+00  0.923804E+00  0.929155E+00  0.933061E+00
  0.935958E+00  0.937725E+00  0.937586E+00  0.934591E+00  0.927781E+00  0.915757E+00
  0.896485E+00  0.868573E+00  0.834759E+00  0.805035E+00  0.792954E+00  0.805035E+00
  0.834759E+00  0.868573E+00  0.896485E+00  0.915757E+00  0.927781E+00  0.934591E+00
  0.937586E+00  0.937725E+00  0.935958E+00  0.933061E+00  0.929155E+00  0.923804E+00
  0.916503E+00  0.924990E+00  0.913714E+00  0.898819E+00  0.881525E+00  0.865327E+00
  0.855284E+00  0.855284E+00  0.865327E+00  0.881525E+00  0.898819E+00  0.913714E+00
  0.924990E+00  0.932840E+00  0.937907E+00  0.940962E+00  0.942844E+00  0.944028E+00
  0.944183E+00  0.942406E+00  0.937777E+00  0.929344E+00  0.915757E+00  0.895593E+00
  0.869270E+00  0.841991E+00  0.823902E+00  0.823902E+00  0.841991E+00  0.869270E+00
  0.895593E+00  0.915757E+00  0.929344E+00  0.937777E+00  0.942406E+00  0.944183E+00
  0.944028E+00  0.942844E+00  0.940962E+00  0.937907E+00  0.932840E+00  0.924990E+00
  0.927781E+00  0.912953E+00  0.892974E+00  0.870166E+00  0.850890E+00  0.843196E+00
  0.850890E+00  0.870166E+00  0.892974E+00  0.912953E+00  0.927781E+00  0.937777E+00
  0.943957E+00  0.947233E+00  0.948525E+00  0.948802E+00  0.948525E+00  0.947233E+00
  0.943957E+00  0.937777E+00  0.927781E+00  0.912953E+00  0.892974E+00  0.870166E+00
  0.850890E+00  0.843196E+00  0.850890E+00  0.870166E+00  0.892974E+00  0.912953E+00
  0.927781E+00  0.937777E+00  0.943957E+00  0.947233E+00  0.948525E+00  0.948802E+00
  0.948525E+00  0.947233E+00  0.943957E+00  0.937777E+00  0.927781E+00  0.923845E+00
  0.901539E+00  0.870177E+00  0.835344E+00  0.811116E+00  0.811116E+00  0.835344E+00
  0.870177E+00  0.901539E+00  0.923845E+00  0.937986E+00  0.946471E+00  0.951102E+00
  0.952890E+00  0.952738E+00  0.951622E+00  0.949969E+00  0.947233E+00  0.942406E+00
  0.934591E+00  0.923065E+00  0.907438E+00  0.888661E+00  0.870384E+00  0.858699E+00
  0.858699E+00  0.870384E+00  0.888661E+00  0.907438E+00  0.923065E+00  0.934591E+00
  0.942406E+00  0.947233E+00  0.949969E+00  0.951622E+00  0.952738E+00  0.952890E+00
  0.951102E+00  0.946471E+00  0.937986E+00  0.923845E+00  0.908190E+00  0.866788E+00
  0.806911E+00  0.746892E+00  0.720901E+00  0.746892E+00  0.806911E+00  0.866788E+00
  0.908190E+00  0.932065E+00  0.944999E+00  0.951891E+00  0.955093E+00  0.955560E+00
  0.954090E+00  0.951622E+00  0.948525E+00  0.944183E+00  0.937586E+00  0.927986E+00
  0.915058E+00  0.899201E+00  0.882418E+00  0.868905E+00  0.863628E+00  0.868905E+00
  0.882418E+00  0.899201E+00  0.915058E+00  0.927986E+00  0.937586E+00  0.944183E+00
  0.948525E+00  0.951622E+00  0.954090E+00  0.955560E+00  0.955093E+00  0.951891E+00
  0.944999E+00  0.932065E+00  0.908190E+00  0.862387E+00  0.768275E+00  0.642407E+00
  0.549610E+00  0.549610E+00  0.642407E+00  0.768275E+00  0.862387E+00  0.913362E+00
  0.937692E+00  0.949128E+00  0.954499E+00  0.956378E+00  0.955560E+00  0.952738E+00
  0.948802E+00  0.944028E+00  0.937725E+00  0.928995E+00  0.917460E+00  0.903380E+00
  0.887875E+00  0.873600E+00  0.864712E+00  0.864712E+00  0.873600E+00  0.887875E+00
  0.903380E+00  0.917460E+00  0.928995E+00  0.937725E+00  0.944028E+00  0.948802E+00
  0.952738E+00  0.955560E+00  0.956378E+00  0.954499E+00  0.949128E+00  0.937692E+00
  0.913362E+00  0.862387E+00  0.729812E+00  0.516324E+00  0.326854E+00  0.261004E+00
  0.326854E+00  0.516324E+00  0.729812E+00  0.859381E+00  0.916871E+00  0.940579E+00
  0.950494E+00  0.954499E+00  0.955093E+00  0.952890E+00  0.948525E+00  0.942844E+00
  0.935958E+00  0.927124E+00  0.915783E+00  0.902206E+00  0.887273E+00  0.872592E+00
  0.861154E+00  0.856728E+00  0.861154E+00  0.872592E+00  0.887273E+00  0.902206E+00
  0.915783E+00  0.927124E+00  0.935958E+00  0.942844E+00  0.948525E+00  0.952890E+00
  0.955093E+00  0.954499E+00  0.950494E+00  0.940579E+00  0.916871E+00  0.859381E+00
  0.729812E+00  0.414598E+00  0.163247E+00  0.728189E-01  0.728189E-01  0.163247E+00
  0.414598E+00  0.704060E+00  0.858340E+00  0.918146E+00  0.940579E+00  0.949128E+00
  0.951891E+00  0.951102E+00  0.947233E+00  0.940962E+00  0.933061E+00  0.923383E+00
  0.911247E+00  0.896781E+00  0.881105E+00  0.865564E+00  0.852050E+00  0.843770E+00
  0.843770E+00  0.852050E+00  0.865564E+00  0.881105E+00  0.896781E+00  0.911247E+00
  0.923383E+00  0.933061E+00  0.940962E+00  0.947233E+00  0.951102E+00  0.951891E+00
  0.949128E+00  0.940579E+00  0.918146E+00  0.858340E+00  0.704060E+00  0.414598E+00
  0.924047E-01  0.176054E-01  0.786688E-02  0.176054E-01  0.924047E-01  0.364881E+00
  0.695689E+00  0.858340E+00  0.916871E+00  0.937692E+00  0.944999E+00  0.946471E+00
  0.943957E+00  0.937907E+00  0.929155E+00  0.918307E+00  0.904893E+00  0.888578E+00
  0.870569E+00  0.852801E+00  0.836827E+00  0.824863E+00  0.820266E+00  0.824863E+00
  0.836827E+00  0.852801E+00  0.870569E+00  0.888578E+00  0.904893E+00  0.918307E+00
  0.929155E+00  0.937907E+00  0.943957E+00  0.946471E+00  0.944999E+00  0.937692E+00
  0.916871E+00  0.858340E+00  0.695689E+00  0.364881E+00  0.924047E-01  0.694926E-02
  0.763328E-03  0.763328E-03  0.694926E-02  0.752096E-01  0.364881E+00  0.704060E+00
  0.859381E+00  0.913362E+00  0.932065E+00  0.937986E+00  0.937777E+00  0.932840E+00
  0.923804E+00  0.911726E+00  0.896872E+00  0.878541E+00  0.857267E+00  0.835572E+00
  0.815843E+00  0.799744E+00  0.790103E+00  0.790103E+00  0.799744E+00  0.815843E+00
  0.835572E+00  0.857267E+00  0.878541E+00  0.896872E+00  0.911726E+00  0.923804E+00
  0.932840E+00  0.937777E+00  0.937986E+00  0.932065E+00  0.913362E+00  0.859381E+00
  0.704060E+00  0.364881E+00  0.752096E-01  0.694926E-02  0.251523E-03  0.331649E-04
  0.251523E-03  0.694926E-02  0.924047E-01  0.414598E+00  0.729812E+00  0.862387E+00
  0.908190E+00  0.923845E+00  0.927781E+00  0.924990E+00  0.916503E+00  0.903363E+00
  0.886743E+00  0.866391E+00  0.841850E+00  0.815211E+00  0.790112E+00  0.768851E+00
  0.753494E+00  0.747656E+00  0.753494E+00  0.768851E+00  0.790112E+00  0.815211E+00
  0.841850E+00  0.866391E+00  0.886743E+00  0.903363E+00  0.916503E+00  0.924990E+00
  0.927781E+00  0.923845E+00  0.908190E+00  0.862387E+00  0.729812E+00  0.414598E+00
  0.924047E-01  0.694926E-02  0.251523E-03  0.130826E-06  0.130826E-06  0.786745E-04
  0.694926E-02  0.111349E+00  0.463322E+00  0.752692E+00  0.865110E+00  0.903361E+00
  0.915757E+00  0.917075E+00  0.910820E+00  0.897899E+00  0.879791E+00  0.857485E+00
  0.830375E+00  0.799126E+00  0.767678E+00  0.740010E+00  0.718204E+00  0.705360E+00
  0.705360E+00  0.718204E+00  0.740010E+00  0.767678E+00  0.799126E+00  0.830375E+00
  0.857485E+00  0.879791E+00  0.897899E+00  0.910820E+00  0.917075E+00  0.915757E+00
  0.903361E+00  0.865110E+00  0.752692E+00  0.463322E+00  0.111349E+00  0.694926E-02
  0.786745E-04  0.130826E-06  0.130826E-06  0.494254E-05  0.763328E-03  0.251451E-01
  0.217618E+00  0.578953E+00  0.790219E+00  0.868461E+00  0.895593E+00  0.903133E+00
  0.900145E+00  0.888457E+00  0.869220E+00  0.844211E+00  0.813794E+00  0.777724E+00
  0.739124E+00  0.703554E+00  0.674329E+00  0.653677E+00  0.645890E+00  0.653677E+00
  0.674329E+00  0.703554E+00  0.739124E+00  0.777724E+00  0.813794E+00  0.844211E+00
  0.869220E+00  0.888457E+00  0.900145E+00  0.903133E+00  0.895593E+00  0.868461E+00
  0.790219E+00  0.578953E+00  0.217618E+00  0.251451E-01  0.763328E-03  0.494254E-05
  0.130826E-06  0.786745E-04  0.763328E-03  0.123860E-01  0.113677E+00  0.416158E+00
  0.695318E+00  0.821954E+00  0.869270E+00  0.885191E+00  0.886366E+00  0.876906E+00
  0.857711E+00  0.830395E+00  0.796329E+00  0.755313E+00  0.709199E+00  0.664254E+00
  0.626109E+00  0.596964E+00  0.580098E+00  0.580098E+00  0.596964E+00  0.626109E+00
  0.664254E+00  0.709199E+00  0.755313E+00  0.796329E+00  0.830395E+00  0.857711E+00
  0.876906E+00  0.886366E+00  0.885191E+00  0.869270E+00  0.821954E+00  0.695318E+00
  0.416158E+00  0.113677E+00  0.123860E-01  0.763328E-03  0.786745E-04  0.786745E-04
  0.694926E-02  0.251451E-01  0.113677E+00  0.354535E+00  0.625811E+00  0.777995E+00
  0.841991E+00  0.865837E+00  0.870887E+00  0.863649E+00  0.845200E+00  0.816484E+00
  0.779172E+00  0.733578E+00  0.680442E+00  0.625527E+00  0.576863E+00  0.538271E+00
  0.511744E+00  0.501898E+00  0.511744E+00  0.538271E+00  0.576863E+00  0.625527E+00
  0.680442E+00  0.733578E+00  0.779172E+00  0.816484E+00  0.845200E+00  0.863649E+00
  0.870887E+00  0.865837E+00  0.841991E+00  0.777995E+00  0.625811E+00  0.354535E+00
  0.113677E+00  0.251451E-01  0.694926E-02  0.426314E-02  0.694926E-02  0.111349E+00
  0.217618E+00  0.416158E+00  0.625811E+00  0.759459E+00  0.823902E+00  0.850303E+00
  0.856974E+00  0.850692E+00  0.832564E+00  0.802802E+00  0.762759E+00  0.713258E+00
  0.654443E+00  0.590640E+00  0.531078E+00  0.482304E+00  0.446147E+00  0.425770E+00
  0.425770E+00  0.446147E+00  0.482304E+00  0.531078E+00  0.590640E+00  0.654443E+00
  0.713258E+00  0.762759E+00  0.802802E+00  0.832564E+00  0.850692E+00  0.856974E+00
  0.850303E+00  0.823902E+00  0.759459E+00  0.625811E+00  0.416158E+00  0.217618E+00
  0.111349E+00  0.752096E-01  0.752096E-01  0.111349E+00  0.463322E+00  0.578953E+00
  0.695318E+00  0.777995E+00  0.823902E+00  0.844289E+00  0.848647E+00  0.841125E+00
  0.822024E+00  0.790746E+00  0.747958E+00  0.694728E+00  0.631253E+00  0.560470E+00
  0.491273E+00  0.432594E+00  0.387510E+00  0.357555E+00  0.346732E+00  0.357555E+00
  0.387510E+00  0.432594E+00  0.491273E+00  0.560470E+00  0.631253E+00  0.694728E+00
  0.747958E+00  0.790746E+00  0.822024E+00  0.841125E+00  0.848647E+00  0.844289E+00
  0.823902E+00  0.777995E+00  0.695318E+00  0.578953E+00  0.463322E+00  0.388599E+00
  0.364881E+00  0.388599E+00  0.463322E+00  0.752692E+00  0.790219E+00  0.821954E+00
  0.841991E+00  0.850303E+00  0.848647E+00  0.837603E+00  0.816039E+00  0.782459E+00
  0.736668E+00  0.679514E+00  0.611501E+00  0.534954E+00  0.457827E+00  0.390274E+00
  0.337287E+00  0.299688E+00  0.279474E+00  0.279474E+00  0.299688E+00  0.337287E+00
  0.390274E+00  0.457827E+00  0.534954E+00  0.611501E+00  0.679514E+00  0.736668E+00
  0.782459E+00  0.816039E+00  0.837603E+00  0.848647E+00  0.850303E+00  0.841991E+00
  0.821954E+00  0.790219E+00  0.752692E+00  0.720928E+00  0.704060E+00  0.704060E+00
  0.720928E+00  0.752692E+00  0.865110E+00  0.868461E+00  0.869270E+00  0.865837E+00
  0.856974E+00  0.841125E+00  0.816039E+00  0.779529E+00  0.730654E+00  0.669691E+00
  0.597177E+00  0.515378E+00  0.431585E+00  0.356242E+00  0.296061E+00  0.252355E+00
  0.225285E+00  0.216009E+00  0.225285E+00  0.252355E+00  0.296061E+00  0.356242E+00
  0.431585E+00  0.515378E+00  0.597177E+00  0.669691E+00  0.730654E+00  0.779529E+00
  0.816039E+00  0.841125E+00  0.856974E+00  0.865837E+00  0.869270E+00  0.868461E+00
  0.865110E+00  0.861526E+00  0.859381E+00  0.858780E+00  0.859381E+00  0.861526E+00
  0.865110E+00  0.903361E+00  0.895593E+00  0.885191E+00  0.870887E+00  0.850692E+00
  0.822024E+00  0.782459E+00  0.730654E+00  0.666361E+00  0.589867E+00  0.503461E+00
  0.414163E+00  0.332251E+00  0.265392E+00  0.216060E+00  0.183852E+00  0.167962E+00
  0.167962E+00  0.183852E+00  0.216060E+00  0.265392E+00  0.332251E+00  0.414163E+00
  0.503461E+00  0.589867E+00  0.666361E+00  0.730654E+00  0.782459E+00  0.822024E+00
  0.850692E+00  0.870887E+00  0.885191E+00  0.895593E+00  0.903361E+00  0.909209E+00
  0.913362E+00  0.915600E+00  0.915600E+00  0.913362E+00  0.909209E+00  0.903361E+00
  0.915757E+00  0.903133E+00  0.886366E+00  0.863649E+00  0.832564E+00  0.790746E+00
  0.736668E+00  0.669691E+00  0.589867E+00  0.499575E+00  0.405907E+00  0.318927E+00
  0.246393E+00  0.191606E+00  0.154692E+00  0.133960E+00  0.127353E+00  0.133960E+00
  0.154692E+00  0.191606E+00  0.246393E+00  0.318927E+00  0.405907E+00  0.499575E+00
  0.589867E+00  0.669691E+00  0.736668E+00  0.790746E+00  0.832564E+00  0.863649E+00
  0.886366E+00  0.903133E+00  0.915757E+00  0.925265E+00  0.932065E+00  0.936207E+00
  0.937604E+00  0.936207E+00  0.932065E+00  0.925265E+00  0.915757E+00  0.917075E+00
  0.900145E+00  0.876906E+00  0.845200E+00  0.802802E+00  0.747958E+00  0.679514E+00
  0.597177E+00  0.503461E+00  0.405907E+00  0.314851E+00  0.237903E+00  0.178353E+00
  0.136850E+00  0.111875E+00  0.100519E+00  0.100519E+00  0.111875E+00  0.136850E+00
  0.178353E+00  0.237903E+00  0.314851E+00  0.405907E+00  0.503461E+00  0.597177E+00
  0.679514E+00  0.747958E+00  0.802802E+00  0.845200E+00  0.876906E+00  0.900145E+00
  0.917075E+00  0.929344E+00  0.937986E+00  0.943552E+00  0.946290E+00  0.946290E+00
  0.943552E+00  0.937986E+00  0.929344E+00  0.917075E+00  0.910820E+00  0.888457E+00
  0.857711E+00  0.816484E+00  0.762759E+00  0.694728E+00  0.611501E+00  0.515378E+00
  0.414163E+00  0.318927E+00  0.237903E+00  0.174309E+00  0.128641E+00  0.996392E-01
  0.843371E-01  0.796607E-01  0.843371E-01  0.996392E-01  0.128641E+00  0.174309E+00
  0.237903E+00  0.318927E+00  0.414163E+00  0.515378E+00  0.611501E+00  0.694728E+00
  0.762759E+00  0.816484E+00  0.857711E+00  0.888457E+00  0.910820E+00  0.926741E+00
  0.937777E+00  0.945019E+00  0.949135E+00  0.950472E+00  0.949135E+00  0.945019E+00
  0.937777E+00  0.926741E+00  0.910820E+00  0.897899E+00  0.869220E+00  0.830395E+00
  0.779172E+00  0.713258E+00  0.631253E+00  0.534954E+00  0.431585E+00  0.332251E+00
  0.246393E+00  0.178353E+00  0.128641E+00  0.957451E-01  0.767256E-01  0.682727E-01
  0.682727E-01  0.767256E-01  0.957451E-01  0.128641E+00  0.178353E+00  0.246393E+00
  0.332251E+00  0.431585E+00  0.534954E+00  0.631253E+00  0.713258E+00  0.779172E+00
  0.830395E+00  0.869220E+00  0.897899E+00  0.918498E+00  0.932840E+00  0.942406E+00
  0.948250E+00  0.951023E+00  0.951023E+00  0.948250E+00  0.942406E+00  0.932840E+00
  0.918498E+00  0.897899E+00  0.879791E+00  0.844211E+00  0.796329E+00  0.733578E+00
  0.654443E+00  0.560470E+00  0.457827E+00  0.356242E+00  0.265392E+00  0.191606E+00
  0.136850E+00  0.996392E-01  0.767256E-01  0.646514E-01  0.609224E-01  0.646514E-01
  0.767256E-01  0.996392E-01  0.136850E+00  0.191606E+00  0.265392E+00  0.356242E+00
  0.457827E+00  0.560470E+00  0.654443E+00  0.733578E+00  0.796329E+00  0.844211E+00
  0.879791E+00  0.905593E+00  0.923804E+00  0.936214E+00  0.944183E+00  0.948624E+00
  0.950051E+00  0.948624E+00  0.944183E+00  0.936214E+00  0.923804E+00  0.905593E+00
  0.879791E+00  0.857485E+00  0.813794E+00  0.755313E+00  0.680442E+00  0.590640E+00
  0.491273E+00  0.390274E+00  0.296061E+00  0.216060E+00  0.154692E+00  0.111875E+00
  0.843371E-01  0.682727E-01  0.609224E-01  0.609224E-01  0.682727E-01  0.843371E-01
  0.111875E+00  0.154692E+00  0.216060E+00  0.296061E+00  0.390274E+00  0.491273E+00
  0.590640E+00  0.680442E+00  0.755313E+00  0.813794E+00  0.857485E+00  0.889205E+00
  0.911726E+00  0.927322E+00  0.937698E+00  0.944028E+00  0.947028E+00  0.947028E+00
  0.944028E+00  0.937698E+00  0.927322E+00  0.911726E+00  0.889205E+00  0.857485E+00
  0.830375E+00  0.777724E+00  0.709199E+00  0.625527E+00  0.531078E+00  0.432594E+00
  0.337287E+00  0.252355E+00  0.183852E+00  0.133960E+00  0.100519E+00  0.796607E-01
  0.682727E-01  0.646514E-01  0.682727E-01  0.796607E-01  0.100519E+00  0.133960E+00
  0.183852E+00  0.252355E+00  0.337287E+00  0.432594E+00  0.531078E+00  0.625527E+00
  0.709199E+00  0.777724E+00  0.830375E+00  0.869125E+00  0.896872E+00  0.916312E+00
  0.929550E+00  0.938075E+00  0.942844E+00  0.944378E+00  0.942844E+00  0.938075E+00
  0.929550E+00  0.916312E+00  0.896872E+00  0.869125E+00  0.830375E+00  0.799126E+00
  0.739124E+00  0.664254E+00  0.576863E+00  0.482304E+00  0.387510E+00  0.299688E+00
  0.225285E+00  0.167962E+00  0.127353E+00  0.100519E+00  0.843371E-01  0.767256E-01
  0.767256E-01  0.843371E-01  0.100519E+00  0.127353E+00  0.167962E+00  0.225285E+00
  0.299688E+00  0.387510E+00  0.482304E+00  0.576863E+00  0.664254E+00  0.739124E+00
  0.799126E+00  0.844862E+00  0.878541E+00  0.902697E+00  0.919548E+00  0.930811E+00
  0.937698E+00  0.940962E+00  0.940962E+00  0.937698E+00  0.930811E+00  0.919548E+00
  0.902697E+00  0.878541E+00  0.844862E+00  0.799126E+00  0.767678E+00  0.703554E+00
  0.626109E+00  0.538271E+00  0.446147E+00  0.357555E+00  0.279474E+00  0.216009E+00
  0.167962E+00  0.133960E+00  0.111875E+00  0.996392E-01  0.957451E-01  0.996392E-01
  0.111875E+00  0.133960E+00  0.167962E+00  0.216009E+00  0.279474E+00  0.357555E+00
  0.446147E+00  0.538271E+00  0.626109E+00  0.703554E+00  0.767678E+00  0.818415E+00
  0.857267E+00  0.886192E+00  0.907074E+00  0.921554E+00  0.930951E+00  0.936214E+00
  0.937907E+00  0.936214E+00  0.930951E+00  0.921554E+00  0.907074E+00  0.886192E+00
  0.857267E+00  0.818415E+00  0.767678E+00  0.740010E+00  0.674329E+00  0.596964E+00
  0.511744E+00  0.425770E+00  0.346732E+00  0.279474E+00  0.225285E+00  0.183852E+00
  0.154692E+00  0.136850E+00  0.128641E+00  0.128641E+00  0.136850E+00  0.154692E+00
  0.183852E+00  0.225285E+00  0.279474E+00  0.346732E+00  0.425770E+00  0.511744E+00
  0.596964E+00  0.674329E+00  0.740010E+00  0.793397E+00  0.835572E+00  0.868069E+00
  0.892386E+00  0.909914E+00  0.921888E+00  0.929303E+00  0.932840E+00  0.932840E+00
  0.929303E+00  0.921888E+00  0.909914E+00  0.892386E+00  0.868069E+00  0.835572E+00
  0.793397E+00  0.740010E+00  0.718204E+00  0.653677E+00  0.580098E+00  0.501898E+00
  0.425770E+00  0.357555E+00  0.299688E+00  0.252355E+00  0.216060E+00  0.191606E+00
  0.178353E+00  0.174309E+00  0.178353E+00  0.191606E+00  0.216060E+00  0.252355E+00
  0.299688E+00  0.357555E+00  0.425770E+00  0.501898E+00  0.580098E+00  0.653677E+00
  0.718204E+00  0.772161E+00  0.815843E+00  0.850264E+00  0.876646E+00  0.896254E+00
  0.910262E+00  0.919620E+00  0.924990E+00  0.926741E+00  0.924990E+00  0.919620E+00
  0.910262E+00  0.896254E+00  0.876646E+00  0.850264E+00  0.815843E+00  0.772161E+00
  0.718204E+00  0.705360E+00  0.645890E+00  0.580098E+00  0.511744E+00  0.446147E+00
  0.387510E+00  0.337287E+00  0.296061E+00  0.265392E+00  0.246393E+00  0.237903E+00
  0.237903E+00  0.246393E+00  0.265392E+00  0.296061E+00  0.337287E+00  0.387510E+00
  0.446147E+00  0.511744E+00  0.580098E+00  0.645890E+00  0.705360E+00  0.756812E+00
  0.799744E+00  0.834291E+00  0.861147E+00  0.881429E+00  0.896349E+00  0.906902E+00
  0.913714E+00  0.917075E+00  0.917075E+00  0.913714E+00  0.906902E+00  0.896349E+00
  0.881429E+00  0.861147E+00  0.834291E+00  0.799744E+00  0.756812E+00  0.705360E+00
  0.705360E+00  0.653677E+00  0.596964E+00  0.538271E+00  0.482304E+00  0.432594E+00
  0.390274E+00  0.356242E+00  0.332251E+00  0.318927E+00  0.314851E+00  0.318927E+00
  0.332251E+00  0.356242E+00  0.390274E+00  0.432594E+00  0.482304E+00  0.538271E+00
  0.596964E+00  0.653677E+00  0.705360E+00  0.750976E+00  0.790103E+00  0.822339E+00
  0.847717E+00  0.866972E+00  0.881245E+00  0.891621E+00  0.898819E+00  0.903133E+00
  0.904581E+00  0.903133E+00  0.898819E+00  0.891621E+00  0.881245E+00  0.866972E+00
  0.847717E+00  0.822339E+00  0.790103E+00  0.750976E+00  0.705360E+00  0.718204E+00
  0.674329E+00  0.626109E+00  0.576863E+00  0.531078E+00  0.491273E+00  0.457827E+00
  0.431585E+00  0.414163E+00  0.405907E+00  0.405907E+00  0.414163E+00  0.431585E+00
  0.457827E+00  0.491273E+00  0.531078E+00  0.576863E+00  0.626109E+00  0.674329E+00
  0.718204E+00  0.756812E+00  0.790103E+00  0.817749E+00  0.839508E+00  0.855783E+00
  0.867526E+00  0.875814E+00  0.881525E+00  0.885191E+00  0.887013E+00  0.887013E+00
  0.885191E+00  0.881525E+00  0.875814E+00  0.867526E+00  0.855783E+00  0.839508E+00
  0.817749E+00  0.790103E+00  0.756812E+00  0.718204E+00  0.740010E+00  0.703554E+00
  0.664254E+00  0.625527E+00  0.590640E+00  0.560470E+00  0.534954E+00  0.515378E+00
  0.503461E+00  0.499575E+00  0.503461E+00  0.515378E+00  0.534954E+00  0.560470E+00
  0.590640E+00  0.625527E+00  0.664254E+00  0.703554E+00  0.740010E+00  0.772161E+00
  0.799744E+00  0.822339E+00  0.839508E+00  0.851470E+00  0.859078E+00  0.863373E+00
  0.865327E+00  0.865837E+00  0.865726E+00  0.865612E+00  0.865726E+00  0.865837E+00
  0.865327E+00  0.863373E+00  0.859078E+00  0.851470E+00  0.839508E+00  0.822339E+00
  0.799744E+00  0.772161E+00  0.740010E+00  0.767678E+00  0.739124E+00  0.709199E+00
  0.680442E+00  0.654443E+00  0.631253E+00  0.611501E+00  0.597177E+00  0.589867E+00
  0.589867E+00  0.597177E+00  0.611501E+00  0.631253E+00  0.654443E+00  0.680442E+00
  0.709199E+00  0.739124E+00  0.767678E+00  0.793397E+00  0.815843E+00  0.834291E+00
  0.847717E+00  0.855783E+00  0.859078E+00  0.858585E+00  0.855284E+00  0.850303E+00
  0.845242E+00  0.842014E+00  0.842014E+00  0.845242E+00  0.850303E+00  0.855284E+00
  0.858585E+00  0.859078E+00  0.855783E+00  0.847717E+00  0.834291E+00  0.815843E+00
  0.793397E+00  0.767678E+00  0.799126E+00  0.777724E+00  0.755313E+00  0.733578E+00
  0.713258E+00  0.694728E+00  0.679514E+00  0.669691E+00  0.666361E+00  0.669691E+00
  0.679514E+00  0.694728E+00  0.713258E+00  0.733578E+00  0.755313E+00  0.777724E+00
  0.799126E+00  0.818415E+00  0.835572E+00  0.850264E+00  0.861147E+00  0.866972E+00
  0.867526E+00  0.863373E+00  0.855284E+00  0.844289E+00  0.832366E+00  0.822790E+00
  0.819076E+00  0.822790E+00  0.832366E+00  0.844289E+00  0.855284E+00  0.863373E+00
  0.867526E+00  0.866972E+00  0.861147E+00  0.850264E+00  0.835572E+00  0.818415E+00
  0.799126E+00  0.830375E+00  0.813794E+00  0.796329E+00  0.779172E+00  0.762759E+00
  0.747958E+00  0.736668E+00  0.730654E+00  0.730654E+00  0.736668E+00  0.747958E+00
  0.762759E+00  0.779172E+00  0.796329E+00  0.813794E+00  0.830375E+00  0.844862E+00
  0.857267E+00  0.868069E+00  0.876646E+00  0.881429E+00  0.881245E+00  0.875814E+00
  0.865327E+00  0.850303E+00  0.832366E+00  0.815292E+00  0.804584E+00  0.804584E+00
  0.815292E+00  0.832366E+00  0.850303E+00  0.865327E+00  0.875814E+00  0.881245E+00
  0.881429E+00  0.876646E+00  0.868069E+00  0.857267E+00  0.844862E+00  0.830375E+00
  0.857485E+00  0.844211E+00  0.830395E+00  0.816484E+00  0.802802E+00  0.790746E+00
  0.782459E+00  0.779529E+00  0.782459E+00  0.790746E+00  0.802802E+00  0.816484E+00
  0.830395E+00  0.844211E+00  0.857485E+00  0.869125E+00  0.878541E+00  0.886192E+00
  0.892386E+00  0.896254E+00  0.896349E+00  0.891621E+00  0.881525E+00  0.865837E+00
  0.845242E+00  0.822790E+00  0.804584E+00  0.797485E+00  0.804584E+00  0.822790E+00
  0.845242E+00  0.865837E+00  0.881525E+00  0.891621E+00  0.896349E+00  0.896254E+00
  0.892386E+00  0.886192E+00  0.878541E+00  0.869125E+00  0.857485E+00  0.879791E+00
  0.869220E+00  0.857711E+00  0.845200E+00  0.832564E+00  0.822024E+00  0.816039E+00
  0.816039E+00  0.822024E+00  0.832564E+00  0.845200E+00  0.857711E+00  0.869220E+00
  0.879791E+00  0.889205E+00  0.896872E+00  0.902697E+00  0.907074E+00  0.909914E+00
  0.910262E+00  0.906902E+00  0.898819E+00  0.885191E+00  0.865726E+00  0.842014E+00
  0.819076E+00  0.804584E+00  0.804584E+00  0.819076E+00  0.842014E+00  0.865726E+00
  0.885191E+00  0.898819E+00  0.906902E+00  0.910262E+00  0.909914E+00  0.907074E+00
  0.902697E+00  0.896872E+00  0.889205E+00  0.879791E+00  0.897899E+00  0.888457E+00
  0.876906E+00  0.863649E+00  0.850692E+00  0.841125E+00  0.837603E+00  0.841125E+00
  0.850692E+00  0.863649E+00  0.876906E+00  0.888457E+00  0.897899E+00  0.905593E+00
  0.911726E+00  0.916312E+00  0.919548E+00  0.921554E+00  0.921888E+00  0.919620E+00
  0.913714E+00  0.903133E+00  0.887013E+00  0.865612E+00  0.842014E+00  0.822790E+00
  0.815292E+00  0.822790E+00  0.842014E+00  0.865612E+00  0.887013E+00  0.903133E+00
  0.913714E+00  0.919620E+00  0.921888E+00  0.921554E+00  0.919548E+00  0.916312E+00
  0.911726E+00  0.905593E+00  0.897899E+00  0.910820E+00  0.900145E+00  0.886366E+00
  0.870887E+00  0.856974E+00  0.848647E+00  0.848647E+00  0.856974E+00  0.870887E+00
  0.886366E+00  0.900145E+00  0.910820E+00  0.918498E+00  0.923804E+00  0.927322E+00
  0.929550E+00  0.930811E+00  0.930951E+00  0.929303E+00  0.924990E+00  0.917075E+00
  0.904581E+00  0.887013E+00  0.865726E+00  0.845242E+00  0.832366E+00  0.832366E+00
  0.845242E+00  0.865726E+00  0.887013E+00  0.904581E+00  0.917075E+00  0.924990E+00
  0.929303E+00  0.930951E+00  0.930811E+00  0.929550E+00  0.927322E+00  0.923804E+00
  0.918498E+00  0.910820E+00  0.917075E+00  0.903133E+00  0.885191E+00  0.865837E+00
  0.850303E+00  0.844289E+00  0.850303E+00  0.865837E+00  0.885191E+00  0.903133E+00
  0.917075E+00  0.926741E+00  0.932840E+00  0.936214E+00  0.937698E+00  0.938075E+00
  0.937698E+00  0.936214E+00  0.932840E+00  0.926741E+00  0.917075E+00  0.903133E+00
  0.885191E+00  0.865837E+00  0.850303E+00  0.844289E+00  0.850303E+00  0.865837E+00
  0.885191E+00  0.903133E+00  0.917075E+00  0.926741E+00  0.932840E+00  0.936214E+00
  0.937698E+00  0.938075E+00  0.937698E+00  0.936214E+00  0.932840E+00  0.926741E+00
  0.917075E+00  0.915757E+00  0.895593E+00  0.869270E+00  0.841991E+00  0.823902E+00
  0.823902E+00  0.841991E+00  0.869270E+00  0.895593E+00  0.915757E+00  0.929344E+00
  0.937777E+00  0.942406E+00  0.944183E+00  0.944028E+00  0.942844E+00  0.940962E+00
  0.937907E+00  0.932840E+00  0.924990E+00  0.913714E+00  0.898819E+00  0.881525E+00
  0.865327E+00  0.855284E+00  0.855284E+00  0.865327E+00  0.881525E+00  0.898819E+00
  0.913714E+00  0.924990E+00  0.932840E+00  0.937907E+00  0.940962E+00  0.942844E+00
  0.944028E+00  0.944183E+00  0.942406E+00  0.937777E+00  0.929344E+00  0.915757E+00
  0.903361E+00  0.868461E+00  0.821954E+00  0.777995E+00  0.759459E+00  0.777995E+00
  0.821954E+00  0.868461E+00  0.903361E+00  0.925265E+00  0.937986E+00  0.945019E+00
  0.948250E+00  0.948624E+00  0.947028E+00  0.944378E+00  0.940962E+00  0.936214E+00
  0.929303E+00  0.919620E+00  0.906902E+00  0.891621E+00  0.875814E+00  0.863373E+00
  0.858585E+00  0.863373E+00  0.875814E+00  0.891621E+00  0.906902E+00  0.919620E+00
  0.929303E+00  0.936214E+00  0.940962E+00  0.944378E+00  0.947028E+00  0.948624E+00
  0.948250E+00  0.945019E+00  0.937986E+00  0.925265E+00  0.903361E+00  0.865110E+00
  0.790219E+00  0.695318E+00  0.625811E+00  0.625811E+00  0.695318E+00  0.790219E+00
  0.865110E+00  0.909209E+00  0.932065E+00  0.943552E+00  0.949135E+00  0.951023E+00
  0.950051E+00  0.947028E+00  0.942844E+00  0.937698E+00  0.930951E+00  0.921888E+00
  0.910262E+00  0.896349E+00  0.881245E+00  0.867526E+00  0.859078E+00  0.859078E+00
  0.867526E+00  0.881245E+00  0.896349E+00  0.910262E+00  0.921888E+00  0.930951E+00
  0.937698E+00  0.942844E+00  0.947028E+00  0.950051E+00  0.951023E+00  0.949135E+00
  0.943552E+00  0.932065E+00  0.909209E+00  0.865110E+00  0.752692E+00  0.578953E+00
  0.416158E+00  0.354535E+00  0.416158E+00  0.578953E+00  0.752692E+00  0.861526E+00
  0.913362E+00  0.936207E+00  0.946290E+00  0.950472E+00  0.951023E+00  0.948624E+00
  0.944028E+00  0.938075E+00  0.930811E+00  0.921554E+00  0.909914E+00  0.896254E+00
  0.881429E+00  0.866972E+00  0.855783E+00  0.851470E+00  0.855783E+00  0.866972E+00
  0.881429E+00  0.896254E+00  0.909914E+00  0.921554E+00  0.930811E+00  0.938075E+00
  0.944028E+00  0.948624E+00  0.951023E+00  0.950472E+00  0.946290E+00  0.936207E+00
  0.913362E+00  0.861526E+00  0.752692E+00  0.463322E+00  0.217618E+00  0.113677E+00
  0.113677E+00  0.217618E+00  0.463322E+00  0.720928E+00  0.859381E+00  0.915600E+00
  0.937604E+00  0.946290E+00  0.949135E+00  0.948250E+00  0.944183E+00  0.937698E+00
  0.929550E+00  0.919548E+00  0.907074E+00  0.892386E+00  0.876646E+00  0.861147E+00
  0.847717E+00  0.839508E+00  0.839508E+00  0.847717E+00  0.861147E+00  0.876646E+00
  0.892386E+00  0.907074E+00  0.919548E+00  0.929550E+00  0.937698E+00  0.944183E+00
  0.948250E+00  0.949135E+00  0.946290E+00  0.937604E+00  0.915600E+00  0.859381E+00
  0.720928E+00  0.463322E+00  0.111349E+00  0.251451E-01  0.123860E-01  0.251451E-01
  0.111349E+00  0.388599E+00  0.704060E+00  0.858780E+00  0.915600E+00  0.936207E+00
  0.943552E+00  0.945019E+00  0.942406E+00  0.936214E+00  0.927322E+00  0.916312E+00
  0.902697E+00  0.886192E+00  0.868069E+00  0.850264E+00  0.834291E+00  0.822339E+00
  0.817749E+00  0.822339E+00  0.834291E+00  0.850264E+00  0.868069E+00  0.886192E+00
  0.902697E+00  0.916312E+00  0.927322E+00  0.936214E+00  0.942406E+00  0.945019E+00
  0.943552E+00  0.936207E+00  0.915600E+00  0.858780E+00  0.704060E+00  0.388599E+00
  0.111349E+00  0.694926E-02  0.763328E-03  0.763328E-03  0.694926E-02  0.752096E-01
  0.364881E+00  0.704060E+00  0.859381E+00  0.913362E+00  0.932065E+00  0.937986E+00
  0.937777E+00  0.932840E+00  0.923804E+00  0.911726E+00  0.896872E+00  0.878541E+00
  0.857267E+00  0.835572E+00  0.815843E+00  0.799744E+00  0.790103E+00  0.790103E+00
  0.799744E+00  0.815843E+00  0.835572E+00  0.857267E+00  0.878541E+00  0.896872E+00
  0.911726E+00  0.923804E+00  0.932840E+00  0.937777E+00  0.937986E+00  0.932065E+00
  0.913362E+00  0.859381E+00  0.704060E+00  0.364881E+00  0.752096E-01  0.694926E-02
  0.786745E-04  0.494254E-05  0.786745E-04  0.426314E-02  0.752096E-01  0.388599E+00
  0.720928E+00  0.861526E+00  0.909209E+00  0.925265E+00  0.929344E+00  0.926741E+00
  0.918498E+00  0.905593E+00  0.889205E+00  0.869125E+00  0.844862E+00  0.818415E+00
  0.793397E+00  0.772161E+00  0.756812E+00  0.750976E+00  0.756812E+00  0.772161E+00
  0.793397E+00  0.818415E+00  0.844862E+00  0.869125E+00  0.889205E+00  0.905593E+00
  0.918498E+00  0.926741E+00  0.929344E+00  0.925265E+00  0.909209E+00  0.861526E+00
  0.720928E+00  0.388599E+00  0.752096E-01  0.426314E-02  0.786745E-04  0.130826E-06
  0.130826E-06  0.786745E-04  0.694926E-02  0.111349E+00  0.463322E+00  0.752692E+00
  0.865110E+00  0.903361E+00  0.915757E+00  0.917075E+00  0.910820E+00  0.897899E+00
  0.879791E+00  0.857485E+00  0.830375E+00  0.799126E+00  0.767678E+00  0.740010E+00
  0.718204E+00  0.705360E+00  0.705360E+00  0.718204E+00  0.740010E+00  0.767678E+00
  0.799126E+00  0.830375E+00  0.857485E+00  0.879791E+00  0.897899E+00  0.910820E+00
  0.917075E+00  0.915757E+00  0.903361E+00  0.865110E+00  0.752692E+00  0.463322E+00
  0.111349E+00  0.694926E-02  0.786745E-04  0.130826E-06  0.994835E-10  0.130826E-06
  0.251523E-03  0.162960E-01  0.184365E+00  0.555030E+00  0.783885E+00  0.867806E+00
  0.896485E+00  0.904581E+00  0.901992E+00  0.890710E+00  0.871845E+00  0.847178E+00
  0.817138E+00  0.781454E+00  0.743123E+00  0.707659E+00  0.678452E+00  0.657793E+00
  0.650001E+00  0.657793E+00  0.678452E+00  0.707659E+00  0.743123E+00  0.781454E+00
  0.817138E+00  0.847178E+00  0.871845E+00  0.890710E+00  0.901992E+00  0.904581E+00
  0.896485E+00  0.867806E+00  0.783885E+00  0.555030E+00  0.184365E+00  0.162960E-01
  0.251523E-03  0.130826E-06  0.994835E-10  0.130826E-06  0.331649E-04  0.320998E-02
  0.628891E-01  0.340468E+00  0.662403E+00  0.813633E+00  0.868573E+00  0.887013E+00
  0.889466E+00  0.881083E+00  0.862883E+00  0.836424E+00  0.803188E+00  0.763046E+00
  0.717638E+00  0.673034E+00  0.634974E+00  0.605827E+00  0.588943E+00  0.588943E+00
  0.605827E+00  0.634974E+00  0.673034E+00  0.717638E+00  0.763046E+00  0.803188E+00
  0.836424E+00  0.862883E+00  0.881083E+00  0.889466E+00  0.887013E+00  0.868573E+00
  0.813633E+00  0.662403E+00  0.340468E+00  0.628891E-01  0.320998E-02  0.331649E-04
  0.130826E-06  0.130826E-06  0.251523E-03  0.320998E-02  0.383526E-01  0.224906E+00
  0.545248E+00  0.750279E+00  0.834759E+00  0.865726E+00  0.873920E+00  0.868861E+00
  0.852350E+00  0.825316E+00  0.789479E+00  0.745330E+00  0.693413E+00  0.639113E+00
  0.590561E+00  0.551933E+00  0.525357E+00  0.515483E+00  0.525357E+00  0.551933E+00
  0.590561E+00  0.639113E+00  0.693413E+00  0.745330E+00  0.789479E+00  0.825316E+00
  0.852350E+00  0.868861E+00  0.873920E+00  0.865726E+00  0.834759E+00  0.750279E+00
  0.545248E+00  0.224906E+00  0.383526E-01  0.320998E-02  0.251523E-03  0.786745E-04
  0.251523E-03  0.162960E-01  0.628891E-01  0.224906E+00  0.497572E+00  0.705363E+00
  0.805035E+00  0.845242E+00  0.858014E+00  0.855510E+00  0.840541E+00  0.813565E+00
  0.775934E+00  0.728674E+00  0.671757E+00  0.608913E+00  0.549350E+00  0.500266E+00
  0.463843E+00  0.443280E+00  0.443280E+00  0.463843E+00  0.500266E+00  0.549350E+00
  0.608913E+00  0.671757E+00  0.728674E+00  0.775934E+00  0.813565E+00  0.840541E+00
  0.855510E+00  0.858014E+00  0.845242E+00  0.805035E+00  0.705363E+00  0.497572E+00
  0.224906E+00  0.628891E-01  0.162960E-01  0.694926E-02  0.694926E-02  0.162960E-01
  0.184365E+00  0.340468E+00  0.545248E+00  0.705363E+00  0.792954E+00  0.832366E+00
  0.845901E+00  0.843999E+00  0.829402E+00  0.802094E+00  0.762783E+00  0.712770E+00
  0.652157E+00  0.583011E+00  0.513817E+00  0.454340E+00  0.408431E+00  0.377787E+00
  0.366662E+00  0.377787E+00  0.408431E+00  0.454340E+00  0.513817E+00  0.583011E+00
  0.652157E+00  0.712770E+00  0.762783E+00  0.802094E+00  0.829402E+00  0.843999E+00
  0.845901E+00  0.832366E+00  0.792954E+00  0.705363E+00  0.545248E+00  0.340468E+00
  0.184365E+00  0.111349E+00  0.924047E-01  0.111349E+00  0.184365E+00  0.555030E+00
  0.662403E+00  0.750279E+00  0.805035E+00  0.832366E+00  0.841364E+00  0.837372E+00
  0.821545E+00  0.793042E+00  0.751702E+00  0.698642E+00  0.634458E+00  0.560514E+00
  0.483816E+00  0.415170E+00  0.360708E+00  0.321634E+00  0.300356E+00  0.300356E+00
  0.321634E+00  0.360708E+00  0.415170E+00  0.483816E+00  0.560514E+00  0.634458E+00
  0.698642E+00  0.751702E+00  0.793042E+00  0.821545E+00  0.837372E+00  0.841364E+00
  0.832366E+00  0.805035E+00  0.750279E+00  0.662403E+00  0.555030E+00  0.463322E+00
  0.414598E+00  0.414598E+00  0.463322E+00  0.555030E+00  0.783885E+00  0.813633E+00
  0.834759E+00  0.845242E+00  0.845901E+00  0.837372E+00  0.818748E+00  0.788194E+00
  0.744625E+00  0.688468E+00  0.620460E+00  0.542026E+00  0.459218E+00  0.382801E+00
  0.320781E+00  0.274993E+00  0.245980E+00  0.235866E+00  0.245980E+00  0.274993E+00
  0.320781E+00  0.382801E+00  0.459218E+00  0.542026E+00  0.620460E+00  0.688468E+00
  0.744625E+00  0.788194E+00  0.818748E+00  0.837372E+00  0.845901E+00  0.845242E+00
  0.834759E+00  0.813633E+00  0.783885E+00  0.752692E+00  0.729812E+00  0.721640E+00
  0.729812E+00  0.752692E+00  0.783885E+00  0.867806E+00  0.868573E+00  0.865726E+00
  0.858014E+00  0.843999E+00  0.821545E+00  0.788194E+00  0.742273E+00  0.683457E+00
  0.612065E+00  0.529505E+00  0.441462E+00  0.358416E+00  0.289519E+00  0.237906E+00
  0.203313E+00  0.185748E+00  0.185748E+00  0.203313E+00  0.237906E+00  0.289519E+00
  0.358416E+00  0.441462E+00  0.529505E+00  0.612065E+00  0.683457E+00  0.742273E+00
  0.788194E+00  0.821545E+00  0.843999E+00  0.858014E+00  0.865726E+00  0.868573E+00
  0.867806E+00  0.865110E+00  0.862387E+00  0.860868E+00  0.860868E+00  0.862387E+00
  0.865110E+00  0.867806E+00  0.896485E+00  0.887013E+00  0.873920E+00  0.855510E+00
  0.829402E+00  0.793042E+00  0.744625E+00  0.683457E+00  0.609407E+00  0.523636E+00
  0.431556E+00  0.343291E+00  0.268374E+00  0.211179E+00  0.171875E+00  0.149139E+00
  0.141725E+00  0.149139E+00  0.171875E+00  0.211179E+00  0.268374E+00  0.343291E+00
  0.431556E+00  0.523636E+00  0.609407E+00  0.683457E+00  0.744625E+00  0.793042E+00
  0.829402E+00  0.855510E+00  0.873920E+00  0.887013E+00  0.896485E+00  0.903361E+00
  0.908190E+00  0.911146E+00  0.912156E+00  0.911146E+00  0.908190E+00  0.903361E+00
  0.896485E+00  0.904581E+00  0.889466E+00  0.868861E+00  0.840541E+00  0.802094E+00
  0.751702E+00  0.688468E+00  0.612065E+00  0.523636E+00  0.428559E+00  0.336644E+00
  0.257171E+00  0.194964E+00  0.151066E+00  0.124122E+00  0.111615E+00  0.111615E+00
  0.124122E+00  0.151066E+00  0.194964E+00  0.257171E+00  0.336644E+00  0.428559E+00
  0.523636E+00  0.612065E+00  0.688468E+00  0.751702E+00  0.802094E+00  0.840541E+00
  0.868861E+00  0.889466E+00  0.904581E+00  0.915757E+00  0.923845E+00  0.929192E+00
  0.931873E+00  0.931873E+00  0.929192E+00  0.923845E+00  0.915757E+00  0.904581E+00
  0.901992E+00  0.881083E+00  0.852350E+00  0.813565E+00  0.762783E+00  0.698642E+00
  0.620460E+00  0.529505E+00  0.431556E+00  0.336644E+00  0.253862E+00  0.187755E+00
  0.139645E+00  0.108730E+00  0.922641E-01  0.872067E-01  0.922641E-01  0.108730E+00
  0.139645E+00  0.187755E+00  0.253862E+00  0.336644E+00  0.431556E+00  0.529505E+00
  0.620460E+00  0.698642E+00  0.762783E+00  0.813565E+00  0.852350E+00  0.881083E+00
  0.901992E+00  0.917075E+00  0.927781E+00  0.934999E+00  0.939195E+00  0.940576E+00
  0.939195E+00  0.934999E+00  0.927781E+00  0.917075E+00  0.901992E+00  0.890710E+00
  0.862883E+00  0.825316E+00  0.775934E+00  0.712770E+00  0.634458E+00  0.542026E+00
  0.441462E+00  0.343291E+00  0.257171E+00  0.187755E+00  0.136077E+00  0.101444E+00
  0.813843E-01  0.725201E-01  0.725201E-01  0.813843E-01  0.101444E+00  0.136077E+00
  0.187755E+00  0.257171E+00  0.343291E+00  0.441462E+00  0.542026E+00  0.634458E+00
  0.712770E+00  0.775934E+00  0.825316E+00  0.862883E+00  0.890710E+00  0.910820E+00
  0.924990E+00  0.934591E+00  0.940551E+00  0.943411E+00  0.943411E+00  0.940551E+00
  0.934591E+00  0.924990E+00  0.910820E+00  0.890710E+00  0.871845E+00  0.836424E+00
  0.789479E+00  0.728674E+00  0.652157E+00  0.560514E+00  0.459218E+00  0.358416E+00
  0.268374E+00  0.194964E+00  0.139645E+00  0.101444E+00  0.778605E-01  0.655740E-01
  0.618261E-01  0.655740E-01  0.778605E-01  0.101444E+00  0.139645E+00  0.194964E+00
  0.268374E+00  0.358416E+00  0.459218E+00  0.560514E+00  0.652157E+00  0.728674E+00
  0.789479E+00  0.836424E+00  0.871845E+00  0.897899E+00  0.916503E+00  0.929303E+00
  0.937586E+00  0.942229E+00  0.943725E+00  0.942229E+00  0.937586E+00  0.929303E+00
  0.916503E+00  0.897899E+00  0.871845E+00  0.847178E+00  0.803188E+00  0.745330E+00
  0.671757E+00  0.583011E+00  0.483816E+00  0.382801E+00  0.289519E+00  0.211179E+00
  0.151066E+00  0.108730E+00  0.813843E-01  0.655740E-01  0.584434E-01  0.584434E-01
  0.655740E-01  0.813843E-01  0.108730E+00  0.151066E+00  0.211179E+00  0.289519E+00
  0.382801E+00  0.483816E+00  0.583011E+00  0.671757E+00  0.745330E+00  0.803188E+00
  0.847178E+00  0.879791E+00  0.903363E+00  0.919885E+00  0.930951E+00  0.937725E+00
  0.940938E+00  0.940938E+00  0.937725E+00  0.930951E+00  0.919885E+00  0.903363E+00
  0.879791E+00  0.847178E+00  0.817138E+00  0.763046E+00  0.693413E+00  0.608913E+00
  0.513817E+00  0.415170E+00  0.320781E+00  0.237906E+00  0.171875E+00  0.124122E+00
  0.922641E-01  0.725201E-01  0.618261E-01  0.584434E-01  0.618261E-01  0.725201E-01
  0.922641E-01  0.124122E+00  0.171875E+00  0.237906E+00  0.320781E+00  0.415170E+00
  0.513817E+00  0.608913E+00  0.693413E+00  0.763046E+00  0.817138E+00  0.857485E+00
  0.886743E+00  0.907443E+00  0.921634E+00  0.930811E+00  0.935958E+00  0.937617E+00
  0.935958E+00  0.930811E+00  0.921634E+00  0.907443E+00  0.886743E+00  0.857485E+00
  0.817138E+00  0.781454E+00  0.717638E+00  0.639113E+00  0.549350E+00  0.454340E+00
  0.360708E+00  0.274993E+00  0.203313E+00  0.149139E+00  0.111615E+00  0.872067E-01
  0.725201E-01  0.655740E-01  0.655740E-01  0.725201E-01  0.872067E-01  0.111615E+00
  0.149139E+00  0.203313E+00  0.274993E+00  0.360708E+00  0.454340E+00  0.549350E+00
  0.639113E+00  0.717638E+00  0.781454E+00  0.830375E+00  0.866391E+00  0.892167E+00
  0.910135E+00  0.922167E+00  0.929550E+00  0.933061E+00  0.933061E+00  0.929550E+00
  0.922167E+00  0.910135E+00  0.892167E+00  0.866391E+00  0.830375E+00  0.781454E+00
  0.743123E+00  0.673034E+00  0.590561E+00  0.500266E+00  0.408431E+00  0.321634E+00
  0.245980E+00  0.185748E+00  0.141725E+00  0.111615E+00  0.922641E-01  0.813843E-01
  0.778605E-01  0.813843E-01  0.922641E-01  0.111615E+00  0.141725E+00  0.185748E+00
  0.245980E+00  0.321634E+00  0.408431E+00  0.500266E+00  0.590561E+00  0.673034E+00
  0.743123E+00  0.799126E+00  0.841850E+00  0.873354E+00  0.895915E+00  0.911506E+00
  0.921634E+00  0.927322E+00  0.929155E+00  0.927322E+00  0.921634E+00  0.911506E+00
  0.895915E+00  0.873354E+00  0.841850E+00  0.799126E+00  0.743123E+00  0.707659E+00
  0.634974E+00  0.551933E+00  0.463843E+00  0.377787E+00  0.300356E+00  0.235866E+00
  0.185748E+00  0.149139E+00  0.124122E+00  0.108730E+00  0.101444E+00  0.101444E+00
  0.108730E+00  0.124122E+00  0.149139E+00  0.185748E+00  0.235866E+00  0.300356E+00
  0.377787E+00  0.463843E+00  0.551933E+00  0.634974E+00  0.707659E+00  0.767678E+00
  0.815211E+00  0.851685E+00  0.878847E+00  0.898358E+00  0.911660E+00  0.919885E+00
  0.923804E+00  0.923804E+00  0.919885E+00  0.911660E+00  0.898358E+00  0.878847E+00
  0.851685E+00  0.815211E+00  0.767678E+00  0.707659E+00  0.678452E+00  0.605827E+00
  0.525357E+00  0.443280E+00  0.366662E+00  0.300356E+00  0.245980E+00  0.203313E+00
  0.171875E+00  0.151066E+00  0.139645E+00  0.136077E+00  0.139645E+00  0.151066E+00
  0.171875E+00  0.203313E+00  0.245980E+00  0.300356E+00  0.366662E+00  0.443280E+00
  0.525357E+00  0.605827E+00  0.678452E+00  0.740010E+00  0.790112E+00  0.829785E+00
  0.860388E+00  0.883233E+00  0.899533E+00  0.910350E+00  0.916503E+00  0.918498E+00
  0.916503E+00  0.910350E+00  0.899533E+00  0.883233E+00  0.860388E+00  0.829785E+00
  0.790112E+00  0.740010E+00  0.678452E+00  0.657793E+00  0.588943E+00  0.515483E+00
  0.443280E+00  0.377787E+00  0.321634E+00  0.274993E+00  0.237906E+00  0.211179E+00
  0.194964E+00  0.187755E+00  0.187755E+00  0.194964E+00  0.211179E+00  0.237906E+00
  0.274993E+00  0.321634E+00  0.377787E+00  0.443280E+00  0.515483E+00  0.588943E+00
  0.657793E+00  0.718204E+00  0.768851E+00  0.809983E+00  0.842470E+00  0.867364E+00
  0.885756E+00  0.898654E+00  0.906842E+00  0.910820E+00  0.910820E+00  0.906842E+00
  0.898654E+00  0.885756E+00  0.867364E+00  0.842470E+00  0.809983E+00  0.768851E+00
  0.718204E+00  0.657793E+00  0.650001E+00  0.588943E+00  0.525357E+00  0.463843E+00
  0.408431E+00  0.360708E+00  0.320781E+00  0.289519E+00  0.268374E+00  0.257171E+00
  0.253862E+00  0.257171E+00  0.268374E+00  0.289519E+00  0.320781E+00  0.360708E+00
  0.408431E+00  0.463843E+00  0.525357E+00  0.588943E+00  0.650001E+00  0.705360E+00
  0.753494E+00  0.793862E+00  0.826500E+00  0.851943E+00  0.871116E+00  0.885046E+00
  0.894561E+00  0.900145E+00  0.901992E+00  0.900145E+00  0.894561E+00  0.885046E+00
  0.871116E+00  0.851943E+00  0.826500E+00  0.793862E+00  0.753494E+00  0.705360E+00
  0.650001E+00  0.657793E+00  0.605827E+00  0.551933E+00  0.500266E+00  0.454340E+00
  0.415170E+00  0.382801E+00  0.358416E+00  0.343291E+00  0.336644E+00  0.336644E+00
  0.343291E+00  0.358416E+00  0.382801E+00  0.415170E+00  0.454340E+00  0.500266E+00
  0.551933E+00  0.605827E+00  0.657793E+00  0.705360E+00  0.747656E+00  0.784218E+00
  0.814591E+00  0.838692E+00  0.857044E+00  0.870561E+00  0.880140E+00  0.886366E+00
  0.889466E+00  0.889466E+00  0.886366E+00  0.880140E+00  0.870561E+00  0.857044E+00
  0.838692E+00  0.814591E+00  0.784218E+00  0.747656E+00  0.705360E+00  0.657793E+00
  0.678452E+00  0.634974E+00  0.590561E+00  0.549350E+00  0.513817E+00  0.483816E+00
  0.459218E+00  0.441462E+00  0.431556E+00  0.428559E+00  0.431556E+00  0.441462E+00
  0.459218E+00  0.483816E+00  0.513817E+00  0.549350E+00  0.590561E+00  0.634974E+00
  0.678452E+00  0.718204E+00  0.753494E+00  0.784218E+00  0.810027E+00  0.830641E+00
  0.846287E+00  0.857663E+00  0.865620E+00  0.870887E+00  0.873920E+00  0.874916E+00
  0.873920E+00  0.870887E+00  0.865620E+00  0.857663E+00  0.846287E+00  0.830641E+00
  0.810027E+00  0.784218E+00  0.753494E+00  0.718204E+00  0.678452E+00  0.707659E+00
  0.673034E+00  0.639113E+00  0.608913E+00  0.583011E+00  0.560514E+00  0.542026E+00
  0.529505E+00  0.523636E+00  0.523636E+00  0.529505E+00  0.542026E+00  0.560514E+00
  0.583011E+00  0.608913E+00  0.639113E+00  0.673034E+00  0.707659E+00  0.740010E+00
  0.768851E+00  0.793862E+00  0.814591E+00  0.830641E+00  0.842175E+00  0.849857E+00
  0.854517E+00  0.856974E+00  0.858014E+00  0.858323E+00  0.858323E+00  0.858014E+00
  0.856974E+00  0.854517E+00  0.849857E+00  0.842175E+00  0.830641E+00  0.814591E+00
  0.793862E+00  0.768851E+00  0.740010E+00  0.707659E+00  0.743123E+00  0.717638E+00
  0.693413E+00  0.671757E+00  0.652157E+00  0.634458E+00  0.620460E+00  0.612065E+00
  0.609407E+00  0.612065E+00  0.620460E+00  0.634458E+00  0.652157E+00  0.671757E+00
  0.693413E+00  0.717638E+00  0.743123E+00  0.767678E+00  0.790112E+00  0.809983E+00
  0.826500E+00  0.838692E+00  0.846287E+00  0.849857E+00  0.850325E+00  0.848647E+00
  0.845901E+00  0.843404E+00  0.842395E+00  0.843404E+00  0.845901E+00  0.848647E+00
  0.850325E+00  0.849857E+00  0.846287E+00  0.838692E+00  0.826500E+00  0.809983E+00
  0.790112E+00  0.767678E+00  0.743123E+00  0.781454E+00  0.763046E+00  0.745330E+00
  0.728674E+00  0.712770E+00  0.698642E+00  0.688468E+00  0.683457E+00  0.683457E+00
  0.688468E+00  0.698642E+00  0.712770E+00  0.728674E+00  0.745330E+00  0.763046E+00
  0.781454E+00  0.799126E+00  0.815211E+00  0.829785E+00  0.842470E+00  0.851943E+00
  0.857044E+00  0.857663E+00  0.854517E+00  0.848647E+00  0.841364E+00  0.834502E+00
  0.830264E+00  0.830264E+00  0.834502E+00  0.841364E+00  0.848647E+00  0.854517E+00
  0.857663E+00  0.857044E+00  0.851943E+00  0.842470E+00  0.829785E+00  0.815211E+00
  0.799126E+00  0.781454E+00  0.817138E+00  0.803188E+00  0.789479E+00  0.775934E+00
  0.762783E+00  0.751702E+00  0.744625E+00  0.742273E+00  0.744625E+00  0.751702E+00
  0.762783E+00  0.775934E+00  0.789479E+00  0.803188E+00  0.817138E+00  0.830375E+00
  0.841850E+00  0.851685E+00  0.860388E+00  0.867364E+00  0.871116E+00  0.870561E+00
  0.865620E+00  0.856974E+00  0.845901E+00  0.834502E+00  0.825711E+00  0.822375E+00
  0.825711E+00  0.834502E+00  0.845901E+00  0.856974E+00  0.865620E+00  0.870561E+00
  0.871116E+00  0.867364E+00  0.860388E+00  0.851685E+00  0.841850E+00  0.830375E+00
  0.817138E+00  0.847178E+00  0.836424E+00  0.825316E+00  0.813565E+00  0.802094E+00
  0.793042E+00  0.788194E+00  0.788194E+00  0.793042E+00  0.802094E+00  0.813565E+00
  0.825316E+00  0.836424E+00  0.847178E+00  0.857485E+00  0.866391E+00  0.873354E+00
  0.878847E+00  0.883233E+00  0.885756E+00  0.885046E+00  0.880140E+00  0.870887E+00
  0.858014E+00  0.843404E+00  0.830264E+00  0.822375E+00  0.822375E+00  0.830264E+00
  0.843404E+00  0.858014E+00  0.870887E+00  0.880140E+00  0.885046E+00  0.885756E+00
  0.883233E+00  0.878847E+00  0.873354E+00  0.866391E+00  0.857485E+00  0.847178E+00
  0.871845E+00  0.862883E+00  0.852350E+00  0.840541E+00  0.829402E+00  0.821545E+00
  0.818748E+00  0.821545E+00  0.829402E+00  0.840541E+00  0.852350E+00  0.862883E+00
  0.871845E+00  0.879791E+00  0.886743E+00  0.892167E+00  0.895915E+00  0.898358E+00
  0.899533E+00  0.898654E+00  0.894561E+00  0.886366E+00  0.873920E+00  0.858323E+00
  0.842395E+00  0.830264E+00  0.825711E+00  0.830264E+00  0.842395E+00  0.858323E+00
  0.873920E+00  0.886366E+00  0.894561E+00  0.898654E+00  0.899533E+00  0.898358E+00
  0.895915E+00  0.892167E+00  0.886743E+00  0.879791E+00  0.871845E+00  0.890710E+00
  0.881083E+00  0.868861E+00  0.855510E+00  0.843999E+00  0.837372E+00  0.837372E+00
  0.843999E+00  0.855510E+00  0.868861E+00  0.881083E+00  0.890710E+00  0.897899E+00
  0.903363E+00  0.907443E+00  0.910135E+00  0.911506E+00  0.911660E+00  0.910350E+00
  0.906842E+00  0.900145E+00  0.889466E+00  0.874916E+00  0.858323E+00  0.843404E+00
  0.834502E+00  0.834502E+00  0.843404E+00  0.858323E+00  0.874916E+00  0.889466E+00
  0.900145E+00  0.906842E+00  0.910350E+00  0.911660E+00  0.911506E+00  0.910135E+00
  0.907443E+00  0.903363E+00  0.897899E+00  0.890710E+00  0.901992E+00  0.889466E+00
  0.873920E+00  0.858014E+00  0.845901E+00  0.841364E+00  0.845901E+00  0.858014E+00
  0.873920E+00  0.889466E+00  0.901992E+00  0.910820E+00  0.916503E+00  0.919885E+00
  0.921634E+00  0.922167E+00  0.921634E+00  0.919885E+00  0.916503E+00  0.910820E+00
  0.901992E+00  0.889466E+00  0.873920E+00  0.858014E+00  0.845901E+00  0.841364E+00
  0.845901E+00  0.858014E+00  0.873920E+00  0.889466E+00  0.901992E+00  0.910820E+00
  0.916503E+00  0.919885E+00  0.921634E+00  0.922167E+00  0.921634E+00  0.919885E+00
  0.916503E+00  0.910820E+00  0.901992E+00  0.904581E+00  0.887013E+00  0.865726E+00
  0.845242E+00  0.832366E+00  0.832366E+00  0.845242E+00  0.865726E+00  0.887013E+00
  0.904581E+00  0.917075E+00  0.924990E+00  0.929303E+00  0.930951E+00  0.930811E+00
  0.929550E+00  0.927322E+00  0.923804E+00  0.918498E+00  0.910820E+00  0.900145E+00
  0.886366E+00  0.870887E+00  0.856974E+00  0.848647E+00  0.848647E+00  0.856974E+00
  0.870887E+00  0.886366E+00  0.900145E+00  0.910820E+00  0.918498E+00  0.923804E+00
  0.927322E+00  0.929550E+00  0.930811E+00  0.930951E+00  0.929303E+00  0.924990E+00
  0.917075E+00  0.904581E+00  0.896485E+00  0.868573E+00  0.834759E+00  0.805035E+00
  0.792954E+00  0.805035E+00  0.834759E+00  0.868573E+00  0.896485E+00  0.915757E+00
  0.927781E+00  0.934591E+00  0.937586E+00  0.937725E+00  0.935958E+00  0.933061E+00
  0.929155E+00  0.923804E+00  0.916503E+00  0.906842E+00  0.894561E+00  0.880140E+00
  0.865620E+00  0.854517E+00  0.850325E+00  0.854517E+00  0.865620E+00  0.880140E+00
  0.894561E+00  0.906842E+00  0.916503E+00  0.923804E+00  0.929155E+00  0.933061E+00
  0.935958E+00  0.937725E+00  0.937586E+00  0.934591E+00  0.927781E+00  0.915757E+00
  0.896485E+00  0.867806E+00  0.813633E+00  0.750279E+00  0.705363E+00  0.705363E+00
  0.750279E+00  0.813633E+00  0.867806E+00  0.903361E+00  0.923845E+00  0.934999E+00
  0.940551E+00  0.942229E+00  0.940938E+00  0.937617E+00  0.933061E+00  0.927322E+00
  0.919885E+00  0.910350E+00  0.898654E+00  0.885046E+00  0.870561E+00  0.857663E+00
  0.849857E+00  0.849857E+00  0.857663E+00  0.870561E+00  0.885046E+00  0.898654E+00
  0.910350E+00  0.919885E+00  0.927322E+00  0.933061E+00  0.937617E+00  0.940938E+00
  0.942229E+00  0.940551E+00  0.934999E+00  0.923845E+00  0.903361E+00  0.867806E+00
  0.783885E+00  0.662403E+00  0.545248E+00  0.497572E+00  0.545248E+00  0.662403E+00
  0.783885E+00  0.865110E+00  0.908190E+00  0.929192E+00  0.939195E+00  0.943411E+00
  0.943725E+00  0.940938E+00  0.935958E+00  0.929550E+00  0.921634E+00  0.911660E+00
  0.899533E+00  0.885756E+00  0.871116E+00  0.857044E+00  0.846287E+00  0.842175E+00
  0.846287E+00  0.857044E+00  0.871116E+00  0.885756E+00  0.899533E+00  0.911660E+00
  0.921634E+00  0.929550E+00  0.935958E+00  0.940938E+00  0.943725E+00  0.943411E+00
  0.939195E+00  0.929192E+00  0.908190E+00  0.865110E+00  0.783885E+00  0.555030E+00
  0.340468E+00  0.224906E+00  0.224906E+00  0.340468E+00  0.555030E+00  0.752692E+00
  0.862387E+00  0.911146E+00  0.931873E+00  0.940576E+00  0.943411E+00  0.942229E+00
  0.937725E+00  0.930811E+00  0.922167E+00  0.911506E+00  0.898358E+00  0.883233E+00
  0.867364E+00  0.851943E+00  0.838692E+00  0.830641E+00  0.830641E+00  0.838692E+00
  0.851943E+00  0.867364E+00  0.883233E+00  0.898358E+00  0.911506E+00  0.922167E+00
  0.930811E+00  0.937725E+00  0.942229E+00  0.943411E+00  0.940576E+00  0.931873E+00
  0.911146E+00  0.862387E+00  0.752692E+00  0.555030E+00  0.184365E+00  0.628891E-01
  0.383526E-01  0.628891E-01  0.184365E+00  0.463322E+00  0.729812E+00  0.860868E+00
  0.912156E+00  0.931873E+00  0.939195E+00  0.940551E+00  0.937586E+00  0.930951E+00
  0.921634E+00  0.910135E+00  0.895915E+00  0.878847E+00  0.860388E+00  0.842470E+00
  0.826500E+00  0.814591E+00  0.810027E+00  0.814591E+00  0.826500E+00  0.842470E+00
  0.860388E+00  0.878847E+00  0.895915E+00  0.910135E+00  0.921634E+00  0.930951E+00
  0.937586E+00  0.940551E+00  0.939195E+00  0.931873E+00  0.912156E+00  0.860868E+00
  0.729812E+00  0.463322E+00  0.184365E+00  0.162960E-01  0.320998E-02  0.320998E-02
  0.162960E-01  0.111349E+00  0.414598E+00  0.721640E+00  0.860868E+00  0.911146E+00
  0.929192E+00  0.934999E+00  0.934591E+00  0.929303E+00  0.919885E+00  0.907443E+00
  0.892167E+00  0.873354E+00  0.851685E+00  0.829785E+00  0.809983E+00  0.793862E+00
  0.784218E+00  0.784218E+00  0.793862E+00  0.809983E+00  0.829785E+00  0.851685E+00
  0.873354E+00  0.892167E+00  0.907443E+00  0.919885E+00  0.929303E+00  0.934591E+00
  0.934999E+00  0.929192E+00  0.911146E+00  0.860868E+00  0.721640E+00  0.414598E+00
  0.111349E+00  0.162960E-01  0.251523E-03  0.331649E-04  0.251523E-03  0.694926E-02
  0.924047E-01  0.414598E+00  0.729812E+00  0.862387E+00  0.908190E+00  0.923845E+00
  0.927781E+00  0.924990E+00  0.916503E+00  0.903363E+00  0.886743E+00  0.866391E+00
  0.841850E+00  0.815211E+00  0.790112E+00  0.768851E+00  0.753494E+00  0.747656E+00
  0.753494E+00  0.768851E+00  0.790112E+00  0.815211E+00  0.841850E+00  0.866391E+00
  0.886743E+00  0.903363E+00  0.916503E+00  0.924990E+00  0.927781E+00  0.923845E+00
  0.908190E+00  0.862387E+00  0.729812E+00  0.414598E+00  0.924047E-01  0.694926E-02
  0.251523E-03  0.130826E-06  0.130826E-06  0.786745E-04  0.694926E-02  0.111349E+00
  0.463322E+00  0.752692E+00  0.865110E+00  0.903361E+00  0.915757E+00  0.917075E+00
  0.910820E+00  0.897899E+00  0.879791E+00  0.857485E+00  0.830375E+00  0.799126E+00
  0.767678E+00  0.740010E+00  0.718204E+00  0.705360E+00  0.705360E+00  0.718204E+00
  0.740010E+00  0.767678E+00  0.799126E+00  0.830375E+00  0.857485E+00  0.879791E+00
  0.897899E+00  0.910820E+00  0.917075E+00  0.915757E+00  0.903361E+00  0.865110E+00
  0.752692E+00  0.463322E+00  0.111349E+00  0.694926E-02  0.786745E-04  0.130826E-06
  0.994835E-10  0.130826E-06  0.251523E-03  0.162960E-01  0.184365E+00  0.555030E+00
  0.783885E+00  0.867806E+00  0.896485E+00  0.904581E+00  0.901992E+00  0.890710E+00
  0.871845E+00  0.847178E+00  0.817138E+00  0.781454E+00  0.743123E+00  0.707659E+00
  0.678452E+00  0.657793E+00  0.650001E+00  0.657793E+00  0.678452E+00  0.707659E+00
  0.743123E+00  0.781454E+00  0.817138E+00  0.847178E+00  0.871845E+00  0.890710E+00
  0.901992E+00  0.904581E+00  0.896485E+00  0.867806E+00  0.783885E+00  0.555030E+00
  0.184365E+00  0.162960E-01  0.251523E-03  0.130826E-06  0.994835E-10
END_DATAGRID_3D
END_BLOCK_DATAGRID_3D
