 CRYSTAL
 PRIMVEC
   -2.831098078    0.000000000    2.831098078
    0.000000000    2.831098078    2.831098078
   -2.831098078    2.831098078    0.000000000
 PRIMCOORD
           2           1
Ge        0.000000000    0.000000000    0.000000000
Ge        1.415549039    1.415549039    1.415549039
BEGIN_BLOCK_DATAGRID_3D
3D_PWSCF
BEGIN_DATAGRID_3D_UNKNOWN
          41          41          41
  0.000000  0.000000  0.000000
   -2.831098    0.000000    2.831098
    0.000000    2.831098    2.831098
   -2.831098    2.831098    0.000000
  0.127591E-04  0.124746E-03  0.144769E-02  0.666228E-02  0.180896E-01  0.342465E-01
  0.495863E-01  0.588714E-01  0.608584E-01  0.575969E-01  0.517947E-01  0.453714E-01
  0.393736E-01  0.342586E-01  0.301182E-01  0.268656E-01  0.243794E-01  0.225592E-01
  0.213229E-01  0.206061E-01  0.203709E-01  0.206061E-01  0.213229E-01  0.225592E-01
  0.243794E-01  0.268656E-01  0.301182E-01  0.342586E-01  0.393736E-01  0.453714E-01
  0.517947E-01  0.575969E-01  0.608584E-01  0.588714E-01  0.495863E-01  0.342465E-01
  0.180896E-01  0.666228E-02  0.144769E-02  0.124746E-03  0.127591E-04  0.124746E-03
  0.785995E-03  0.395318E-02  0.122797E-01  0.262321E-01  0.419489E-01  0.536934E-01
  0.583896E-01  0.568829E-01  0.517906E-01  0.453993E-01  0.390877E-01  0.335312E-01
  0.289549E-01  0.253260E-01  0.225217E-01  0.204255E-01  0.189441E-01  0.180005E-01
  0.175410E-01  0.175410E-01  0.180005E-01  0.189441E-01  0.204255E-01  0.225217E-01
  0.253260E-01  0.289549E-01  0.335312E-01  0.390877E-01  0.453993E-01  0.517906E-01
  0.568829E-01  0.583896E-01  0.536934E-01  0.419489E-01  0.262321E-01  0.122797E-01
  0.395318E-02  0.785995E-03  0.124746E-03  0.124746E-03  0.144769E-02  0.395318E-02
  0.104605E-01  0.221104E-01  0.366729E-01  0.491626E-01  0.556429E-01  0.557180E-01
  0.514845E-01  0.453305E-01  0.388818E-01  0.330090E-01  0.280717E-01  0.241118E-01
  0.210236E-01  0.186802E-01  0.169768E-01  0.158266E-01  0.151622E-01  0.149445E-01
  0.151622E-01  0.158266E-01  0.169768E-01  0.186802E-01  0.210236E-01  0.241118E-01
  0.280717E-01  0.330090E-01  0.388818E-01  0.453305E-01  0.514845E-01  0.557180E-01
  0.556429E-01  0.491626E-01  0.366729E-01  0.221104E-01  0.104605E-01  0.395318E-02
  0.144769E-02  0.900259E-03  0.144769E-02  0.666228E-02  0.122797E-01  0.221104E-01
  0.348114E-01  0.465490E-01  0.535133E-01  0.545318E-01  0.510155E-01  0.451683E-01
  0.387075E-01  0.326350E-01  0.274205E-01  0.231829E-01  0.198482E-01  0.172879E-01
  0.153877E-01  0.140532E-01  0.132064E-01  0.127945E-01  0.127945E-01  0.132064E-01
  0.140532E-01  0.153877E-01  0.172879E-01  0.198482E-01  0.231829E-01  0.274205E-01
  0.326350E-01  0.387075E-01  0.451683E-01  0.510155E-01  0.545318E-01  0.535133E-01
  0.465490E-01  0.348114E-01  0.221104E-01  0.122797E-01  0.666228E-02  0.439926E-02
  0.439926E-02  0.666228E-02  0.180896E-01  0.262321E-01  0.366729E-01  0.465490E-01
  0.527142E-01  0.537899E-01  0.506011E-01  0.449788E-01  0.385541E-01  0.323673E-01
  0.269537E-01  0.224947E-01  0.189531E-01  0.162071E-01  0.141361E-01  0.126403E-01
  0.116342E-01  0.110535E-01  0.108631E-01  0.110535E-01  0.116342E-01  0.126403E-01
  0.141361E-01  0.162071E-01  0.189531E-01  0.224947E-01  0.269537E-01  0.323673E-01
  0.385541E-01  0.449788E-01  0.506011E-01  0.537899E-01  0.527142E-01  0.465490E-01
  0.366729E-01  0.262321E-01  0.180896E-01  0.133665E-01  0.118765E-01  0.133665E-01
  0.180896E-01  0.342465E-01  0.419489E-01  0.491626E-01  0.535133E-01  0.537899E-01
  0.504371E-01  0.448526E-01  0.384425E-01  0.321876E-01  0.266364E-01  0.220076E-01
  0.182967E-01  0.153943E-01  0.131774E-01  0.115421E-01  0.103987E-01  0.967365E-02
  0.932061E-02  0.932061E-02  0.967365E-02  0.103987E-01  0.115421E-01  0.131774E-01
  0.153943E-01  0.182967E-01  0.220076E-01  0.266364E-01  0.321876E-01  0.384425E-01
  0.448526E-01  0.504371E-01  0.537899E-01  0.535133E-01  0.491626E-01  0.419489E-01
  0.342465E-01  0.282389E-01  0.250749E-01  0.250749E-01  0.282389E-01  0.342465E-01
  0.495863E-01  0.536934E-01  0.556429E-01  0.545318E-01  0.506011E-01  0.448526E-01
  0.384012E-01  0.320957E-01  0.264504E-01  0.216945E-01  0.178470E-01  0.148127E-01
  0.124707E-01  0.107145E-01  0.945202E-02  0.860419E-02  0.811422E-02  0.795343E-02
  0.811422E-02  0.860419E-02  0.945202E-02  0.107145E-01  0.124707E-01  0.148127E-01
  0.178470E-01  0.216945E-01  0.264504E-01  0.320957E-01  0.384012E-01  0.448526E-01
  0.506011E-01  0.545318E-01  0.556429E-01  0.536934E-01  0.495863E-01  0.450034E-01
  0.415779E-01  0.403287E-01  0.415779E-01  0.450034E-01  0.495863E-01  0.588714E-01
  0.583896E-01  0.557180E-01  0.510155E-01  0.449788E-01  0.384425E-01  0.320957E-01
  0.263889E-01  0.215410E-01  0.175840E-01  0.144373E-01  0.119857E-01  0.101223E-01
  0.875431E-02  0.779965E-02  0.719398E-02  0.689880E-02  0.689880E-02  0.719398E-02
  0.779965E-02  0.875431E-02  0.101223E-01  0.119857E-01  0.144373E-01  0.175840E-01
  0.215410E-01  0.263889E-01  0.320957E-01  0.384425E-01  0.449788E-01  0.510155E-01
  0.557180E-01  0.583896E-01  0.588714E-01  0.577399E-01  0.560688E-01  0.549204E-01
  0.549204E-01  0.560688E-01  0.577399E-01  0.588714E-01  0.608584E-01  0.568829E-01
  0.514845E-01  0.451683E-01  0.385541E-01  0.321876E-01  0.264504E-01  0.215410E-01
  0.174974E-01  0.142532E-01  0.117025E-01  0.974131E-02  0.827676E-02  0.722561E-02
  0.651908E-02  0.611065E-02  0.597671E-02  0.611065E-02  0.651908E-02  0.722561E-02
  0.827676E-02  0.974131E-02  0.117025E-01  0.142532E-01  0.174974E-01  0.215410E-01
  0.264504E-01  0.321876E-01  0.385541E-01  0.451683E-01  0.514845E-01  0.568829E-01
  0.608584E-01  0.632468E-01  0.643148E-01  0.646071E-01  0.646360E-01  0.646071E-01
  0.643148E-01  0.632468E-01  0.608584E-01  0.575969E-01  0.517906E-01  0.453305E-01
  0.387075E-01  0.323673E-01  0.266364E-01  0.216945E-01  0.175840E-01  0.142532E-01
  0.116095E-01  0.955532E-02  0.799931E-02  0.685770E-02  0.605933E-02  0.555230E-02
  0.530563E-02  0.530563E-02  0.555230E-02  0.605933E-02  0.685770E-02  0.799931E-02
  0.955532E-02  0.116095E-01  0.142532E-01  0.175840E-01  0.216945E-01  0.266364E-01
  0.323673E-01  0.387075E-01  0.453305E-01  0.517906E-01  0.575969E-01  0.623312E-01
  0.657687E-01  0.679156E-01  0.689216E-01  0.689216E-01  0.679156E-01  0.657687E-01
  0.623312E-01  0.575969E-01  0.517947E-01  0.453993E-01  0.388818E-01  0.326350E-01
  0.269537E-01  0.220076E-01  0.178470E-01  0.144373E-01  0.117025E-01  0.955532E-02
  0.790852E-02  0.667868E-02  0.579302E-02  0.519619E-02  0.485169E-02  0.473907E-02
  0.485169E-02  0.519619E-02  0.579302E-02  0.667868E-02  0.790852E-02  0.955532E-02
  0.117025E-01  0.144373E-01  0.178470E-01  0.220076E-01  0.269537E-01  0.326350E-01
  0.388818E-01  0.453993E-01  0.517947E-01  0.576338E-01  0.625173E-01  0.661508E-01
  0.683705E-01  0.691144E-01  0.683705E-01  0.661508E-01  0.625173E-01  0.576338E-01
  0.517947E-01  0.453714E-01  0.390877E-01  0.330090E-01  0.274205E-01  0.224947E-01
  0.182967E-01  0.148127E-01  0.119857E-01  0.974131E-02  0.799931E-02  0.667868E-02
  0.570597E-02  0.502318E-02  0.458974E-02  0.437965E-02  0.437965E-02  0.458974E-02
  0.502318E-02  0.570597E-02  0.667868E-02  0.799931E-02  0.974131E-02  0.119857E-01
  0.148127E-01  0.182967E-01  0.224947E-01  0.274205E-01  0.330090E-01  0.390877E-01
  0.453714E-01  0.514858E-01  0.570135E-01  0.615519E-01  0.647684E-01  0.664337E-01
  0.664337E-01  0.647684E-01  0.615519E-01  0.570135E-01  0.514858E-01  0.453714E-01
  0.393736E-01  0.335312E-01  0.280717E-01  0.231829E-01  0.189531E-01  0.153943E-01
  0.124707E-01  0.101223E-01  0.827676E-02  0.685770E-02  0.579302E-02  0.502318E-02
  0.450419E-02  0.420554E-02  0.410821E-02  0.420554E-02  0.450419E-02  0.502318E-02
  0.579302E-02  0.685770E-02  0.827676E-02  0.101223E-01  0.124707E-01  0.153943E-01
  0.189531E-01  0.231829E-01  0.280717E-01  0.335312E-01  0.393736E-01  0.453087E-01
  0.509650E-01  0.559322E-01  0.598153E-01  0.622884E-01  0.631375E-01  0.622884E-01
  0.598153E-01  0.559322E-01  0.509650E-01  0.453087E-01  0.393736E-01  0.342586E-01
  0.289549E-01  0.241118E-01  0.198482E-01  0.162071E-01  0.131774E-01  0.107145E-01
  0.875431E-02  0.722561E-02  0.605933E-02  0.519619E-02  0.458974E-02  0.420554E-02
  0.401976E-02  0.401976E-02  0.420554E-02  0.458974E-02  0.519619E-02  0.605933E-02
  0.722561E-02  0.875431E-02  0.107145E-01  0.131774E-01  0.162071E-01  0.198482E-01
  0.241118E-01  0.289549E-01  0.342586E-01  0.398125E-01  0.453153E-01  0.503972E-01
  0.546633E-01  0.577470E-01  0.593659E-01  0.593659E-01  0.577470E-01  0.546633E-01
  0.503972E-01  0.453153E-01  0.398125E-01  0.342586E-01  0.301182E-01  0.253260E-01
  0.210236E-01  0.172879E-01  0.141361E-01  0.115421E-01  0.945202E-02  0.779965E-02
  0.651908E-02  0.555230E-02  0.485169E-02  0.437965E-02  0.410821E-02  0.401976E-02
  0.410821E-02  0.437965E-02  0.485169E-02  0.555230E-02  0.651908E-02  0.779965E-02
  0.945202E-02  0.115421E-01  0.141361E-01  0.172879E-01  0.210236E-01  0.253260E-01
  0.301182E-01  0.352485E-01  0.404823E-01  0.455075E-01  0.499613E-01  0.534751E-01
  0.557295E-01  0.565067E-01  0.557295E-01  0.534751E-01  0.499613E-01  0.455075E-01
  0.404823E-01  0.352485E-01  0.301182E-01  0.268656E-01  0.225217E-01  0.186802E-01
  0.153877E-01  0.126403E-01  0.103987E-01  0.860419E-02  0.719398E-02  0.611065E-02
  0.530563E-02  0.473907E-02  0.437965E-02  0.420554E-02  0.420554E-02  0.437965E-02
  0.473907E-02  0.530563E-02  0.611065E-02  0.719398E-02  0.860419E-02  0.103987E-01
  0.126403E-01  0.153877E-01  0.186802E-01  0.225217E-01  0.268656E-01  0.316026E-01
  0.365502E-01  0.414506E-01  0.459832E-01  0.497979E-01  0.525627E-01  0.540169E-01
  0.540169E-01  0.525627E-01  0.497979E-01  0.459832E-01  0.414506E-01  0.365502E-01
  0.316026E-01  0.268656E-01  0.243794E-01  0.204255E-01  0.169768E-01  0.140532E-01
  0.116342E-01  0.967365E-02  0.811422E-02  0.689880E-02  0.597671E-02  0.530563E-02
  0.485169E-02  0.458974E-02  0.450419E-02  0.458974E-02  0.485169E-02  0.530563E-02
  0.597671E-02  0.689880E-02  0.811422E-02  0.967365E-02  0.116342E-01  0.140532E-01
  0.169768E-01  0.204255E-01  0.243794E-01  0.287646E-01  0.334415E-01  0.381979E-01
  0.427539E-01  0.467849E-01  0.499613E-01  0.519974E-01  0.526991E-01  0.519974E-01
  0.499613E-01  0.467849E-01  0.427539E-01  0.381979E-01  0.334415E-01  0.287646E-01
  0.243794E-01  0.225592E-01  0.189441E-01  0.158266E-01  0.132064E-01  0.110535E-01
  0.932061E-02  0.795343E-02  0.689880E-02  0.611065E-02  0.555230E-02  0.519619E-02
  0.502318E-02  0.502318E-02  0.519619E-02  0.555230E-02  0.611065E-02  0.689880E-02
  0.795343E-02  0.932061E-02  0.110535E-01  0.132064E-01  0.158266E-01  0.189441E-01
  0.225592E-01  0.266284E-01  0.310496E-01  0.356507E-01  0.401892E-01  0.443682E-01
  0.478695E-01  0.503972E-01  0.517233E-01  0.517233E-01  0.503972E-01  0.478695E-01
  0.443682E-01  0.401892E-01  0.356507E-01  0.310496E-01  0.266284E-01  0.225592E-01
  0.213229E-01  0.180005E-01  0.151622E-01  0.127945E-01  0.108631E-01  0.932061E-02
  0.811422E-02  0.719398E-02  0.651908E-02  0.605933E-02  0.579302E-02  0.570597E-02
  0.579302E-02  0.605933E-02  0.651908E-02  0.719398E-02  0.811422E-02  0.932061E-02
  0.108631E-01  0.127945E-01  0.151622E-01  0.180005E-01  0.213229E-01  0.251089E-01
  0.292871E-01  0.337198E-01  0.381981E-01  0.424537E-01  0.461868E-01  0.491053E-01
  0.509650E-01  0.516038E-01  0.509650E-01  0.491053E-01  0.461868E-01  0.424537E-01
  0.381981E-01  0.337198E-01  0.292871E-01  0.251089E-01  0.213229E-01  0.206061E-01
  0.175410E-01  0.149445E-01  0.127945E-01  0.110535E-01  0.967365E-02  0.860419E-02
  0.779965E-02  0.722561E-02  0.685770E-02  0.667868E-02  0.667868E-02  0.685770E-02
  0.722561E-02  0.779965E-02  0.860419E-02  0.967365E-02  0.110535E-01  0.127945E-01
  0.149445E-01  0.175410E-01  0.206061E-01  0.241357E-01  0.280818E-01  0.323339E-01
  0.367110E-01  0.409702E-01  0.448340E-01  0.480248E-01  0.503011E-01  0.514858E-01
  0.514858E-01  0.503011E-01  0.480248E-01  0.448340E-01  0.409702E-01  0.367110E-01
  0.323339E-01  0.280818E-01  0.241357E-01  0.206061E-01  0.203709E-01  0.175410E-01
  0.151622E-01  0.132064E-01  0.116342E-01  0.103987E-01  0.945202E-02  0.875431E-02
  0.827676E-02  0.799931E-02  0.790852E-02  0.799931E-02  0.827676E-02  0.875431E-02
  0.945202E-02  0.103987E-01  0.116342E-01  0.132064E-01  0.151622E-01  0.175410E-01
  0.203709E-01  0.236600E-01  0.273783E-01  0.314366E-01  0.356751E-01  0.398713E-01
  0.437665E-01  0.471020E-01  0.496528E-01  0.512508E-01  0.517947E-01  0.512508E-01
  0.496528E-01  0.471020E-01  0.437665E-01  0.398713E-01  0.356751E-01  0.314366E-01
  0.273783E-01  0.236600E-01  0.203709E-01  0.206061E-01  0.180005E-01  0.158266E-01
  0.140532E-01  0.126403E-01  0.115421E-01  0.107145E-01  0.101223E-01  0.974131E-02
  0.955532E-02  0.955532E-02  0.974131E-02  0.101223E-01  0.107145E-01  0.115421E-01
  0.126403E-01  0.140532E-01  0.158266E-01  0.180005E-01  0.206061E-01  0.236600E-01
  0.271465E-01  0.309936E-01  0.350585E-01  0.391331E-01  0.429721E-01  0.463310E-01
  0.490050E-01  0.508513E-01  0.517906E-01  0.517906E-01  0.508513E-01  0.490050E-01
  0.463310E-01  0.429721E-01  0.391331E-01  0.350585E-01  0.309936E-01  0.271465E-01
  0.236600E-01  0.206061E-01  0.213229E-01  0.189441E-01  0.169768E-01  0.153877E-01
  0.141361E-01  0.131774E-01  0.124707E-01  0.119857E-01  0.117025E-01  0.116095E-01
  0.117025E-01  0.119857E-01  0.124707E-01  0.131774E-01  0.141361E-01  0.153877E-01
  0.169768E-01  0.189441E-01  0.213229E-01  0.241357E-01  0.273783E-01  0.309936E-01
  0.348526E-01  0.387577E-01  0.424704E-01  0.457528E-01  0.484132E-01  0.503363E-01
  0.514845E-01  0.518644E-01  0.514845E-01  0.503363E-01  0.484132E-01  0.457528E-01
  0.424704E-01  0.387577E-01  0.348526E-01  0.309936E-01  0.273783E-01  0.241357E-01
  0.213229E-01  0.225592E-01  0.204255E-01  0.186802E-01  0.172879E-01  0.162071E-01
  0.153943E-01  0.148127E-01  0.144373E-01  0.142532E-01  0.142532E-01  0.144373E-01
  0.148127E-01  0.153943E-01  0.162071E-01  0.172879E-01  0.186802E-01  0.204255E-01
  0.225592E-01  0.251089E-01  0.280818E-01  0.314366E-01  0.350585E-01  0.387577E-01
  0.422971E-01  0.454365E-01  0.479848E-01  0.498431E-01  0.510155E-01  0.515706E-01
  0.515706E-01  0.510155E-01  0.498431E-01  0.479848E-01  0.454365E-01  0.422971E-01
  0.387577E-01  0.350585E-01  0.314366E-01  0.280818E-01  0.251089E-01  0.225592E-01
  0.243794E-01  0.225217E-01  0.210236E-01  0.198482E-01  0.189531E-01  0.182967E-01
  0.178470E-01  0.175840E-01  0.174974E-01  0.175840E-01  0.178470E-01  0.182967E-01
  0.189531E-01  0.198482E-01  0.210236E-01  0.225217E-01  0.243794E-01  0.266284E-01
  0.292871E-01  0.323339E-01  0.356751E-01  0.391331E-01  0.424704E-01  0.454365E-01
  0.478271E-01  0.495394E-01  0.506011E-01  0.511406E-01  0.513000E-01  0.511406E-01
  0.506011E-01  0.495394E-01  0.478271E-01  0.454365E-01  0.424704E-01  0.391331E-01
  0.356751E-01  0.323339E-01  0.292871E-01  0.266284E-01  0.243794E-01  0.268656E-01
  0.253260E-01  0.241118E-01  0.231829E-01  0.224947E-01  0.220076E-01  0.216945E-01
  0.215410E-01  0.215410E-01  0.216945E-01  0.220076E-01  0.224947E-01  0.231829E-01
  0.241118E-01  0.253260E-01  0.268656E-01  0.287646E-01  0.310496E-01  0.337198E-01
  0.367110E-01  0.398713E-01  0.429721E-01  0.457528E-01  0.479848E-01  0.495394E-01
  0.504371E-01  0.508390E-01  0.509634E-01  0.509634E-01  0.508390E-01  0.504371E-01
  0.495394E-01  0.479848E-01  0.457528E-01  0.429721E-01  0.398713E-01  0.367110E-01
  0.337198E-01  0.310496E-01  0.287646E-01  0.268656E-01  0.301182E-01  0.289549E-01
  0.280717E-01  0.274205E-01  0.269537E-01  0.266364E-01  0.264504E-01  0.263889E-01
  0.264504E-01  0.266364E-01  0.269537E-01  0.274205E-01  0.280717E-01  0.289549E-01
  0.301182E-01  0.316026E-01  0.334415E-01  0.356507E-01  0.381981E-01  0.409702E-01
  0.437665E-01  0.463310E-01  0.484132E-01  0.498431E-01  0.506011E-01  0.508390E-01
  0.508174E-01  0.507777E-01  0.508174E-01  0.508390E-01  0.506011E-01  0.498431E-01
  0.484132E-01  0.463310E-01  0.437665E-01  0.409702E-01  0.381981E-01  0.356507E-01
  0.334415E-01  0.316026E-01  0.301182E-01  0.342586E-01  0.335312E-01  0.330090E-01
  0.326350E-01  0.323673E-01  0.321876E-01  0.320957E-01  0.320957E-01  0.321876E-01
  0.323673E-01  0.326350E-01  0.330090E-01  0.335312E-01  0.342586E-01  0.352485E-01
  0.365502E-01  0.381979E-01  0.401892E-01  0.424537E-01  0.448340E-01  0.471020E-01
  0.490050E-01  0.503363E-01  0.510155E-01  0.511406E-01  0.509634E-01  0.507777E-01
  0.507777E-01  0.509634E-01  0.511406E-01  0.510155E-01  0.503363E-01  0.490050E-01
  0.471020E-01  0.448340E-01  0.424537E-01  0.401892E-01  0.381979E-01  0.365502E-01
  0.352485E-01  0.342586E-01  0.393736E-01  0.390877E-01  0.388818E-01  0.387075E-01
  0.385541E-01  0.384425E-01  0.384012E-01  0.384425E-01  0.385541E-01  0.387075E-01
  0.388818E-01  0.390877E-01  0.393736E-01  0.398125E-01  0.404823E-01  0.414506E-01
  0.427539E-01  0.443682E-01  0.461868E-01  0.480248E-01  0.496528E-01  0.508513E-01
  0.514845E-01  0.515706E-01  0.513000E-01  0.509634E-01  0.508174E-01  0.509634E-01
  0.513000E-01  0.515706E-01  0.514845E-01  0.508513E-01  0.496528E-01  0.480248E-01
  0.461868E-01  0.443682E-01  0.427539E-01  0.414506E-01  0.404823E-01  0.398125E-01
  0.393736E-01  0.453714E-01  0.453993E-01  0.453305E-01  0.451683E-01  0.449788E-01
  0.448526E-01  0.448526E-01  0.449788E-01  0.451683E-01  0.453305E-01  0.453993E-01
  0.453714E-01  0.453087E-01  0.453153E-01  0.455075E-01  0.459832E-01  0.467849E-01
  0.478695E-01  0.491053E-01  0.503011E-01  0.512508E-01  0.517906E-01  0.518644E-01
  0.515706E-01  0.511406E-01  0.508390E-01  0.508390E-01  0.511406E-01  0.515706E-01
  0.518644E-01  0.517906E-01  0.512508E-01  0.503011E-01  0.491053E-01  0.478695E-01
  0.467849E-01  0.459832E-01  0.455075E-01  0.453153E-01  0.453087E-01  0.453714E-01
  0.517947E-01  0.517906E-01  0.514845E-01  0.510155E-01  0.506011E-01  0.504371E-01
  0.506011E-01  0.510155E-01  0.514845E-01  0.517906E-01  0.517947E-01  0.514858E-01
  0.509650E-01  0.503972E-01  0.499613E-01  0.497979E-01  0.499613E-01  0.503972E-01
  0.509650E-01  0.514858E-01  0.517947E-01  0.517906E-01  0.514845E-01  0.510155E-01
  0.506011E-01  0.504371E-01  0.506011E-01  0.510155E-01  0.514845E-01  0.517906E-01
  0.517947E-01  0.514858E-01  0.509650E-01  0.503972E-01  0.499613E-01  0.497979E-01
  0.499613E-01  0.503972E-01  0.509650E-01  0.514858E-01  0.517947E-01  0.575969E-01
  0.568829E-01  0.557180E-01  0.545318E-01  0.537899E-01  0.537899E-01  0.545318E-01
  0.557180E-01  0.568829E-01  0.575969E-01  0.576338E-01  0.570135E-01  0.559322E-01
  0.546633E-01  0.534751E-01  0.525627E-01  0.519974E-01  0.517233E-01  0.516038E-01
  0.514858E-01  0.512508E-01  0.508513E-01  0.503363E-01  0.498431E-01  0.495394E-01
  0.495394E-01  0.498431E-01  0.503363E-01  0.508513E-01  0.512508E-01  0.514858E-01
  0.516038E-01  0.517233E-01  0.519974E-01  0.525627E-01  0.534751E-01  0.546633E-01
  0.559322E-01  0.570135E-01  0.576338E-01  0.575969E-01  0.608584E-01  0.583896E-01
  0.556429E-01  0.535133E-01  0.527142E-01  0.535133E-01  0.556429E-01  0.583896E-01
  0.608584E-01  0.623312E-01  0.625173E-01  0.615519E-01  0.598153E-01  0.577470E-01
  0.557295E-01  0.540169E-01  0.526991E-01  0.517233E-01  0.509650E-01  0.503011E-01
  0.496528E-01  0.490050E-01  0.484132E-01  0.479848E-01  0.478271E-01  0.479848E-01
  0.484132E-01  0.490050E-01  0.496528E-01  0.503011E-01  0.509650E-01  0.517233E-01
  0.526991E-01  0.540169E-01  0.557295E-01  0.577470E-01  0.598153E-01  0.615519E-01
  0.625173E-01  0.623312E-01  0.608584E-01  0.588714E-01  0.536934E-01  0.491626E-01
  0.465490E-01  0.465490E-01  0.491626E-01  0.536934E-01  0.588714E-01  0.632468E-01
  0.657687E-01  0.661508E-01  0.647684E-01  0.622884E-01  0.593659E-01  0.565067E-01
  0.540169E-01  0.519974E-01  0.503972E-01  0.491053E-01  0.480248E-01  0.471020E-01
  0.463310E-01  0.457528E-01  0.454365E-01  0.454365E-01  0.457528E-01  0.463310E-01
  0.471020E-01  0.480248E-01  0.491053E-01  0.503972E-01  0.519974E-01  0.540169E-01
  0.565067E-01  0.593659E-01  0.622884E-01  0.647684E-01  0.661508E-01  0.657687E-01
  0.632468E-01  0.588714E-01  0.495863E-01  0.419489E-01  0.366729E-01  0.348114E-01
  0.366729E-01  0.419489E-01  0.495863E-01  0.577399E-01  0.643148E-01  0.679156E-01
  0.683705E-01  0.664337E-01  0.631375E-01  0.593659E-01  0.557295E-01  0.525627E-01
  0.499613E-01  0.478695E-01  0.461868E-01  0.448340E-01  0.437665E-01  0.429721E-01
  0.424704E-01  0.422971E-01  0.424704E-01  0.429721E-01  0.437665E-01  0.448340E-01
  0.461868E-01  0.478695E-01  0.499613E-01  0.525627E-01  0.557295E-01  0.593659E-01
  0.631375E-01  0.664337E-01  0.683705E-01  0.679156E-01  0.643148E-01  0.577399E-01
  0.495863E-01  0.342465E-01  0.262321E-01  0.221104E-01  0.221104E-01  0.262321E-01
  0.342465E-01  0.450034E-01  0.560688E-01  0.646071E-01  0.689216E-01  0.691144E-01
  0.664337E-01  0.622884E-01  0.577470E-01  0.534751E-01  0.497979E-01  0.467849E-01
  0.443682E-01  0.424537E-01  0.409702E-01  0.398713E-01  0.391331E-01  0.387577E-01
  0.387577E-01  0.391331E-01  0.398713E-01  0.409702E-01  0.424537E-01  0.443682E-01
  0.467849E-01  0.497979E-01  0.534751E-01  0.577470E-01  0.622884E-01  0.664337E-01
  0.691144E-01  0.689216E-01  0.646071E-01  0.560688E-01  0.450034E-01  0.342465E-01
  0.180896E-01  0.122797E-01  0.104605E-01  0.122797E-01  0.180896E-01  0.282389E-01
  0.415779E-01  0.549204E-01  0.646360E-01  0.689216E-01  0.683705E-01  0.647684E-01
  0.598153E-01  0.546633E-01  0.499613E-01  0.459832E-01  0.427539E-01  0.401892E-01
  0.381981E-01  0.367110E-01  0.356751E-01  0.350585E-01  0.348526E-01  0.350585E-01
  0.356751E-01  0.367110E-01  0.381981E-01  0.401892E-01  0.427539E-01  0.459832E-01
  0.499613E-01  0.546633E-01  0.598153E-01  0.647684E-01  0.683705E-01  0.689216E-01
  0.646360E-01  0.549204E-01  0.415779E-01  0.282389E-01  0.180896E-01  0.666228E-02
  0.395318E-02  0.395318E-02  0.666228E-02  0.133665E-01  0.250749E-01  0.403287E-01
  0.549204E-01  0.646071E-01  0.679156E-01  0.661508E-01  0.615519E-01  0.559322E-01
  0.503972E-01  0.455075E-01  0.414506E-01  0.381979E-01  0.356507E-01  0.337198E-01
  0.323339E-01  0.314366E-01  0.309936E-01  0.309936E-01  0.314366E-01  0.323339E-01
  0.337198E-01  0.356507E-01  0.381979E-01  0.414506E-01  0.455075E-01  0.503972E-01
  0.559322E-01  0.615519E-01  0.661508E-01  0.679156E-01  0.646071E-01  0.549204E-01
  0.403287E-01  0.250749E-01  0.133665E-01  0.666228E-02  0.144769E-02  0.785995E-03
  0.144769E-02  0.439926E-02  0.118765E-01  0.250749E-01  0.415779E-01  0.560688E-01
  0.643148E-01  0.657687E-01  0.625173E-01  0.570135E-01  0.509650E-01  0.453153E-01
  0.404823E-01  0.365502E-01  0.334415E-01  0.310496E-01  0.292871E-01  0.280818E-01
  0.273783E-01  0.271465E-01  0.273783E-01  0.280818E-01  0.292871E-01  0.310496E-01
  0.334415E-01  0.365502E-01  0.404823E-01  0.453153E-01  0.509650E-01  0.570135E-01
  0.625173E-01  0.657687E-01  0.643148E-01  0.560688E-01  0.415779E-01  0.250749E-01
  0.118765E-01  0.439926E-02  0.144769E-02  0.124746E-03  0.124746E-03  0.900259E-03
  0.439926E-02  0.133665E-01  0.282389E-01  0.450034E-01  0.577399E-01  0.632468E-01
  0.623312E-01  0.576338E-01  0.514858E-01  0.453087E-01  0.398125E-01  0.352485E-01
  0.316026E-01  0.287646E-01  0.266284E-01  0.251089E-01  0.241357E-01  0.236600E-01
  0.236600E-01  0.241357E-01  0.251089E-01  0.266284E-01  0.287646E-01  0.316026E-01
  0.352485E-01  0.398125E-01  0.453087E-01  0.514858E-01  0.576338E-01  0.623312E-01
  0.632468E-01  0.577399E-01  0.450034E-01  0.282389E-01  0.133665E-01  0.439926E-02
  0.900259E-03  0.124746E-03  0.127591E-04  0.124746E-03  0.144769E-02  0.666228E-02
  0.180896E-01  0.342465E-01  0.495863E-01  0.588714E-01  0.608584E-01  0.575969E-01
  0.517947E-01  0.453714E-01  0.393736E-01  0.342586E-01  0.301182E-01  0.268656E-01
  0.243794E-01  0.225592E-01  0.213229E-01  0.206061E-01  0.203709E-01  0.206061E-01
  0.213229E-01  0.225592E-01  0.243794E-01  0.268656E-01  0.301182E-01  0.342586E-01
  0.393736E-01  0.453714E-01  0.517947E-01  0.575969E-01  0.608584E-01  0.588714E-01
  0.495863E-01  0.342465E-01  0.180896E-01  0.666228E-02  0.144769E-02  0.124746E-03
  0.127591E-04  0.124746E-03  0.785995E-03  0.395318E-02  0.122797E-01  0.262321E-01
  0.419489E-01  0.536934E-01  0.583896E-01  0.568829E-01  0.517906E-01  0.453993E-01
  0.390877E-01  0.335312E-01  0.289549E-01  0.253260E-01  0.225217E-01  0.204255E-01
  0.189441E-01  0.180005E-01  0.175410E-01  0.175410E-01  0.180005E-01  0.189441E-01
  0.204255E-01  0.225217E-01  0.253260E-01  0.289549E-01  0.335312E-01  0.390877E-01
  0.453993E-01  0.517906E-01  0.568829E-01  0.583896E-01  0.536934E-01  0.419489E-01
  0.262321E-01  0.122797E-01  0.395318E-02  0.785995E-03  0.124746E-03  0.124746E-03
  0.785995E-03  0.285305E-02  0.884245E-02  0.202623E-01  0.351179E-01  0.482686E-01
  0.554089E-01  0.559102E-01  0.518644E-01  0.457517E-01  0.392769E-01  0.333544E-01
  0.283657E-01  0.243623E-01  0.212403E-01  0.188712E-01  0.171491E-01  0.159863E-01
  0.153148E-01  0.150949E-01  0.153148E-01  0.159863E-01  0.171491E-01  0.188712E-01
  0.212403E-01  0.243623E-01  0.283657E-01  0.333544E-01  0.392769E-01  0.457517E-01
  0.518644E-01  0.559102E-01  0.554089E-01  0.482686E-01  0.351179E-01  0.202623E-01
  0.884245E-02  0.285305E-02  0.785995E-03  0.397774E-03  0.785995E-03  0.395318E-02
  0.884245E-02  0.182821E-01  0.314123E-01  0.443155E-01  0.526024E-01  0.545897E-01
  0.515706E-01  0.458868E-01  0.394182E-01  0.332681E-01  0.279593E-01  0.236364E-01
  0.202337E-01  0.176214E-01  0.156824E-01  0.143208E-01  0.134571E-01  0.130374E-01
  0.130374E-01  0.134571E-01  0.143208E-01  0.156824E-01  0.176214E-01  0.202337E-01
  0.236364E-01  0.279593E-01  0.332681E-01  0.394182E-01  0.458868E-01  0.515706E-01
  0.545897E-01  0.526024E-01  0.443155E-01  0.314123E-01  0.182821E-01  0.884245E-02
  0.395318E-02  0.219420E-02  0.219420E-02  0.395318E-02  0.122797E-01  0.202623E-01
  0.314123E-01  0.428799E-01  0.509178E-01  0.534794E-01  0.511406E-01  0.458587E-01
  0.394858E-01  0.332200E-01  0.276844E-01  0.231059E-01  0.194655E-01  0.166430E-01
  0.145141E-01  0.129762E-01  0.119423E-01  0.113462E-01  0.111510E-01  0.113462E-01
  0.119423E-01  0.129762E-01  0.145141E-01  0.166430E-01  0.194655E-01  0.231059E-01
  0.276844E-01  0.332200E-01  0.394858E-01  0.458587E-01  0.511406E-01  0.534794E-01
  0.509178E-01  0.428799E-01  0.314123E-01  0.202623E-01  0.122797E-01  0.803241E-02
  0.677191E-02  0.803241E-02  0.122797E-01  0.262321E-01  0.351179E-01  0.443155E-01
  0.509178E-01  0.530488E-01  0.508390E-01  0.457740E-01  0.394975E-01  0.331849E-01
  0.275013E-01  0.227299E-01  0.188963E-01  0.158974E-01  0.136066E-01  0.119162E-01
  0.107344E-01  0.998585E-02  0.962176E-02  0.962176E-02  0.998585E-02  0.107344E-01
  0.119162E-01  0.136066E-01  0.158974E-01  0.188963E-01  0.227299E-01  0.275013E-01
  0.331849E-01  0.394975E-01  0.457740E-01  0.508390E-01  0.530488E-01  0.509178E-01
  0.443155E-01  0.351179E-01  0.262321E-01  0.198324E-01  0.166537E-01  0.166537E-01
  0.198324E-01  0.262321E-01  0.419489E-01  0.482686E-01  0.526024E-01  0.534794E-01
  0.508390E-01  0.457324E-01  0.394901E-01  0.331601E-01  0.273873E-01  0.224788E-01
  0.184939E-01  0.153496E-01  0.129226E-01  0.111017E-01  0.979274E-02  0.891429E-02
  0.840714E-02  0.824080E-02  0.840714E-02  0.891429E-02  0.979274E-02  0.111017E-01
  0.129226E-01  0.153496E-01  0.184939E-01  0.224788E-01  0.273873E-01  0.331601E-01
  0.394901E-01  0.457324E-01  0.508390E-01  0.534794E-01  0.526024E-01  0.482686E-01
  0.419489E-01  0.357903E-01  0.315275E-01  0.300317E-01  0.315275E-01  0.357903E-01
  0.419489E-01  0.536934E-01  0.554089E-01  0.545897E-01  0.511406E-01  0.457740E-01
  0.394901E-01  0.331509E-01  0.273325E-01  0.223351E-01  0.182371E-01  0.149749E-01
  0.124328E-01  0.104999E-01  0.908068E-02  0.809089E-02  0.746345E-02  0.715777E-02
  0.715777E-02  0.746345E-02  0.809089E-02  0.908068E-02  0.104999E-01  0.124328E-01
  0.149749E-01  0.182371E-01  0.223351E-01  0.273325E-01  0.331509E-01  0.394901E-01
  0.457740E-01  0.511406E-01  0.545897E-01  0.554089E-01  0.536934E-01  0.504743E-01
  0.472457E-01  0.452903E-01  0.452903E-01  0.472457E-01  0.504743E-01  0.536934E-01
  0.583896E-01  0.559102E-01  0.515706E-01  0.458587E-01  0.394975E-01  0.331601E-01
  0.273325E-01  0.222884E-01  0.181123E-01  0.147570E-01  0.121178E-01  0.100874E-01
  0.857080E-02  0.748316E-02  0.675291E-02  0.633084E-02  0.619237E-02  0.633084E-02
  0.675291E-02  0.748316E-02  0.857080E-02  0.100874E-01  0.121178E-01  0.147570E-01
  0.181123E-01  0.222884E-01  0.273325E-01  0.331601E-01  0.394975E-01  0.458587E-01
  0.515706E-01  0.559102E-01  0.583896E-01  0.590528E-01  0.585206E-01  0.576945E-01
  0.573242E-01  0.576945E-01  0.585206E-01  0.590528E-01  0.583896E-01  0.568829E-01
  0.518644E-01  0.458868E-01  0.394858E-01  0.331849E-01  0.273873E-01  0.223351E-01
  0.181123E-01  0.146856E-01  0.119642E-01  0.984773E-02  0.824357E-02  0.706753E-02
  0.624628E-02  0.572503E-02  0.547127E-02  0.547127E-02  0.572503E-02  0.624628E-02
  0.706753E-02  0.824357E-02  0.984773E-02  0.119642E-01  0.146856E-01  0.181123E-01
  0.223351E-01  0.273873E-01  0.331849E-01  0.394858E-01  0.458868E-01  0.518644E-01
  0.568829E-01  0.605687E-01  0.628642E-01  0.640315E-01  0.644719E-01  0.644719E-01
  0.640315E-01  0.628642E-01  0.605687E-01  0.568829E-01  0.517906E-01  0.457517E-01
  0.394182E-01  0.332200E-01  0.275013E-01  0.224788E-01  0.182371E-01  0.147570E-01
  0.119642E-01  0.976934E-02  0.808439E-02  0.682649E-02  0.592187E-02  0.531282E-02
  0.496110E-02  0.484601E-02  0.496110E-02  0.531282E-02  0.592187E-02  0.682649E-02
  0.808439E-02  0.976934E-02  0.119642E-01  0.147570E-01  0.182371E-01  0.224788E-01
  0.275013E-01  0.332200E-01  0.394182E-01  0.457517E-01  0.517906E-01  0.570977E-01
  0.613304E-01  0.643180E-01  0.660576E-01  0.666237E-01  0.660576E-01  0.643180E-01
  0.613304E-01  0.570977E-01  0.517906E-01  0.453993E-01  0.392769E-01  0.332681E-01
  0.276844E-01  0.227299E-01  0.184939E-01  0.149749E-01  0.121178E-01  0.984773E-02
  0.808439E-02  0.674772E-02  0.576403E-02  0.507397E-02  0.463575E-02  0.442313E-02
  0.442313E-02  0.463575E-02  0.507397E-02  0.576403E-02  0.674772E-02  0.808439E-02
  0.984773E-02  0.121178E-01  0.149749E-01  0.184939E-01  0.227299E-01  0.276844E-01
  0.332681E-01  0.392769E-01  0.453993E-01  0.512508E-01  0.564317E-01  0.605922E-01
  0.634809E-01  0.649545E-01  0.649545E-01  0.634809E-01  0.605922E-01  0.564317E-01
  0.512508E-01  0.453993E-01  0.390877E-01  0.333544E-01  0.279593E-01  0.231059E-01
  0.188963E-01  0.153496E-01  0.124328E-01  0.100874E-01  0.824357E-02  0.682649E-02
  0.576403E-02  0.499581E-02  0.447748E-02  0.417890E-02  0.408154E-02  0.417890E-02
  0.447748E-02  0.499581E-02  0.576403E-02  0.682649E-02  0.824357E-02  0.100874E-01
  0.124328E-01  0.153496E-01  0.188963E-01  0.231059E-01  0.279593E-01  0.333544E-01
  0.390877E-01  0.448589E-01  0.503011E-01  0.550273E-01  0.586834E-01  0.609927E-01
  0.617819E-01  0.609927E-01  0.586834E-01  0.550273E-01  0.503011E-01  0.448589E-01
  0.390877E-01  0.335312E-01  0.283657E-01  0.236364E-01  0.194655E-01  0.158974E-01
  0.129226E-01  0.104999E-01  0.857080E-02  0.706753E-02  0.592187E-02  0.507397E-02
  0.447748E-02  0.409906E-02  0.391595E-02  0.391595E-02  0.409906E-02  0.447748E-02
  0.507397E-02  0.592187E-02  0.706753E-02  0.857080E-02  0.104999E-01  0.129226E-01
  0.158974E-01  0.194655E-01  0.236364E-01  0.283657E-01  0.335312E-01  0.389192E-01
  0.442298E-01  0.491053E-01  0.531738E-01  0.560998E-01  0.576306E-01  0.576306E-01
  0.560998E-01  0.531738E-01  0.491053E-01  0.442298E-01  0.389192E-01  0.335312E-01
  0.289549E-01  0.243623E-01  0.202337E-01  0.166430E-01  0.136066E-01  0.111017E-01
  0.908068E-02  0.748316E-02  0.624628E-02  0.531282E-02  0.463575E-02  0.417890E-02
  0.391595E-02  0.383024E-02  0.391595E-02  0.417890E-02  0.463575E-02  0.531282E-02
  0.624628E-02  0.748316E-02  0.908068E-02  0.111017E-01  0.136066E-01  0.166430E-01
  0.202337E-01  0.243623E-01  0.289549E-01  0.338641E-01  0.388609E-01  0.436442E-01
  0.478695E-01  0.511925E-01  0.533193E-01  0.540516E-01  0.533193E-01  0.511925E-01
  0.478695E-01  0.436442E-01  0.388609E-01  0.338641E-01  0.289549E-01  0.253260E-01
  0.212403E-01  0.176214E-01  0.145141E-01  0.119162E-01  0.979274E-02  0.809089E-02
  0.675291E-02  0.572503E-02  0.496110E-02  0.442313E-02  0.408154E-02  0.391595E-02
  0.391595E-02  0.408154E-02  0.442313E-02  0.496110E-02  0.572503E-02  0.675291E-02
  0.809089E-02  0.979274E-02  0.119162E-01  0.145141E-01  0.176214E-01  0.212403E-01
  0.253260E-01  0.297746E-01  0.344129E-01  0.389978E-01  0.432298E-01  0.467849E-01
  0.493576E-01  0.507095E-01  0.507095E-01  0.493576E-01  0.467849E-01  0.432298E-01
  0.389978E-01  0.344129E-01  0.297746E-01  0.253260E-01  0.225217E-01  0.188712E-01
  0.156824E-01  0.129762E-01  0.107344E-01  0.891429E-02  0.746345E-02  0.633084E-02
  0.547127E-02  0.484601E-02  0.442313E-02  0.417890E-02  0.409906E-02  0.417890E-02
  0.442313E-02  0.484601E-02  0.547127E-02  0.633084E-02  0.746345E-02  0.891429E-02
  0.107344E-01  0.129762E-01  0.156824E-01  0.188712E-01  0.225217E-01  0.265620E-01
  0.308608E-01  0.352229E-01  0.393940E-01  0.430802E-01  0.459832E-01  0.478436E-01
  0.484847E-01  0.478436E-01  0.459832E-01  0.430802E-01  0.393940E-01  0.352229E-01
  0.308608E-01  0.265620E-01  0.225217E-01  0.204255E-01  0.171491E-01  0.143208E-01
  0.119423E-01  0.998585E-02  0.840714E-02  0.715777E-02  0.619237E-02  0.547127E-02
  0.496110E-02  0.463575E-02  0.447748E-02  0.447748E-02  0.463575E-02  0.496110E-02
  0.547127E-02  0.619237E-02  0.715777E-02  0.840714E-02  0.998585E-02  0.119423E-01
  0.143208E-01  0.171491E-01  0.204255E-01  0.241062E-01  0.280954E-01  0.322382E-01
  0.363200E-01  0.400785E-01  0.432298E-01  0.455075E-01  0.467034E-01  0.467034E-01
  0.455075E-01  0.432298E-01  0.400785E-01  0.363200E-01  0.322382E-01  0.280954E-01
  0.241062E-01  0.204255E-01  0.189441E-01  0.159863E-01  0.134571E-01  0.113462E-01
  0.962176E-02  0.824080E-02  0.715777E-02  0.633084E-02  0.572503E-02  0.531282E-02
  0.507397E-02  0.499581E-02  0.507397E-02  0.531282E-02  0.572503E-02  0.633084E-02
  0.715777E-02  0.824080E-02  0.962176E-02  0.113462E-01  0.134571E-01  0.159863E-01
  0.189441E-01  0.223085E-01  0.260143E-01  0.299422E-01  0.339140E-01  0.376980E-01
  0.410296E-01  0.436442E-01  0.453153E-01  0.458903E-01  0.453153E-01  0.436442E-01
  0.410296E-01  0.376980E-01  0.339140E-01  0.299422E-01  0.260143E-01  0.223085E-01
  0.189441E-01  0.180005E-01  0.153148E-01  0.130374E-01  0.111510E-01  0.962176E-02
  0.840714E-02  0.746345E-02  0.675291E-02  0.624628E-02  0.592187E-02  0.576403E-02
  0.576403E-02  0.592187E-02  0.624628E-02  0.675291E-02  0.746345E-02  0.840714E-02
  0.962176E-02  0.111510E-01  0.130374E-01  0.153148E-01  0.180005E-01  0.210876E-01
  0.245344E-01  0.282516E-01  0.320930E-01  0.358563E-01  0.392993E-01  0.421678E-01
  0.442298E-01  0.453087E-01  0.453087E-01  0.442298E-01  0.421678E-01  0.392993E-01
  0.358563E-01  0.320930E-01  0.282516E-01  0.245344E-01  0.210876E-01  0.180005E-01
  0.175410E-01  0.150949E-01  0.130374E-01  0.113462E-01  0.998585E-02  0.891429E-02
  0.809089E-02  0.748316E-02  0.706753E-02  0.682649E-02  0.674772E-02  0.682649E-02
  0.706753E-02  0.748316E-02  0.809089E-02  0.891429E-02  0.998585E-02  0.113462E-01
  0.130374E-01  0.150949E-01  0.175410E-01  0.203796E-01  0.235865E-01  0.270961E-01
  0.307885E-01  0.344873E-01  0.379727E-01  0.410067E-01  0.433637E-01  0.448589E-01
  0.453714E-01  0.448589E-01  0.433637E-01  0.410067E-01  0.379727E-01  0.344873E-01
  0.307885E-01  0.270961E-01  0.235865E-01  0.203796E-01  0.175410E-01  0.175410E-01
  0.153148E-01  0.134571E-01  0.119423E-01  0.107344E-01  0.979274E-02  0.908068E-02
  0.857080E-02  0.824357E-02  0.808439E-02  0.808439E-02  0.824357E-02  0.857080E-02
  0.908068E-02  0.979274E-02  0.107344E-01  0.119423E-01  0.134571E-01  0.153148E-01
  0.175410E-01  0.201472E-01  0.231230E-01  0.264215E-01  0.299446E-01  0.335376E-01
  0.370004E-01  0.401117E-01  0.426591E-01  0.444640E-01  0.453993E-01  0.453993E-01
  0.444640E-01  0.426591E-01  0.401117E-01  0.370004E-01  0.335376E-01  0.299446E-01
  0.264215E-01  0.231230E-01  0.201472E-01  0.175410E-01  0.180005E-01  0.159863E-01
  0.143208E-01  0.129762E-01  0.119162E-01  0.111017E-01  0.104999E-01  0.100874E-01
  0.984773E-02  0.976934E-02  0.984773E-02  0.100874E-01  0.104999E-01  0.111017E-01
  0.119162E-01  0.129762E-01  0.143208E-01  0.159863E-01  0.180005E-01  0.203796E-01
  0.231230E-01  0.261991E-01  0.295281E-01  0.329736E-01  0.363524E-01  0.394581E-01
  0.420918E-01  0.440882E-01  0.453305E-01  0.457517E-01  0.453305E-01  0.440882E-01
  0.420918E-01  0.394581E-01  0.363524E-01  0.329736E-01  0.295281E-01  0.261991E-01
  0.231230E-01  0.203796E-01  0.180005E-01  0.189441E-01  0.171491E-01  0.156824E-01
  0.145141E-01  0.136066E-01  0.129226E-01  0.124328E-01  0.121178E-01  0.119642E-01
  0.119642E-01  0.121178E-01  0.124328E-01  0.129226E-01  0.136066E-01  0.145141E-01
  0.156824E-01  0.171491E-01  0.189441E-01  0.210876E-01  0.235865E-01  0.264215E-01
  0.295281E-01  0.327855E-01  0.360244E-01  0.390504E-01  0.416756E-01  0.437480E-01
  0.451683E-01  0.458868E-01  0.458868E-01  0.451683E-01  0.437480E-01  0.416756E-01
  0.390504E-01  0.360244E-01  0.327855E-01  0.295281E-01  0.264215E-01  0.235865E-01
  0.210876E-01  0.189441E-01  0.204255E-01  0.188712E-01  0.176214E-01  0.166430E-01
  0.158974E-01  0.153496E-01  0.149749E-01  0.147570E-01  0.146856E-01  0.147570E-01
  0.149749E-01  0.153496E-01  0.158974E-01  0.166430E-01  0.176214E-01  0.188712E-01
  0.204255E-01  0.223085E-01  0.245344E-01  0.270961E-01  0.299446E-01  0.329736E-01
  0.360244E-01  0.389104E-01  0.414504E-01  0.435011E-01  0.449788E-01  0.458587E-01
  0.461493E-01  0.458587E-01  0.449788E-01  0.435011E-01  0.414504E-01  0.389104E-01
  0.360244E-01  0.329736E-01  0.299446E-01  0.270961E-01  0.245344E-01  0.223085E-01
  0.204255E-01  0.225217E-01  0.212403E-01  0.202337E-01  0.194655E-01  0.188963E-01
  0.184939E-01  0.182371E-01  0.181123E-01  0.181123E-01  0.182371E-01  0.184939E-01
  0.188963E-01  0.194655E-01  0.202337E-01  0.212403E-01  0.225217E-01  0.241062E-01
  0.260143E-01  0.282516E-01  0.307885E-01  0.335376E-01  0.363524E-01  0.390504E-01
  0.414504E-01  0.434099E-01  0.448526E-01  0.457740E-01  0.462150E-01  0.462150E-01
  0.457740E-01  0.448526E-01  0.434099E-01  0.414504E-01  0.390504E-01  0.363524E-01
  0.335376E-01  0.307885E-01  0.282516E-01  0.260143E-01  0.241062E-01  0.225217E-01
  0.253260E-01  0.243623E-01  0.236364E-01  0.231059E-01  0.227299E-01  0.224788E-01
  0.223351E-01  0.222884E-01  0.223351E-01  0.224788E-01  0.227299E-01  0.231059E-01
  0.236364E-01  0.243623E-01  0.253260E-01  0.265620E-01  0.280954E-01  0.299422E-01
  0.320930E-01  0.344873E-01  0.370004E-01  0.394581E-01  0.416756E-01  0.435011E-01
  0.448526E-01  0.457324E-01  0.462068E-01  0.463536E-01  0.462068E-01  0.457324E-01
  0.448526E-01  0.435011E-01  0.416756E-01  0.394581E-01  0.370004E-01  0.344873E-01
  0.320930E-01  0.299422E-01  0.280954E-01  0.265620E-01  0.253260E-01  0.289549E-01
  0.283657E-01  0.279593E-01  0.276844E-01  0.275013E-01  0.273873E-01  0.273325E-01
  0.273325E-01  0.273873E-01  0.275013E-01  0.276844E-01  0.279593E-01  0.283657E-01
  0.289549E-01  0.297746E-01  0.308608E-01  0.322382E-01  0.339140E-01  0.358563E-01
  0.379727E-01  0.401117E-01  0.420918E-01  0.437480E-01  0.449788E-01  0.457740E-01
  0.462068E-01  0.463849E-01  0.463849E-01  0.462068E-01  0.457740E-01  0.449788E-01
  0.437480E-01  0.420918E-01  0.401117E-01  0.379727E-01  0.358563E-01  0.339140E-01
  0.322382E-01  0.308608E-01  0.297746E-01  0.289549E-01  0.335312E-01  0.333544E-01
  0.332681E-01  0.332200E-01  0.331849E-01  0.331601E-01  0.331509E-01  0.331601E-01
  0.331849E-01  0.332200E-01  0.332681E-01  0.333544E-01  0.335312E-01  0.338641E-01
  0.344129E-01  0.352229E-01  0.363200E-01  0.376980E-01  0.392993E-01  0.410067E-01
  0.426591E-01  0.440882E-01  0.451683E-01  0.458587E-01  0.462150E-01  0.463536E-01
  0.463849E-01  0.463536E-01  0.462150E-01  0.458587E-01  0.451683E-01  0.440882E-01
  0.426591E-01  0.410067E-01  0.392993E-01  0.376980E-01  0.363200E-01  0.352229E-01
  0.344129E-01  0.338641E-01  0.335312E-01  0.390877E-01  0.392769E-01  0.394182E-01
  0.394858E-01  0.394975E-01  0.394901E-01  0.394901E-01  0.394975E-01  0.394858E-01
  0.394182E-01  0.392769E-01  0.390877E-01  0.389192E-01  0.388609E-01  0.389978E-01
  0.393940E-01  0.400785E-01  0.410296E-01  0.421678E-01  0.433637E-01  0.444640E-01
  0.453305E-01  0.458868E-01  0.461493E-01  0.462150E-01  0.462068E-01  0.462068E-01
  0.462150E-01  0.461493E-01  0.458868E-01  0.453305E-01  0.444640E-01  0.433637E-01
  0.421678E-01  0.410296E-01  0.400785E-01  0.393940E-01  0.389978E-01  0.388609E-01
  0.389192E-01  0.390877E-01  0.453993E-01  0.457517E-01  0.458868E-01  0.458587E-01
  0.457740E-01  0.457324E-01  0.457740E-01  0.458587E-01  0.458868E-01  0.457517E-01
  0.453993E-01  0.448589E-01  0.442298E-01  0.436442E-01  0.432298E-01  0.430802E-01
  0.432298E-01  0.436442E-01  0.442298E-01  0.448589E-01  0.453993E-01  0.457517E-01
  0.458868E-01  0.458587E-01  0.457740E-01  0.457324E-01  0.457740E-01  0.458587E-01
  0.458868E-01  0.457517E-01  0.453993E-01  0.448589E-01  0.442298E-01  0.436442E-01
  0.432298E-01  0.430802E-01  0.432298E-01  0.436442E-01  0.442298E-01  0.448589E-01
  0.453993E-01  0.517906E-01  0.518644E-01  0.515706E-01  0.511406E-01  0.508390E-01
  0.508390E-01  0.511406E-01  0.515706E-01  0.518644E-01  0.517906E-01  0.512508E-01
  0.503011E-01  0.491053E-01  0.478695E-01  0.467849E-01  0.459832E-01  0.455075E-01
  0.453153E-01  0.453087E-01  0.453714E-01  0.453993E-01  0.453305E-01  0.451683E-01
  0.449788E-01  0.448526E-01  0.448526E-01  0.449788E-01  0.451683E-01  0.453305E-01
  0.453993E-01  0.453714E-01  0.453087E-01  0.453153E-01  0.455075E-01  0.459832E-01
  0.467849E-01  0.478695E-01  0.491053E-01  0.503011E-01  0.512508E-01  0.517906E-01
  0.568829E-01  0.559102E-01  0.545897E-01  0.534794E-01  0.530488E-01  0.534794E-01
  0.545897E-01  0.559102E-01  0.568829E-01  0.570977E-01  0.564317E-01  0.550273E-01
  0.531738E-01  0.511925E-01  0.493576E-01  0.478436E-01  0.467034E-01  0.458903E-01
  0.453087E-01  0.448589E-01  0.444640E-01  0.440882E-01  0.437480E-01  0.435011E-01
  0.434099E-01  0.435011E-01  0.437480E-01  0.440882E-01  0.444640E-01  0.448589E-01
  0.453087E-01  0.458903E-01  0.467034E-01  0.478436E-01  0.493576E-01  0.511925E-01
  0.531738E-01  0.550273E-01  0.564317E-01  0.570977E-01  0.568829E-01  0.583896E-01
  0.554089E-01  0.526024E-01  0.509178E-01  0.509178E-01  0.526024E-01  0.554089E-01
  0.583896E-01  0.605687E-01  0.613304E-01  0.605922E-01  0.586834E-01  0.560998E-01
  0.533193E-01  0.507095E-01  0.484847E-01  0.467034E-01  0.453153E-01  0.442298E-01
  0.433637E-01  0.426591E-01  0.420918E-01  0.416756E-01  0.414504E-01  0.414504E-01
  0.416756E-01  0.420918E-01  0.426591E-01  0.433637E-01  0.442298E-01  0.453153E-01
  0.467034E-01  0.484847E-01  0.507095E-01  0.533193E-01  0.560998E-01  0.586834E-01
  0.605922E-01  0.613304E-01  0.605687E-01  0.583896E-01  0.536934E-01  0.482686E-01
  0.443155E-01  0.428799E-01  0.443155E-01  0.482686E-01  0.536934E-01  0.590528E-01
  0.628642E-01  0.643180E-01  0.634809E-01  0.609927E-01  0.576306E-01  0.540516E-01
  0.507095E-01  0.478436E-01  0.455075E-01  0.436442E-01  0.421678E-01  0.410067E-01
  0.401117E-01  0.394581E-01  0.390504E-01  0.389104E-01  0.390504E-01  0.394581E-01
  0.401117E-01  0.410067E-01  0.421678E-01  0.436442E-01  0.455075E-01  0.478436E-01
  0.507095E-01  0.540516E-01  0.576306E-01  0.609927E-01  0.634809E-01  0.643180E-01
  0.628642E-01  0.590528E-01  0.536934E-01  0.419489E-01  0.351179E-01  0.314123E-01
  0.314123E-01  0.351179E-01  0.419489E-01  0.504743E-01  0.585206E-01  0.640315E-01
  0.660576E-01  0.649545E-01  0.617819E-01  0.576306E-01  0.533193E-01  0.493576E-01
  0.459832E-01  0.432298E-01  0.410296E-01  0.392993E-01  0.379727E-01  0.370004E-01
  0.363524E-01  0.360244E-01  0.360244E-01  0.363524E-01  0.370004E-01  0.379727E-01
  0.392993E-01  0.410296E-01  0.432298E-01  0.459832E-01  0.493576E-01  0.533193E-01
  0.576306E-01  0.617819E-01  0.649545E-01  0.660576E-01  0.640315E-01  0.585206E-01
  0.504743E-01  0.419489E-01  0.262321E-01  0.202623E-01  0.182821E-01  0.202623E-01
  0.262321E-01  0.357903E-01  0.472457E-01  0.576945E-01  0.644719E-01  0.666237E-01
  0.649545E-01  0.609927E-01  0.560998E-01  0.511925E-01  0.467849E-01  0.430802E-01
  0.400785E-01  0.376980E-01  0.358563E-01  0.344873E-01  0.335376E-01  0.329736E-01
  0.327855E-01  0.329736E-01  0.335376E-01  0.344873E-01  0.358563E-01  0.376980E-01
  0.400785E-01  0.430802E-01  0.467849E-01  0.511925E-01  0.560998E-01  0.609927E-01
  0.649545E-01  0.666237E-01  0.644719E-01  0.576945E-01  0.472457E-01  0.357903E-01
  0.262321E-01  0.122797E-01  0.884245E-02  0.884245E-02  0.122797E-01  0.198324E-01
  0.315275E-01  0.452903E-01  0.573242E-01  0.644719E-01  0.660576E-01  0.634809E-01
  0.586834E-01  0.531738E-01  0.478695E-01  0.432298E-01  0.393940E-01  0.363200E-01
  0.339140E-01  0.320930E-01  0.307885E-01  0.299446E-01  0.295281E-01  0.295281E-01
  0.299446E-01  0.307885E-01  0.320930E-01  0.339140E-01  0.363200E-01  0.393940E-01
  0.432298E-01  0.478695E-01  0.531738E-01  0.586834E-01  0.634809E-01  0.660576E-01
  0.644719E-01  0.573242E-01  0.452903E-01  0.315275E-01  0.198324E-01  0.122797E-01
  0.395318E-02  0.285305E-02  0.395318E-02  0.803241E-02  0.166537E-01  0.300317E-01
  0.452903E-01  0.576945E-01  0.640315E-01  0.643180E-01  0.605922E-01  0.550273E-01
  0.491053E-01  0.436442E-01  0.389978E-01  0.352229E-01  0.322382E-01  0.299422E-01
  0.282516E-01  0.270961E-01  0.264215E-01  0.261991E-01  0.264215E-01  0.270961E-01
  0.282516E-01  0.299422E-01  0.322382E-01  0.352229E-01  0.389978E-01  0.436442E-01
  0.491053E-01  0.550273E-01  0.605922E-01  0.643180E-01  0.640315E-01  0.576945E-01
  0.452903E-01  0.300317E-01  0.166537E-01  0.803241E-02  0.395318E-02  0.785995E-03
  0.785995E-03  0.219420E-02  0.677191E-02  0.166537E-01  0.315275E-01  0.472457E-01
  0.585206E-01  0.628642E-01  0.613304E-01  0.564317E-01  0.503011E-01  0.442298E-01
  0.388609E-01  0.344129E-01  0.308608E-01  0.280954E-01  0.260143E-01  0.245344E-01
  0.235865E-01  0.231230E-01  0.231230E-01  0.235865E-01  0.245344E-01  0.260143E-01
  0.280954E-01  0.308608E-01  0.344129E-01  0.388609E-01  0.442298E-01  0.503011E-01
  0.564317E-01  0.613304E-01  0.628642E-01  0.585206E-01  0.472457E-01  0.315275E-01
  0.166537E-01  0.677191E-02  0.219420E-02  0.785995E-03  0.124746E-03  0.397774E-03
  0.219420E-02  0.803241E-02  0.198324E-01  0.357903E-01  0.504743E-01  0.590528E-01
  0.605687E-01  0.570977E-01  0.512508E-01  0.448589E-01  0.389192E-01  0.338641E-01
  0.297746E-01  0.265620E-01  0.241062E-01  0.223085E-01  0.210876E-01  0.203796E-01
  0.201472E-01  0.203796E-01  0.210876E-01  0.223085E-01  0.241062E-01  0.265620E-01
  0.297746E-01  0.338641E-01  0.389192E-01  0.448589E-01  0.512508E-01  0.570977E-01
  0.605687E-01  0.590528E-01  0.504743E-01  0.357903E-01  0.198324E-01  0.803241E-02
  0.219420E-02  0.397774E-03  0.124746E-03  0.124746E-03  0.785995E-03  0.395318E-02
  0.122797E-01  0.262321E-01  0.419489E-01  0.536934E-01  0.583896E-01  0.568829E-01
  0.517906E-01  0.453993E-01  0.390877E-01  0.335312E-01  0.289549E-01  0.253260E-01
  0.225217E-01  0.204255E-01  0.189441E-01  0.180005E-01  0.175410E-01  0.175410E-01
  0.180005E-01  0.189441E-01  0.204255E-01  0.225217E-01  0.253260E-01  0.289549E-01
  0.335312E-01  0.390877E-01  0.453993E-01  0.517906E-01  0.568829E-01  0.583896E-01
  0.536934E-01  0.419489E-01  0.262321E-01  0.122797E-01  0.395318E-02  0.785995E-03
  0.124746E-03  0.124746E-03  0.144769E-02  0.395318E-02  0.104605E-01  0.221104E-01
  0.366729E-01  0.491626E-01  0.556429E-01  0.557180E-01  0.514845E-01  0.453305E-01
  0.388818E-01  0.330090E-01  0.280717E-01  0.241118E-01  0.210236E-01  0.186802E-01
  0.169768E-01  0.158266E-01  0.151622E-01  0.149445E-01  0.151622E-01  0.158266E-01
  0.169768E-01  0.186802E-01  0.210236E-01  0.241118E-01  0.280717E-01  0.330090E-01
  0.388818E-01  0.453305E-01  0.514845E-01  0.557180E-01  0.556429E-01  0.491626E-01
  0.366729E-01  0.221104E-01  0.104605E-01  0.395318E-02  0.144769E-02  0.900259E-03
  0.144769E-02  0.395318E-02  0.884245E-02  0.182821E-01  0.314123E-01  0.443155E-01
  0.526024E-01  0.545897E-01  0.515706E-01  0.458868E-01  0.394182E-01  0.332681E-01
  0.279593E-01  0.236364E-01  0.202337E-01  0.176214E-01  0.156824E-01  0.143208E-01
  0.134571E-01  0.130374E-01  0.130374E-01  0.134571E-01  0.143208E-01  0.156824E-01
  0.176214E-01  0.202337E-01  0.236364E-01  0.279593E-01  0.332681E-01  0.394182E-01
  0.458868E-01  0.515706E-01  0.545897E-01  0.526024E-01  0.443155E-01  0.314123E-01
  0.182821E-01  0.884245E-02  0.395318E-02  0.219420E-02  0.219420E-02  0.395318E-02
  0.104605E-01  0.182821E-01  0.295769E-01  0.415410E-01  0.502241E-01  0.533225E-01
  0.513000E-01  0.461493E-01  0.398010E-01  0.335111E-01  0.279348E-01  0.233155E-01
  0.196412E-01  0.167923E-01  0.146435E-01  0.130911E-01  0.120477E-01  0.114463E-01
  0.112494E-01  0.114463E-01  0.120477E-01  0.130911E-01  0.146435E-01  0.167923E-01
  0.196412E-01  0.233155E-01  0.279348E-01  0.335111E-01  0.398010E-01  0.461493E-01
  0.513000E-01  0.533225E-01  0.502241E-01  0.415410E-01  0.295769E-01  0.182821E-01
  0.104605E-01  0.644888E-02  0.529121E-02  0.644888E-02  0.104605E-01  0.221104E-01
  0.314123E-01  0.415410E-01  0.493307E-01  0.525039E-01  0.509634E-01  0.462150E-01
  0.400311E-01  0.336987E-01  0.279506E-01  0.231063E-01  0.192089E-01  0.161595E-01
  0.138300E-01  0.121106E-01  0.109088E-01  0.101480E-01  0.977818E-02  0.977818E-02
  0.101480E-01  0.109088E-01  0.121106E-01  0.138300E-01  0.161595E-01  0.192089E-01
  0.231063E-01  0.279506E-01  0.336987E-01  0.400311E-01  0.462150E-01  0.509634E-01
  0.525039E-01  0.493307E-01  0.415410E-01  0.314123E-01  0.221104E-01  0.157150E-01
  0.126547E-01  0.126547E-01  0.157150E-01  0.221104E-01  0.366729E-01  0.443155E-01
  0.502241E-01  0.525039E-01  0.508174E-01  0.462068E-01  0.401437E-01  0.338203E-01
  0.279766E-01  0.229751E-01  0.189039E-01  0.156899E-01  0.132088E-01  0.113467E-01
  0.100079E-01  0.910994E-02  0.859196E-02  0.842217E-02  0.859196E-02  0.910994E-02
  0.100079E-01  0.113467E-01  0.132088E-01  0.156899E-01  0.189039E-01  0.229751E-01
  0.279766E-01  0.338203E-01  0.401437E-01  0.462068E-01  0.508174E-01  0.525039E-01
  0.502241E-01  0.443155E-01  0.366729E-01  0.297074E-01  0.251044E-01  0.235303E-01
  0.251044E-01  0.297074E-01  0.366729E-01  0.491626E-01  0.526024E-01  0.533225E-01
  0.509634E-01  0.462068E-01  0.401762E-01  0.338790E-01  0.279978E-01  0.229001E-01
  0.187029E-01  0.153585E-01  0.127520E-01  0.107695E-01  0.931329E-02  0.829803E-02
  0.765492E-02  0.734177E-02  0.734177E-02  0.765492E-02  0.829803E-02  0.931329E-02
  0.107695E-01  0.127520E-01  0.153585E-01  0.187029E-01  0.229001E-01  0.279978E-01
  0.338790E-01  0.401762E-01  0.462068E-01  0.509634E-01  0.533225E-01  0.526024E-01
  0.491626E-01  0.444181E-01  0.401387E-01  0.376753E-01  0.376753E-01  0.401387E-01
  0.444181E-01  0.491626E-01  0.556429E-01  0.545897E-01  0.513000E-01  0.462150E-01
  0.401437E-01  0.338790E-01  0.280059E-01  0.228670E-01  0.185901E-01  0.151483E-01
  0.124406E-01  0.103566E-01  0.879944E-02  0.768303E-02  0.693399E-02  0.650120E-02
  0.635920E-02  0.650120E-02  0.693399E-02  0.768303E-02  0.879944E-02  0.103566E-01
  0.124406E-01  0.151483E-01  0.185901E-01  0.228670E-01  0.280059E-01  0.338790E-01
  0.401437E-01  0.462150E-01  0.513000E-01  0.545897E-01  0.556429E-01  0.547312E-01
  0.528033E-01  0.510403E-01  0.503439E-01  0.510403E-01  0.528033E-01  0.547312E-01
  0.556429E-01  0.557180E-01  0.515706E-01  0.461493E-01  0.400311E-01  0.338203E-01
  0.279978E-01  0.228670E-01  0.185540E-01  0.150472E-01  0.122607E-01  0.100922E-01
  0.844791E-02  0.724288E-02  0.640224E-02  0.586892E-02  0.560915E-02  0.560915E-02
  0.586892E-02  0.640224E-02  0.724288E-02  0.844791E-02  0.100922E-01  0.122607E-01
  0.150472E-01  0.185540E-01  0.228670E-01  0.279978E-01  0.338203E-01  0.400311E-01
  0.461493E-01  0.515706E-01  0.557180E-01  0.582785E-01  0.593826E-01  0.595544E-01
  0.594306E-01  0.594306E-01  0.595544E-01  0.593826E-01  0.582785E-01  0.557180E-01
  0.514845E-01  0.458868E-01  0.398010E-01  0.336987E-01  0.279766E-01  0.229001E-01
  0.185901E-01  0.150472E-01  0.122021E-01  0.996398E-02  0.824434E-02  0.696078E-02
  0.603886E-02  0.541874E-02  0.506048E-02  0.494315E-02  0.506048E-02  0.541874E-02
  0.603886E-02  0.696078E-02  0.824434E-02  0.996398E-02  0.122021E-01  0.150472E-01
  0.185901E-01  0.229001E-01  0.279766E-01  0.336987E-01  0.398010E-01  0.458868E-01
  0.514845E-01  0.561538E-01  0.596200E-01  0.618579E-01  0.630464E-01  0.634098E-01
  0.630464E-01  0.618579E-01  0.596200E-01  0.561538E-01  0.514845E-01  0.453305E-01
  0.394182E-01  0.335111E-01  0.279506E-01  0.229751E-01  0.187029E-01  0.151483E-01
  0.122607E-01  0.996398E-02  0.817790E-02  0.682365E-02  0.582799E-02  0.513030E-02
  0.468726E-02  0.447212E-02  0.447212E-02  0.468726E-02  0.513030E-02  0.582799E-02
  0.682365E-02  0.817790E-02  0.996398E-02  0.122607E-01  0.151483E-01  0.187029E-01
  0.229751E-01  0.279506E-01  0.335111E-01  0.394182E-01  0.453305E-01  0.508513E-01
  0.556012E-01  0.592937E-01  0.617775E-01  0.630146E-01  0.630146E-01  0.617775E-01
  0.592937E-01  0.556012E-01  0.508513E-01  0.453305E-01  0.388818E-01  0.332681E-01
  0.279348E-01  0.231063E-01  0.189039E-01  0.153585E-01  0.124406E-01  0.100922E-01
  0.824434E-02  0.682365E-02  0.575898E-02  0.498963E-02  0.447058E-02  0.417145E-02
  0.407387E-02  0.417145E-02  0.447058E-02  0.498963E-02  0.575898E-02  0.682365E-02
  0.824434E-02  0.100922E-01  0.124406E-01  0.153585E-01  0.189039E-01  0.231063E-01
  0.279348E-01  0.332681E-01  0.388818E-01  0.444640E-01  0.496528E-01  0.540894E-01
  0.574703E-01  0.595795E-01  0.602953E-01  0.595795E-01  0.574703E-01  0.540894E-01
  0.496528E-01  0.444640E-01  0.388818E-01  0.330090E-01  0.279593E-01  0.233155E-01
  0.192089E-01  0.156899E-01  0.127520E-01  0.103566E-01  0.844791E-02  0.696078E-02
  0.582799E-02  0.498963E-02  0.439951E-02  0.402493E-02  0.384367E-02  0.384367E-02
  0.402493E-02  0.439951E-02  0.498963E-02  0.582799E-02  0.696078E-02  0.844791E-02
  0.103566E-01  0.127520E-01  0.156899E-01  0.192089E-01  0.233155E-01  0.279593E-01
  0.330090E-01  0.382436E-01  0.433637E-01  0.480248E-01  0.518822E-01  0.546367E-01
  0.560707E-01  0.560707E-01  0.546367E-01  0.518822E-01  0.480248E-01  0.433637E-01
  0.382436E-01  0.330090E-01  0.280717E-01  0.236364E-01  0.196412E-01  0.161595E-01
  0.132088E-01  0.107695E-01  0.879944E-02  0.724288E-02  0.603886E-02  0.513030E-02
  0.447058E-02  0.402493E-02  0.376838E-02  0.368479E-02  0.376838E-02  0.402493E-02
  0.447058E-02  0.513030E-02  0.603886E-02  0.724288E-02  0.879944E-02  0.107695E-01
  0.132088E-01  0.161595E-01  0.196412E-01  0.236364E-01  0.280717E-01  0.328004E-01
  0.375965E-01  0.421678E-01  0.461868E-01  0.493337E-01  0.513409E-01  0.520307E-01
  0.513409E-01  0.493337E-01  0.461868E-01  0.421678E-01  0.375965E-01  0.328004E-01
  0.280717E-01  0.241118E-01  0.202337E-01  0.167923E-01  0.138300E-01  0.113467E-01
  0.931329E-02  0.768303E-02  0.640224E-02  0.541874E-02  0.468726E-02  0.417145E-02
  0.384367E-02  0.368479E-02  0.368479E-02  0.384367E-02  0.417145E-02  0.468726E-02
  0.541874E-02  0.640224E-02  0.768303E-02  0.931329E-02  0.113467E-01  0.138300E-01
  0.167923E-01  0.202337E-01  0.241118E-01  0.283278E-01  0.327161E-01  0.370445E-01
  0.410296E-01  0.443682E-01  0.467787E-01  0.480433E-01  0.480433E-01  0.467787E-01
  0.443682E-01  0.410296E-01  0.370445E-01  0.327161E-01  0.283278E-01  0.241118E-01
  0.210236E-01  0.176214E-01  0.146435E-01  0.121106E-01  0.100079E-01  0.829803E-02
  0.693399E-02  0.586892E-02  0.506048E-02  0.447212E-02  0.407387E-02  0.384367E-02
  0.376838E-02  0.384367E-02  0.407387E-02  0.447212E-02  0.506048E-02  0.586892E-02
  0.693399E-02  0.829803E-02  0.100079E-01  0.121106E-01  0.146435E-01  0.176214E-01
  0.210236E-01  0.247824E-01  0.287745E-01  0.328175E-01  0.366755E-01  0.400785E-01
  0.427539E-01  0.444665E-01  0.450563E-01  0.444665E-01  0.427539E-01  0.400785E-01
  0.366755E-01  0.328175E-01  0.287745E-01  0.247824E-01  0.210236E-01  0.186802E-01
  0.156824E-01  0.130911E-01  0.109088E-01  0.910994E-02  0.765492E-02  0.650120E-02
  0.560915E-02  0.494315E-02  0.447212E-02  0.417145E-02  0.402493E-02  0.402493E-02
  0.417145E-02  0.447212E-02  0.494315E-02  0.560915E-02  0.650120E-02  0.765492E-02
  0.910994E-02  0.109088E-01  0.130911E-01  0.156824E-01  0.186802E-01  0.220422E-01
  0.256776E-01  0.294434E-01  0.331447E-01  0.365460E-01  0.393940E-01  0.414506E-01
  0.425299E-01  0.425299E-01  0.414506E-01  0.393940E-01  0.365460E-01  0.331447E-01
  0.294434E-01  0.256776E-01  0.220422E-01  0.186802E-01  0.169768E-01  0.143208E-01
  0.120477E-01  0.101480E-01  0.859196E-02  0.734177E-02  0.635920E-02  0.560915E-02
  0.506048E-02  0.468726E-02  0.447058E-02  0.439951E-02  0.447058E-02  0.468726E-02
  0.506048E-02  0.560915E-02  0.635920E-02  0.734177E-02  0.859196E-02  0.101480E-01
  0.120477E-01  0.143208E-01  0.169768E-01  0.199941E-01  0.233103E-01  0.268160E-01
  0.303524E-01  0.337161E-01  0.366755E-01  0.389978E-01  0.404823E-01  0.409932E-01
  0.404823E-01  0.389978E-01  0.366755E-01  0.337161E-01  0.303524E-01  0.268160E-01
  0.233103E-01  0.199941E-01  0.169768E-01  0.158266E-01  0.134571E-01  0.114463E-01
  0.977818E-02  0.842217E-02  0.734177E-02  0.650120E-02  0.586892E-02  0.541874E-02
  0.513030E-02  0.498963E-02  0.498963E-02  0.513030E-02  0.541874E-02  0.586892E-02
  0.650120E-02  0.734177E-02  0.842217E-02  0.977818E-02  0.114463E-01  0.134571E-01
  0.158266E-01  0.185470E-01  0.215780E-01  0.248396E-01  0.282053E-01  0.315026E-01
  0.345230E-01  0.370445E-01  0.388609E-01  0.398125E-01  0.398125E-01  0.388609E-01
  0.370445E-01  0.345230E-01  0.315026E-01  0.282053E-01  0.248396E-01  0.215780E-01
  0.185470E-01  0.158266E-01  0.151622E-01  0.130374E-01  0.112494E-01  0.977818E-02
  0.859196E-02  0.765492E-02  0.693399E-02  0.640224E-02  0.603886E-02  0.582799E-02
  0.575898E-02  0.582799E-02  0.603886E-02  0.640224E-02  0.693399E-02  0.765492E-02
  0.859196E-02  0.977818E-02  0.112494E-01  0.130374E-01  0.151622E-01  0.176249E-01
  0.204015E-01  0.234348E-01  0.266260E-01  0.298307E-01  0.328645E-01  0.355210E-01
  0.375965E-01  0.389192E-01  0.393736E-01  0.389192E-01  0.375965E-01  0.355210E-01
  0.328645E-01  0.298307E-01  0.266260E-01  0.234348E-01  0.204015E-01  0.176249E-01
  0.151622E-01  0.149445E-01  0.130374E-01  0.114463E-01  0.101480E-01  0.910994E-02
  0.829803E-02  0.768303E-02  0.724288E-02  0.696078E-02  0.682365E-02  0.682365E-02
  0.696078E-02  0.724288E-02  0.768303E-02  0.829803E-02  0.910994E-02  0.101480E-01
  0.114463E-01  0.130374E-01  0.149445E-01  0.171756E-01  0.197188E-01  0.225346E-01
  0.255469E-01  0.286355E-01  0.316384E-01  0.343666E-01  0.366262E-01  0.382436E-01
  0.390877E-01  0.390877E-01  0.382436E-01  0.366262E-01  0.343666E-01  0.316384E-01
  0.286355E-01  0.255469E-01  0.225346E-01  0.197188E-01  0.171756E-01  0.149445E-01
  0.151622E-01  0.134571E-01  0.120477E-01  0.109088E-01  0.100079E-01  0.931329E-02
  0.879944E-02  0.844791E-02  0.824434E-02  0.817790E-02  0.824434E-02  0.844791E-02
  0.879944E-02  0.931329E-02  0.100079E-01  0.109088E-01  0.120477E-01  0.134571E-01
  0.151622E-01  0.171756E-01  0.194946E-01  0.220940E-01  0.249165E-01  0.278629E-01
  0.307916E-01  0.335305E-01  0.358980E-01  0.377266E-01  0.388818E-01  0.392769E-01
  0.388818E-01  0.377266E-01  0.358980E-01  0.335305E-01  0.307916E-01  0.278629E-01
  0.249165E-01  0.220940E-01  0.194946E-01  0.171756E-01  0.151622E-01  0.158266E-01
  0.143208E-01  0.130911E-01  0.121106E-01  0.113467E-01  0.107695E-01  0.103566E-01
  0.100922E-01  0.996398E-02  0.996398E-02  0.100922E-01  0.103566E-01  0.107695E-01
  0.113467E-01  0.121106E-01  0.130911E-01  0.143208E-01  0.158266E-01  0.176249E-01
  0.197188E-01  0.220940E-01  0.247085E-01  0.274815E-01  0.302900E-01  0.329785E-01
  0.353784E-01  0.373312E-01  0.387075E-01  0.394182E-01  0.394182E-01  0.387075E-01
  0.373312E-01  0.353784E-01  0.329785E-01  0.302900E-01  0.274815E-01  0.247085E-01
  0.220940E-01  0.197188E-01  0.176249E-01  0.158266E-01  0.169768E-01  0.156824E-01
  0.146435E-01  0.138300E-01  0.132088E-01  0.127520E-01  0.124406E-01  0.122607E-01
  0.122021E-01  0.122607E-01  0.124406E-01  0.127520E-01  0.132088E-01  0.138300E-01
  0.146435E-01  0.156824E-01  0.169768E-01  0.185470E-01  0.204015E-01  0.225346E-01
  0.249165E-01  0.274815E-01  0.301229E-01  0.327008E-01  0.350597E-01  0.370511E-01
  0.385541E-01  0.394858E-01  0.398010E-01  0.394858E-01  0.385541E-01  0.370511E-01
  0.350597E-01  0.327008E-01  0.301229E-01  0.274815E-01  0.249165E-01  0.225346E-01
  0.204015E-01  0.185470E-01  0.169768E-01  0.186802E-01  0.176214E-01  0.167923E-01
  0.161595E-01  0.156899E-01  0.153585E-01  0.151483E-01  0.150472E-01  0.150472E-01
  0.151483E-01  0.153585E-01  0.156899E-01  0.161595E-01  0.167923E-01  0.176214E-01
  0.186802E-01  0.199941E-01  0.215780E-01  0.234348E-01  0.255469E-01  0.278629E-01
  0.302900E-01  0.327008E-01  0.349512E-01  0.369025E-01  0.384425E-01  0.394975E-01
  0.400311E-01  0.400311E-01  0.394975E-01  0.384425E-01  0.369025E-01  0.349512E-01
  0.327008E-01  0.302900E-01  0.278629E-01  0.255469E-01  0.234348E-01  0.215780E-01
  0.199941E-01  0.186802E-01  0.210236E-01  0.202337E-01  0.196412E-01  0.192089E-01
  0.189039E-01  0.187029E-01  0.185901E-01  0.185540E-01  0.185901E-01  0.187029E-01
  0.189039E-01  0.192089E-01  0.196412E-01  0.202337E-01  0.210236E-01  0.220422E-01
  0.233103E-01  0.248396E-01  0.266260E-01  0.286355E-01  0.307916E-01  0.329785E-01
  0.350597E-01  0.369025E-01  0.384012E-01  0.394901E-01  0.401437E-01  0.403607E-01
  0.401437E-01  0.394901E-01  0.384012E-01  0.369025E-01  0.350597E-01  0.329785E-01
  0.307916E-01  0.286355E-01  0.266260E-01  0.248396E-01  0.233103E-01  0.220422E-01
  0.210236E-01  0.241118E-01  0.236364E-01  0.233155E-01  0.231063E-01  0.229751E-01
  0.229001E-01  0.228670E-01  0.228670E-01  0.229001E-01  0.229751E-01  0.231063E-01
  0.233155E-01  0.236364E-01  0.241118E-01  0.247824E-01  0.256776E-01  0.268160E-01
  0.282053E-01  0.298307E-01  0.316384E-01  0.335305E-01  0.353784E-01  0.370511E-01
  0.384425E-01  0.394901E-01  0.401762E-01  0.405119E-01  0.405119E-01  0.401762E-01
  0.394901E-01  0.384425E-01  0.370511E-01  0.353784E-01  0.335305E-01  0.316384E-01
  0.298307E-01  0.282053E-01  0.268160E-01  0.256776E-01  0.247824E-01  0.241118E-01
  0.280717E-01  0.279593E-01  0.279348E-01  0.279506E-01  0.279766E-01  0.279978E-01
  0.280059E-01  0.279978E-01  0.279766E-01  0.279506E-01  0.279348E-01  0.279593E-01
  0.280717E-01  0.283278E-01  0.287745E-01  0.294434E-01  0.303524E-01  0.315026E-01
  0.328645E-01  0.343666E-01  0.358980E-01  0.373312E-01  0.385541E-01  0.394975E-01
  0.401437E-01  0.405119E-01  0.406305E-01  0.405119E-01  0.401437E-01  0.394975E-01
  0.385541E-01  0.373312E-01  0.358980E-01  0.343666E-01  0.328645E-01  0.315026E-01
  0.303524E-01  0.294434E-01  0.287745E-01  0.283278E-01  0.280717E-01  0.330090E-01
  0.332681E-01  0.335111E-01  0.336987E-01  0.338203E-01  0.338790E-01  0.338790E-01
  0.338203E-01  0.336987E-01  0.335111E-01  0.332681E-01  0.330090E-01  0.328004E-01
  0.327161E-01  0.328175E-01  0.331447E-01  0.337161E-01  0.345230E-01  0.355210E-01
  0.366262E-01  0.377266E-01  0.387075E-01  0.394858E-01  0.400311E-01  0.403607E-01
  0.405119E-01  0.405119E-01  0.403607E-01  0.400311E-01  0.394858E-01  0.387075E-01
  0.377266E-01  0.366262E-01  0.355210E-01  0.345230E-01  0.337161E-01  0.331447E-01
  0.328175E-01  0.327161E-01  0.328004E-01  0.330090E-01  0.388818E-01  0.394182E-01
  0.398010E-01  0.400311E-01  0.401437E-01  0.401762E-01  0.401437E-01  0.400311E-01
  0.398010E-01  0.394182E-01  0.388818E-01  0.382436E-01  0.375965E-01  0.370445E-01
  0.366755E-01  0.365460E-01  0.366755E-01  0.370445E-01  0.375965E-01  0.382436E-01
  0.388818E-01  0.394182E-01  0.398010E-01  0.400311E-01  0.401437E-01  0.401762E-01
  0.401437E-01  0.400311E-01  0.398010E-01  0.394182E-01  0.388818E-01  0.382436E-01
  0.375965E-01  0.370445E-01  0.366755E-01  0.365460E-01  0.366755E-01  0.370445E-01
  0.375965E-01  0.382436E-01  0.388818E-01  0.453305E-01  0.458868E-01  0.461493E-01
  0.462150E-01  0.462068E-01  0.462068E-01  0.462150E-01  0.461493E-01  0.458868E-01
  0.453305E-01  0.444640E-01  0.433637E-01  0.421678E-01  0.410296E-01  0.400785E-01
  0.393940E-01  0.389978E-01  0.388609E-01  0.389192E-01  0.390877E-01  0.392769E-01
  0.394182E-01  0.394858E-01  0.394975E-01  0.394901E-01  0.394901E-01  0.394975E-01
  0.394858E-01  0.394182E-01  0.392769E-01  0.390877E-01  0.389192E-01  0.388609E-01
  0.389978E-01  0.393940E-01  0.400785E-01  0.410296E-01  0.421678E-01  0.433637E-01
  0.444640E-01  0.453305E-01  0.514845E-01  0.515706E-01  0.513000E-01  0.509634E-01
  0.508174E-01  0.509634E-01  0.513000E-01  0.515706E-01  0.514845E-01  0.508513E-01
  0.496528E-01  0.480248E-01  0.461868E-01  0.443682E-01  0.427539E-01  0.414506E-01
  0.404823E-01  0.398125E-01  0.393736E-01  0.390877E-01  0.388818E-01  0.387075E-01
  0.385541E-01  0.384425E-01  0.384012E-01  0.384425E-01  0.385541E-01  0.387075E-01
  0.388818E-01  0.390877E-01  0.393736E-01  0.398125E-01  0.404823E-01  0.414506E-01
  0.427539E-01  0.443682E-01  0.461868E-01  0.480248E-01  0.496528E-01  0.508513E-01
  0.514845E-01  0.557180E-01  0.545897E-01  0.533225E-01  0.525039E-01  0.525039E-01
  0.533225E-01  0.545897E-01  0.557180E-01  0.561538E-01  0.556012E-01  0.540894E-01
  0.518822E-01  0.493337E-01  0.467787E-01  0.444665E-01  0.425299E-01  0.409932E-01
  0.398125E-01  0.389192E-01  0.382436E-01  0.377266E-01  0.373312E-01  0.370511E-01
  0.369025E-01  0.369025E-01  0.370511E-01  0.373312E-01  0.377266E-01  0.382436E-01
  0.389192E-01  0.398125E-01  0.409932E-01  0.425299E-01  0.444665E-01  0.467787E-01
  0.493337E-01  0.518822E-01  0.540894E-01  0.556012E-01  0.561538E-01  0.557180E-01
  0.556429E-01  0.526024E-01  0.502241E-01  0.493307E-01  0.502241E-01  0.526024E-01
  0.556429E-01  0.582785E-01  0.596200E-01  0.592937E-01  0.574703E-01  0.546367E-01
  0.513409E-01  0.480433E-01  0.450563E-01  0.425299E-01  0.404823E-01  0.388609E-01
  0.375965E-01  0.366262E-01  0.358980E-01  0.353784E-01  0.350597E-01  0.349512E-01
  0.350597E-01  0.353784E-01  0.358980E-01  0.366262E-01  0.375965E-01  0.388609E-01
  0.404823E-01  0.425299E-01  0.450563E-01  0.480433E-01  0.513409E-01  0.546367E-01
  0.574703E-01  0.592937E-01  0.596200E-01  0.582785E-01  0.556429E-01  0.491626E-01
  0.443155E-01  0.415410E-01  0.415410E-01  0.443155E-01  0.491626E-01  0.547312E-01
  0.593826E-01  0.618579E-01  0.617775E-01  0.595795E-01  0.560707E-01  0.520307E-01
  0.480433E-01  0.444665E-01  0.414506E-01  0.389978E-01  0.370445E-01  0.355210E-01
  0.343666E-01  0.335305E-01  0.329785E-01  0.327008E-01  0.327008E-01  0.329785E-01
  0.335305E-01  0.343666E-01  0.355210E-01  0.370445E-01  0.389978E-01  0.414506E-01
  0.444665E-01  0.480433E-01  0.520307E-01  0.560707E-01  0.595795E-01  0.617775E-01
  0.618579E-01  0.593826E-01  0.547312E-01  0.491626E-01  0.366729E-01  0.314123E-01
  0.295769E-01  0.314123E-01  0.366729E-01  0.444181E-01  0.528033E-01  0.595544E-01
  0.630464E-01  0.630146E-01  0.602953E-01  0.560707E-01  0.513409E-01  0.467787E-01
  0.427539E-01  0.393940E-01  0.366755E-01  0.345230E-01  0.328645E-01  0.316384E-01
  0.307916E-01  0.302900E-01  0.301229E-01  0.302900E-01  0.307916E-01  0.316384E-01
  0.328645E-01  0.345230E-01  0.366755E-01  0.393940E-01  0.427539E-01  0.467787E-01
  0.513409E-01  0.560707E-01  0.602953E-01  0.630146E-01  0.630464E-01  0.595544E-01
  0.528033E-01  0.444181E-01  0.366729E-01  0.221104E-01  0.182821E-01  0.182821E-01
  0.221104E-01  0.297074E-01  0.401387E-01  0.510403E-01  0.594306E-01  0.634098E-01
  0.630146E-01  0.595795E-01  0.546367E-01  0.493337E-01  0.443682E-01  0.400785E-01
  0.365460E-01  0.337161E-01  0.315026E-01  0.298307E-01  0.286355E-01  0.278629E-01
  0.274815E-01  0.274815E-01  0.278629E-01  0.286355E-01  0.298307E-01  0.315026E-01
  0.337161E-01  0.365460E-01  0.400785E-01  0.443682E-01  0.493337E-01  0.546367E-01
  0.595795E-01  0.630146E-01  0.634098E-01  0.594306E-01  0.510403E-01  0.401387E-01
  0.297074E-01  0.221104E-01  0.104605E-01  0.884245E-02  0.104605E-01  0.157150E-01
  0.251044E-01  0.376753E-01  0.503439E-01  0.594306E-01  0.630464E-01  0.617775E-01
  0.574703E-01  0.518822E-01  0.461868E-01  0.410296E-01  0.366755E-01  0.331447E-01
  0.303524E-01  0.282053E-01  0.266260E-01  0.255469E-01  0.249165E-01  0.247085E-01
  0.249165E-01  0.255469E-01  0.266260E-01  0.282053E-01  0.303524E-01  0.331447E-01
  0.366755E-01  0.410296E-01  0.461868E-01  0.518822E-01  0.574703E-01  0.617775E-01
  0.630464E-01  0.594306E-01  0.503439E-01  0.376753E-01  0.251044E-01  0.157150E-01
  0.104605E-01  0.395318E-02  0.395318E-02  0.644888E-02  0.126547E-01  0.235303E-01
  0.376753E-01  0.510403E-01  0.595544E-01  0.618579E-01  0.592937E-01  0.540894E-01
  0.480248E-01  0.421678E-01  0.370445E-01  0.328175E-01  0.294434E-01  0.268160E-01
  0.248396E-01  0.234348E-01  0.225346E-01  0.220940E-01  0.220940E-01  0.225346E-01
  0.234348E-01  0.248396E-01  0.268160E-01  0.294434E-01  0.328175E-01  0.370445E-01
  0.421678E-01  0.480248E-01  0.540894E-01  0.592937E-01  0.618579E-01  0.595544E-01
  0.510403E-01  0.376753E-01  0.235303E-01  0.126547E-01  0.644888E-02  0.395318E-02
  0.144769E-02  0.219420E-02  0.529121E-02  0.126547E-01  0.251044E-01  0.401387E-01
  0.528033E-01  0.593826E-01  0.596200E-01  0.556012E-01  0.496528E-01  0.433637E-01
  0.375965E-01  0.327161E-01  0.287745E-01  0.256776E-01  0.233103E-01  0.215780E-01
  0.204015E-01  0.197188E-01  0.194946E-01  0.197188E-01  0.204015E-01  0.215780E-01
  0.233103E-01  0.256776E-01  0.287745E-01  0.327161E-01  0.375965E-01  0.433637E-01
  0.496528E-01  0.556012E-01  0.596200E-01  0.593826E-01  0.528033E-01  0.401387E-01
  0.251044E-01  0.126547E-01  0.529121E-02  0.219420E-02  0.144769E-02  0.900259E-03
  0.219420E-02  0.644888E-02  0.157150E-01  0.297074E-01  0.444181E-01  0.547312E-01
  0.582785E-01  0.561538E-01  0.508513E-01  0.444640E-01  0.382436E-01  0.328004E-01
  0.283278E-01  0.247824E-01  0.220422E-01  0.199941E-01  0.185470E-01  0.176249E-01
  0.171756E-01  0.171756E-01  0.176249E-01  0.185470E-01  0.199941E-01  0.220422E-01
  0.247824E-01  0.283278E-01  0.328004E-01  0.382436E-01  0.444640E-01  0.508513E-01
  0.561538E-01  0.582785E-01  0.547312E-01  0.444181E-01  0.297074E-01  0.157150E-01
  0.644888E-02  0.219420E-02  0.900259E-03  0.900259E-03  0.144769E-02  0.395318E-02
  0.104605E-01  0.221104E-01  0.366729E-01  0.491626E-01  0.556429E-01  0.557180E-01
  0.514845E-01  0.453305E-01  0.388818E-01  0.330090E-01  0.280717E-01  0.241118E-01
  0.210236E-01  0.186802E-01  0.169768E-01  0.158266E-01  0.151622E-01  0.149445E-01
  0.151622E-01  0.158266E-01  0.169768E-01  0.186802E-01  0.210236E-01  0.241118E-01
  0.280717E-01  0.330090E-01  0.388818E-01  0.453305E-01  0.514845E-01  0.557180E-01
  0.556429E-01  0.491626E-01  0.366729E-01  0.221104E-01  0.104605E-01  0.395318E-02
  0.144769E-02  0.900259E-03  0.144769E-02  0.666228E-02  0.122797E-01  0.221104E-01
  0.348114E-01  0.465490E-01  0.535133E-01  0.545318E-01  0.510155E-01  0.451683E-01
  0.387075E-01  0.326350E-01  0.274205E-01  0.231829E-01  0.198482E-01  0.172879E-01
  0.153877E-01  0.140532E-01  0.132064E-01  0.127945E-01  0.127945E-01  0.132064E-01
  0.140532E-01  0.153877E-01  0.172879E-01  0.198482E-01  0.231829E-01  0.274205E-01
  0.326350E-01  0.387075E-01  0.451683E-01  0.510155E-01  0.545318E-01  0.535133E-01
  0.465490E-01  0.348114E-01  0.221104E-01  0.122797E-01  0.666228E-02  0.439926E-02
  0.439926E-02  0.666228E-02  0.122797E-01  0.202623E-01  0.314123E-01  0.428799E-01
  0.509178E-01  0.534794E-01  0.511406E-01  0.458587E-01  0.394858E-01  0.332200E-01
  0.276844E-01  0.231059E-01  0.194655E-01  0.166430E-01  0.145141E-01  0.129762E-01
  0.119423E-01  0.113462E-01  0.111510E-01  0.113462E-01  0.119423E-01  0.129762E-01
  0.145141E-01  0.166430E-01  0.194655E-01  0.231059E-01  0.276844E-01  0.332200E-01
  0.394858E-01  0.458587E-01  0.511406E-01  0.534794E-01  0.509178E-01  0.428799E-01
  0.314123E-01  0.202623E-01  0.122797E-01  0.803241E-02  0.677191E-02  0.803241E-02
  0.122797E-01  0.221104E-01  0.314123E-01  0.415410E-01  0.493307E-01  0.525039E-01
  0.509634E-01  0.462150E-01  0.400311E-01  0.336987E-01  0.279506E-01  0.231063E-01
  0.192089E-01  0.161595E-01  0.138300E-01  0.121106E-01  0.109088E-01  0.101480E-01
  0.977818E-02  0.977818E-02  0.101480E-01  0.109088E-01  0.121106E-01  0.138300E-01
  0.161595E-01  0.192089E-01  0.231063E-01  0.279506E-01  0.336987E-01  0.400311E-01
  0.462150E-01  0.509634E-01  0.525039E-01  0.493307E-01  0.415410E-01  0.314123E-01
  0.221104E-01  0.157150E-01  0.126547E-01  0.126547E-01  0.157150E-01  0.221104E-01
  0.348114E-01  0.428799E-01  0.493307E-01  0.521132E-01  0.507777E-01  0.463536E-01
  0.403607E-01  0.340437E-01  0.281776E-01  0.231449E-01  0.190444E-01  0.158065E-01
  0.133068E-01  0.114306E-01  0.100815E-01  0.917681E-02  0.865514E-02  0.848419E-02
  0.865514E-02  0.917681E-02  0.100815E-01  0.114306E-01  0.133068E-01  0.158065E-01
  0.190444E-01  0.231449E-01  0.281776E-01  0.340437E-01  0.403607E-01  0.463536E-01
  0.507777E-01  0.521132E-01  0.493307E-01  0.428799E-01  0.348114E-01  0.276168E-01
  0.229401E-01  0.213560E-01  0.229401E-01  0.276168E-01  0.348114E-01  0.465490E-01
  0.509178E-01  0.525039E-01  0.507777E-01  0.463849E-01  0.405119E-01  0.342493E-01
  0.283411E-01  0.231935E-01  0.189454E-01  0.155583E-01  0.129185E-01  0.109100E-01
  0.943437E-02  0.840569E-02  0.775437E-02  0.743736E-02  0.743736E-02  0.775437E-02
  0.840569E-02  0.943437E-02  0.109100E-01  0.129185E-01  0.155583E-01  0.189454E-01
  0.231935E-01  0.283411E-01  0.342493E-01  0.405119E-01  0.463849E-01  0.507777E-01
  0.525039E-01  0.509178E-01  0.465490E-01  0.410295E-01  0.362535E-01  0.335667E-01
  0.335667E-01  0.362535E-01  0.410295E-01  0.465490E-01  0.535133E-01  0.534794E-01
  0.509634E-01  0.463536E-01  0.405119E-01  0.343174E-01  0.284268E-01  0.232322E-01
  0.188928E-01  0.153965E-01  0.126455E-01  0.105277E-01  0.894473E-02  0.780979E-02
  0.704860E-02  0.660894E-02  0.646470E-02  0.660894E-02  0.704860E-02  0.780979E-02
  0.894473E-02  0.105277E-01  0.126455E-01  0.153965E-01  0.188928E-01  0.232322E-01
  0.284268E-01  0.343174E-01  0.405119E-01  0.463536E-01  0.509634E-01  0.534794E-01
  0.535133E-01  0.515170E-01  0.486672E-01  0.463092E-01  0.454105E-01  0.463092E-01
  0.486672E-01  0.515170E-01  0.535133E-01  0.545318E-01  0.511406E-01  0.462150E-01
  0.403607E-01  0.342493E-01  0.284268E-01  0.232470E-01  0.188713E-01  0.153069E-01
  0.124737E-01  0.102683E-01  0.859524E-02  0.736922E-02  0.651433E-02  0.597210E-02
  0.570792E-02  0.570792E-02  0.597210E-02  0.651433E-02  0.736922E-02  0.859524E-02
  0.102683E-01  0.124737E-01  0.153069E-01  0.188713E-01  0.232470E-01  0.284268E-01
  0.342493E-01  0.403607E-01  0.462150E-01  0.511406E-01  0.545318E-01  0.561397E-01
  0.562621E-01  0.556342E-01  0.550659E-01  0.550659E-01  0.556342E-01  0.562621E-01
  0.561397E-01  0.545318E-01  0.510155E-01  0.458587E-01  0.400311E-01  0.340437E-01
  0.283411E-01  0.232322E-01  0.188713E-01  0.152786E-01  0.123915E-01  0.101191E-01
  0.837211E-02  0.706820E-02  0.613237E-02  0.550322E-02  0.513959E-02  0.502040E-02
  0.513959E-02  0.550322E-02  0.613237E-02  0.706820E-02  0.837211E-02  0.101191E-01
  0.123915E-01  0.152786E-01  0.188713E-01  0.232322E-01  0.283411E-01  0.340437E-01
  0.400311E-01  0.458587E-01  0.510155E-01  0.550604E-01  0.577883E-01  0.593150E-01
  0.599877E-01  0.601627E-01  0.599877E-01  0.593150E-01  0.577883E-01  0.550604E-01
  0.510155E-01  0.451683E-01  0.394858E-01  0.336987E-01  0.281776E-01  0.231935E-01
  0.188928E-01  0.153069E-01  0.123915E-01  0.100707E-01  0.826403E-02  0.689386E-02
  0.588733E-02  0.518272E-02  0.473525E-02  0.451774E-02  0.451774E-02  0.473525E-02
  0.518272E-02  0.588733E-02  0.689386E-02  0.826403E-02  0.100707E-01  0.123915E-01
  0.153069E-01  0.188928E-01  0.231935E-01  0.281776E-01  0.336987E-01  0.394858E-01
  0.451683E-01  0.503363E-01  0.546304E-01  0.578306E-01  0.598902E-01  0.608806E-01
  0.608806E-01  0.598902E-01  0.578306E-01  0.546304E-01  0.503363E-01  0.451683E-01
  0.387075E-01  0.332200E-01  0.279506E-01  0.231449E-01  0.189454E-01  0.153965E-01
  0.124737E-01  0.101191E-01  0.826403E-02  0.683691E-02  0.576789E-02  0.499615E-02
  0.447568E-02  0.417557E-02  0.407759E-02  0.417557E-02  0.447568E-02  0.499615E-02
  0.576789E-02  0.683691E-02  0.826403E-02  0.101191E-01  0.124737E-01  0.153965E-01
  0.189454E-01  0.231449E-01  0.279506E-01  0.332200E-01  0.387075E-01  0.440882E-01
  0.490050E-01  0.531285E-01  0.562095E-01  0.581001E-01  0.587356E-01  0.581001E-01
  0.562095E-01  0.531285E-01  0.490050E-01  0.440882E-01  0.387075E-01  0.326350E-01
  0.276844E-01  0.231063E-01  0.190444E-01  0.155583E-01  0.126455E-01  0.102683E-01
  0.837211E-02  0.689386E-02  0.576789E-02  0.493489E-02  0.434865E-02  0.397652E-02
  0.379642E-02  0.379642E-02  0.397652E-02  0.434865E-02  0.493489E-02  0.576789E-02
  0.689386E-02  0.837211E-02  0.102683E-01  0.126455E-01  0.155583E-01  0.190444E-01
  0.231063E-01  0.276844E-01  0.326350E-01  0.377266E-01  0.426591E-01  0.471020E-01
  0.507399E-01  0.533135E-01  0.546448E-01  0.546448E-01  0.533135E-01  0.507399E-01
  0.471020E-01  0.426591E-01  0.377266E-01  0.326350E-01  0.274205E-01  0.231059E-01
  0.192089E-01  0.158065E-01  0.129185E-01  0.105277E-01  0.859524E-02  0.706820E-02
  0.588733E-02  0.499615E-02  0.434865E-02  0.391111E-02  0.365935E-02  0.357738E-02
  0.365935E-02  0.391111E-02  0.434865E-02  0.499615E-02  0.588733E-02  0.706820E-02
  0.859524E-02  0.105277E-01  0.129185E-01  0.158065E-01  0.192089E-01  0.231059E-01
  0.274205E-01  0.320026E-01  0.366262E-01  0.410067E-01  0.448340E-01  0.478136E-01
  0.497055E-01  0.503541E-01  0.497055E-01  0.478136E-01  0.448340E-01  0.410067E-01
  0.366262E-01  0.320026E-01  0.274205E-01  0.231829E-01  0.194655E-01  0.161595E-01
  0.133068E-01  0.109100E-01  0.894473E-02  0.736922E-02  0.613237E-02  0.518272E-02
  0.447568E-02  0.397652E-02  0.365935E-02  0.350580E-02  0.350580E-02  0.365935E-02
  0.397652E-02  0.447568E-02  0.518272E-02  0.613237E-02  0.736922E-02  0.894473E-02
  0.109100E-01  0.133068E-01  0.161595E-01  0.194655E-01  0.231829E-01  0.272156E-01
  0.314030E-01  0.355210E-01  0.392993E-01  0.424537E-01  0.447242E-01  0.459130E-01
  0.459130E-01  0.447242E-01  0.424537E-01  0.392993E-01  0.355210E-01  0.314030E-01
  0.272156E-01  0.231829E-01  0.198482E-01  0.166430E-01  0.138300E-01  0.114306E-01
  0.943437E-02  0.780979E-02  0.651433E-02  0.550322E-02  0.473525E-02  0.417557E-02
  0.379642E-02  0.357738E-02  0.350580E-02  0.357738E-02  0.379642E-02  0.417557E-02
  0.473525E-02  0.550322E-02  0.651433E-02  0.780979E-02  0.943437E-02  0.114306E-01
  0.138300E-01  0.166430E-01  0.198482E-01  0.233819E-01  0.271283E-01  0.309158E-01
  0.345230E-01  0.376980E-01  0.401892E-01  0.417815E-01  0.423293E-01  0.417815E-01
  0.401892E-01  0.376980E-01  0.345230E-01  0.309158E-01  0.271283E-01  0.233819E-01
  0.198482E-01  0.172879E-01  0.145141E-01  0.121106E-01  0.100815E-01  0.840569E-02
  0.704860E-02  0.597210E-02  0.513959E-02  0.451774E-02  0.407759E-02  0.379642E-02
  0.365935E-02  0.365935E-02  0.379642E-02  0.407759E-02  0.451774E-02  0.513959E-02
  0.597210E-02  0.704860E-02  0.840569E-02  0.100815E-01  0.121106E-01  0.145141E-01
  0.172879E-01  0.203918E-01  0.237415E-01  0.272043E-01  0.306010E-01  0.337161E-01
  0.363200E-01  0.381979E-01  0.391826E-01  0.391826E-01  0.381979E-01  0.363200E-01
  0.337161E-01  0.306010E-01  0.272043E-01  0.237415E-01  0.203918E-01  0.172879E-01
  0.153877E-01  0.129762E-01  0.109088E-01  0.917681E-02  0.775437E-02  0.660894E-02
  0.570792E-02  0.502040E-02  0.451774E-02  0.417557E-02  0.397652E-02  0.391111E-02
  0.397652E-02  0.417557E-02  0.451774E-02  0.502040E-02  0.570792E-02  0.660894E-02
  0.775437E-02  0.917681E-02  0.109088E-01  0.129762E-01  0.153877E-01  0.181228E-01
  0.211233E-01  0.242878E-01  0.274716E-01  0.304924E-01  0.331447E-01  0.352229E-01
  0.365502E-01  0.370068E-01  0.365502E-01  0.352229E-01  0.331447E-01  0.304924E-01
  0.274716E-01  0.242878E-01  0.211233E-01  0.181228E-01  0.153877E-01  0.140532E-01
  0.119423E-01  0.101480E-01  0.865514E-02  0.743736E-02  0.646470E-02  0.570792E-02
  0.513959E-02  0.473525E-02  0.447568E-02  0.434865E-02  0.434865E-02  0.447568E-02
  0.473525E-02  0.513959E-02  0.570792E-02  0.646470E-02  0.743736E-02  0.865514E-02
  0.101480E-01  0.119423E-01  0.140532E-01  0.164739E-01  0.191670E-01  0.220586E-01
  0.250345E-01  0.279424E-01  0.306010E-01  0.328175E-01  0.344129E-01  0.352485E-01
  0.352485E-01  0.344129E-01  0.328175E-01  0.306010E-01  0.279424E-01  0.250345E-01
  0.220586E-01  0.191670E-01  0.164739E-01  0.140532E-01  0.132064E-01  0.113462E-01
  0.977818E-02  0.848419E-02  0.743736E-02  0.660894E-02  0.597210E-02  0.550322E-02
  0.518272E-02  0.499615E-02  0.493489E-02  0.499615E-02  0.518272E-02  0.550322E-02
  0.597210E-02  0.660894E-02  0.743736E-02  0.848419E-02  0.977818E-02  0.113462E-01
  0.132064E-01  0.153602E-01  0.177851E-01  0.204283E-01  0.232023E-01  0.259829E-01
  0.286129E-01  0.309158E-01  0.327161E-01  0.338641E-01  0.342586E-01  0.338641E-01
  0.327161E-01  0.309158E-01  0.286129E-01  0.259829E-01  0.232023E-01  0.204283E-01
  0.177851E-01  0.153602E-01  0.132064E-01  0.127945E-01  0.111510E-01  0.977818E-02
  0.865514E-02  0.775437E-02  0.704860E-02  0.651433E-02  0.613237E-02  0.588733E-02
  0.576789E-02  0.576789E-02  0.588733E-02  0.613237E-02  0.651433E-02  0.704860E-02
  0.775437E-02  0.865514E-02  0.977818E-02  0.111510E-01  0.127945E-01  0.147163E-01
  0.169039E-01  0.193208E-01  0.219006E-01  0.245431E-01  0.271147E-01  0.294568E-01
  0.314030E-01  0.328004E-01  0.335312E-01  0.335312E-01  0.328004E-01  0.314030E-01
  0.294568E-01  0.271147E-01  0.245431E-01  0.219006E-01  0.193208E-01  0.169039E-01
  0.147163E-01  0.127945E-01  0.127945E-01  0.113462E-01  0.101480E-01  0.917681E-02
  0.840569E-02  0.780979E-02  0.736922E-02  0.706820E-02  0.689386E-02  0.683691E-02
  0.689386E-02  0.706820E-02  0.736922E-02  0.780979E-02  0.840569E-02  0.917681E-02
  0.101480E-01  0.113462E-01  0.127945E-01  0.145052E-01  0.164741E-01  0.186773E-01
  0.210656E-01  0.235593E-01  0.260454E-01  0.283834E-01  0.304189E-01  0.320026E-01
  0.330090E-01  0.333544E-01  0.330090E-01  0.320026E-01  0.304189E-01  0.283834E-01
  0.260454E-01  0.235593E-01  0.210656E-01  0.186773E-01  0.164741E-01  0.145052E-01
  0.127945E-01  0.132064E-01  0.119423E-01  0.109088E-01  0.100815E-01  0.943437E-02
  0.894473E-02  0.859524E-02  0.837211E-02  0.826403E-02  0.826403E-02  0.837211E-02
  0.859524E-02  0.894473E-02  0.943437E-02  0.100815E-01  0.109088E-01  0.119423E-01
  0.132064E-01  0.147163E-01  0.164741E-01  0.184657E-01  0.206562E-01  0.229837E-01
  0.253543E-01  0.276449E-01  0.297139E-01  0.314191E-01  0.326350E-01  0.332681E-01
  0.332681E-01  0.326350E-01  0.314191E-01  0.297139E-01  0.276449E-01  0.253543E-01
  0.229837E-01  0.206562E-01  0.184657E-01  0.164741E-01  0.147163E-01  0.132064E-01
  0.140532E-01  0.129762E-01  0.121106E-01  0.114306E-01  0.109100E-01  0.105277E-01
  0.102683E-01  0.101191E-01  0.100707E-01  0.101191E-01  0.102683E-01  0.105277E-01
  0.109100E-01  0.114306E-01  0.121106E-01  0.129762E-01  0.140532E-01  0.153602E-01
  0.169039E-01  0.186773E-01  0.206562E-01  0.227935E-01  0.250130E-01  0.272087E-01
  0.292532E-01  0.310132E-01  0.323673E-01  0.332200E-01  0.335111E-01  0.332200E-01
  0.323673E-01  0.310132E-01  0.292532E-01  0.272087E-01  0.250130E-01  0.227935E-01
  0.206562E-01  0.186773E-01  0.169039E-01  0.153602E-01  0.140532E-01  0.153877E-01
  0.145141E-01  0.138300E-01  0.133068E-01  0.129185E-01  0.126455E-01  0.124737E-01
  0.123915E-01  0.123915E-01  0.124737E-01  0.126455E-01  0.129185E-01  0.133068E-01
  0.138300E-01  0.145141E-01  0.153877E-01  0.164739E-01  0.177851E-01  0.193208E-01
  0.210656E-01  0.229837E-01  0.250130E-01  0.270636E-01  0.290231E-01  0.307694E-01
  0.321876E-01  0.331849E-01  0.336987E-01  0.336987E-01  0.331849E-01  0.321876E-01
  0.307694E-01  0.290231E-01  0.270636E-01  0.250130E-01  0.229837E-01  0.210656E-01
  0.193208E-01  0.177851E-01  0.164739E-01  0.153877E-01  0.172879E-01  0.166430E-01
  0.161595E-01  0.158065E-01  0.155583E-01  0.153965E-01  0.153069E-01  0.152786E-01
  0.153069E-01  0.153965E-01  0.155583E-01  0.158065E-01  0.161595E-01  0.166430E-01
  0.172879E-01  0.181228E-01  0.191670E-01  0.204283E-01  0.219006E-01  0.235593E-01
  0.253543E-01  0.272087E-01  0.290231E-01  0.306875E-01  0.320957E-01  0.331601E-01
  0.338203E-01  0.340437E-01  0.338203E-01  0.331601E-01  0.320957E-01  0.306875E-01
  0.290231E-01  0.272087E-01  0.253543E-01  0.235593E-01  0.219006E-01  0.204283E-01
  0.191670E-01  0.181228E-01  0.172879E-01  0.198482E-01  0.194655E-01  0.192089E-01
  0.190444E-01  0.189454E-01  0.188928E-01  0.188713E-01  0.188713E-01  0.188928E-01
  0.189454E-01  0.190444E-01  0.192089E-01  0.194655E-01  0.198482E-01  0.203918E-01
  0.211233E-01  0.220586E-01  0.232023E-01  0.245431E-01  0.260454E-01  0.276449E-01
  0.292532E-01  0.307694E-01  0.320957E-01  0.331509E-01  0.338790E-01  0.342493E-01
  0.342493E-01  0.338790E-01  0.331509E-01  0.320957E-01  0.307694E-01  0.292532E-01
  0.276449E-01  0.260454E-01  0.245431E-01  0.232023E-01  0.220586E-01  0.211233E-01
  0.203918E-01  0.198482E-01  0.231829E-01  0.231059E-01  0.231063E-01  0.231449E-01
  0.231935E-01  0.232322E-01  0.232470E-01  0.232322E-01  0.231935E-01  0.231449E-01
  0.231063E-01  0.231059E-01  0.231829E-01  0.233819E-01  0.237415E-01  0.242878E-01
  0.250345E-01  0.259829E-01  0.271147E-01  0.283834E-01  0.297139E-01  0.310132E-01
  0.321876E-01  0.331601E-01  0.338790E-01  0.343174E-01  0.344644E-01  0.343174E-01
  0.338790E-01  0.331601E-01  0.321876E-01  0.310132E-01  0.297139E-01  0.283834E-01
  0.271147E-01  0.259829E-01  0.250345E-01  0.242878E-01  0.237415E-01  0.233819E-01
  0.231829E-01  0.274205E-01  0.276844E-01  0.279506E-01  0.281776E-01  0.283411E-01
  0.284268E-01  0.284268E-01  0.283411E-01  0.281776E-01  0.279506E-01  0.276844E-01
  0.274205E-01  0.272156E-01  0.271283E-01  0.272043E-01  0.274716E-01  0.279424E-01
  0.286129E-01  0.294568E-01  0.304189E-01  0.314191E-01  0.323673E-01  0.331849E-01
  0.338203E-01  0.342493E-01  0.344644E-01  0.344644E-01  0.342493E-01  0.338203E-01
  0.331849E-01  0.323673E-01  0.314191E-01  0.304189E-01  0.294568E-01  0.286129E-01
  0.279424E-01  0.274716E-01  0.272043E-01  0.271283E-01  0.272156E-01  0.274205E-01
  0.326350E-01  0.332200E-01  0.336987E-01  0.340437E-01  0.342493E-01  0.343174E-01
  0.342493E-01  0.340437E-01  0.336987E-01  0.332200E-01  0.326350E-01  0.320026E-01
  0.314030E-01  0.309158E-01  0.306010E-01  0.304924E-01  0.306010E-01  0.309158E-01
  0.314030E-01  0.320026E-01  0.326350E-01  0.332200E-01  0.336987E-01  0.340437E-01
  0.342493E-01  0.343174E-01  0.342493E-01  0.340437E-01  0.336987E-01  0.332200E-01
  0.326350E-01  0.320026E-01  0.314030E-01  0.309158E-01  0.306010E-01  0.304924E-01
  0.306010E-01  0.309158E-01  0.314030E-01  0.320026E-01  0.326350E-01  0.387075E-01
  0.394858E-01  0.400311E-01  0.403607E-01  0.405119E-01  0.405119E-01  0.403607E-01
  0.400311E-01  0.394858E-01  0.387075E-01  0.377266E-01  0.366262E-01  0.355210E-01
  0.345230E-01  0.337161E-01  0.331447E-01  0.328175E-01  0.327161E-01  0.328004E-01
  0.330090E-01  0.332681E-01  0.335111E-01  0.336987E-01  0.338203E-01  0.338790E-01
  0.338790E-01  0.338203E-01  0.336987E-01  0.335111E-01  0.332681E-01  0.330090E-01
  0.328004E-01  0.327161E-01  0.328175E-01  0.331447E-01  0.337161E-01  0.345230E-01
  0.355210E-01  0.366262E-01  0.377266E-01  0.387075E-01  0.451683E-01  0.458587E-01
  0.462150E-01  0.463536E-01  0.463849E-01  0.463536E-01  0.462150E-01  0.458587E-01
  0.451683E-01  0.440882E-01  0.426591E-01  0.410067E-01  0.392993E-01  0.376980E-01
  0.363200E-01  0.352229E-01  0.344129E-01  0.338641E-01  0.335312E-01  0.333544E-01
  0.332681E-01  0.332200E-01  0.331849E-01  0.331601E-01  0.331509E-01  0.331601E-01
  0.331849E-01  0.332200E-01  0.332681E-01  0.333544E-01  0.335312E-01  0.338641E-01
  0.344129E-01  0.352229E-01  0.363200E-01  0.376980E-01  0.392993E-01  0.410067E-01
  0.426591E-01  0.440882E-01  0.451683E-01  0.510155E-01  0.511406E-01  0.509634E-01
  0.507777E-01  0.507777E-01  0.509634E-01  0.511406E-01  0.510155E-01  0.503363E-01
  0.490050E-01  0.471020E-01  0.448340E-01  0.424537E-01  0.401892E-01  0.381979E-01
  0.365502E-01  0.352485E-01  0.342586E-01  0.335312E-01  0.330090E-01  0.326350E-01
  0.323673E-01  0.321876E-01  0.320957E-01  0.320957E-01  0.321876E-01  0.323673E-01
  0.326350E-01  0.330090E-01  0.335312E-01  0.342586E-01  0.352485E-01  0.365502E-01
  0.381979E-01  0.401892E-01  0.424537E-01  0.448340E-01  0.471020E-01  0.490050E-01
  0.503363E-01  0.510155E-01  0.545318E-01  0.534794E-01  0.525039E-01  0.521132E-01
  0.525039E-01  0.534794E-01  0.545318E-01  0.550604E-01  0.546304E-01  0.531285E-01
  0.507399E-01  0.478136E-01  0.447242E-01  0.417815E-01  0.391826E-01  0.370068E-01
  0.352485E-01  0.338641E-01  0.328004E-01  0.320026E-01  0.314191E-01  0.310132E-01
  0.307694E-01  0.306875E-01  0.307694E-01  0.310132E-01  0.314191E-01  0.320026E-01
  0.328004E-01  0.338641E-01  0.352485E-01  0.370068E-01  0.391826E-01  0.417815E-01
  0.447242E-01  0.478136E-01  0.507399E-01  0.531285E-01  0.546304E-01  0.550604E-01
  0.545318E-01  0.535133E-01  0.509178E-01  0.493307E-01  0.493307E-01  0.509178E-01
  0.535133E-01  0.561397E-01  0.577883E-01  0.578306E-01  0.562095E-01  0.533135E-01
  0.497055E-01  0.459130E-01  0.423293E-01  0.391826E-01  0.365502E-01  0.344129E-01
  0.327161E-01  0.314030E-01  0.304189E-01  0.297139E-01  0.292532E-01  0.290231E-01
  0.290231E-01  0.292532E-01  0.297139E-01  0.304189E-01  0.314030E-01  0.327161E-01
  0.344129E-01  0.365502E-01  0.391826E-01  0.423293E-01  0.459130E-01  0.497055E-01
  0.533135E-01  0.562095E-01  0.578306E-01  0.577883E-01  0.561397E-01  0.535133E-01
  0.465490E-01  0.428799E-01  0.415410E-01  0.428799E-01  0.465490E-01  0.515170E-01
  0.562621E-01  0.593150E-01  0.598902E-01  0.581001E-01  0.546448E-01  0.503541E-01
  0.459130E-01  0.417815E-01  0.381979E-01  0.352229E-01  0.328175E-01  0.309158E-01
  0.294568E-01  0.283834E-01  0.276449E-01  0.272087E-01  0.270636E-01  0.272087E-01
  0.276449E-01  0.283834E-01  0.294568E-01  0.309158E-01  0.328175E-01  0.352229E-01
  0.381979E-01  0.417815E-01  0.459130E-01  0.503541E-01  0.546448E-01  0.581001E-01
  0.598902E-01  0.593150E-01  0.562621E-01  0.515170E-01  0.465490E-01  0.348114E-01
  0.314123E-01  0.314123E-01  0.348114E-01  0.410295E-01  0.486672E-01  0.556342E-01
  0.599877E-01  0.608806E-01  0.587356E-01  0.546448E-01  0.497055E-01  0.447242E-01
  0.401892E-01  0.363200E-01  0.331447E-01  0.306010E-01  0.286129E-01  0.271147E-01
  0.260454E-01  0.253543E-01  0.250130E-01  0.250130E-01  0.253543E-01  0.260454E-01
  0.271147E-01  0.286129E-01  0.306010E-01  0.331447E-01  0.363200E-01  0.401892E-01
  0.447242E-01  0.497055E-01  0.546448E-01  0.587356E-01  0.608806E-01  0.599877E-01
  0.556342E-01  0.486672E-01  0.410295E-01  0.348114E-01  0.221104E-01  0.202623E-01
  0.221104E-01  0.276168E-01  0.362535E-01  0.463092E-01  0.550659E-01  0.601627E-01
  0.608806E-01  0.581001E-01  0.533135E-01  0.478136E-01  0.424537E-01  0.376980E-01
  0.337161E-01  0.304924E-01  0.279424E-01  0.259829E-01  0.245431E-01  0.235593E-01
  0.229837E-01  0.227935E-01  0.229837E-01  0.235593E-01  0.245431E-01  0.259829E-01
  0.279424E-01  0.304924E-01  0.337161E-01  0.376980E-01  0.424537E-01  0.478136E-01
  0.533135E-01  0.581001E-01  0.608806E-01  0.601627E-01  0.550659E-01  0.463092E-01
  0.362535E-01  0.276168E-01  0.221104E-01  0.122797E-01  0.122797E-01  0.157150E-01
  0.229401E-01  0.335667E-01  0.454105E-01  0.550659E-01  0.599877E-01  0.598902E-01
  0.562095E-01  0.507399E-01  0.448340E-01  0.392993E-01  0.345230E-01  0.306010E-01
  0.274716E-01  0.250345E-01  0.232023E-01  0.219006E-01  0.210656E-01  0.206562E-01
  0.206562E-01  0.210656E-01  0.219006E-01  0.232023E-01  0.250345E-01  0.274716E-01
  0.306010E-01  0.345230E-01  0.392993E-01  0.448340E-01  0.507399E-01  0.562095E-01
  0.598902E-01  0.599877E-01  0.550659E-01  0.454105E-01  0.335667E-01  0.229401E-01
  0.157150E-01  0.122797E-01  0.666228E-02  0.803241E-02  0.126547E-01  0.213560E-01
  0.335667E-01  0.463092E-01  0.556342E-01  0.593150E-01  0.578306E-01  0.531285E-01
  0.471020E-01  0.410067E-01  0.355210E-01  0.309158E-01  0.272043E-01  0.242878E-01
  0.220586E-01  0.204283E-01  0.193208E-01  0.186773E-01  0.184657E-01  0.186773E-01
  0.193208E-01  0.204283E-01  0.220586E-01  0.242878E-01  0.272043E-01  0.309158E-01
  0.355210E-01  0.410067E-01  0.471020E-01  0.531285E-01  0.578306E-01  0.593150E-01
  0.556342E-01  0.463092E-01  0.335667E-01  0.213560E-01  0.126547E-01  0.803241E-02
  0.666228E-02  0.439926E-02  0.677191E-02  0.126547E-01  0.229401E-01  0.362535E-01
  0.486672E-01  0.562621E-01  0.577883E-01  0.546304E-01  0.490050E-01  0.426591E-01
  0.366262E-01  0.314030E-01  0.271283E-01  0.237415E-01  0.211233E-01  0.191670E-01
  0.177851E-01  0.169039E-01  0.164741E-01  0.164741E-01  0.169039E-01  0.177851E-01
  0.191670E-01  0.211233E-01  0.237415E-01  0.271283E-01  0.314030E-01  0.366262E-01
  0.426591E-01  0.490050E-01  0.546304E-01  0.577883E-01  0.562621E-01  0.486672E-01
  0.362535E-01  0.229401E-01  0.126547E-01  0.677191E-02  0.439926E-02  0.439926E-02
  0.439926E-02  0.803241E-02  0.157150E-01  0.276168E-01  0.410295E-01  0.515170E-01
  0.561397E-01  0.550604E-01  0.503363E-01  0.440882E-01  0.377266E-01  0.320026E-01
  0.272156E-01  0.233819E-01  0.203918E-01  0.181228E-01  0.164739E-01  0.153602E-01
  0.147163E-01  0.145052E-01  0.147163E-01  0.153602E-01  0.164739E-01  0.181228E-01
  0.203918E-01  0.233819E-01  0.272156E-01  0.320026E-01  0.377266E-01  0.440882E-01
  0.503363E-01  0.550604E-01  0.561397E-01  0.515170E-01  0.410295E-01  0.276168E-01
  0.157150E-01  0.803241E-02  0.439926E-02  0.341808E-02  0.439926E-02  0.666228E-02
  0.122797E-01  0.221104E-01  0.348114E-01  0.465490E-01  0.535133E-01  0.545318E-01
  0.510155E-01  0.451683E-01  0.387075E-01  0.326350E-01  0.274205E-01  0.231829E-01
  0.198482E-01  0.172879E-01  0.153877E-01  0.140532E-01  0.132064E-01  0.127945E-01
  0.127945E-01  0.132064E-01  0.140532E-01  0.153877E-01  0.172879E-01  0.198482E-01
  0.231829E-01  0.274205E-01  0.326350E-01  0.387075E-01  0.451683E-01  0.510155E-01
  0.545318E-01  0.535133E-01  0.465490E-01  0.348114E-01  0.221104E-01  0.122797E-01
  0.666228E-02  0.439926E-02  0.439926E-02  0.666228E-02  0.180896E-01  0.262321E-01
  0.366729E-01  0.465490E-01  0.527142E-01  0.537899E-01  0.506011E-01  0.449788E-01
  0.385541E-01  0.323673E-01  0.269537E-01  0.224947E-01  0.189531E-01  0.162071E-01
  0.141361E-01  0.126403E-01  0.116342E-01  0.110535E-01  0.108631E-01  0.110535E-01
  0.116342E-01  0.126403E-01  0.141361E-01  0.162071E-01  0.189531E-01  0.224947E-01
  0.269537E-01  0.323673E-01  0.385541E-01  0.449788E-01  0.506011E-01  0.537899E-01
  0.527142E-01  0.465490E-01  0.366729E-01  0.262321E-01  0.180896E-01  0.133665E-01
  0.118765E-01  0.133665E-01  0.180896E-01  0.262321E-01  0.351179E-01  0.443155E-01
  0.509178E-01  0.530488E-01  0.508390E-01  0.457740E-01  0.394975E-01  0.331849E-01
  0.275013E-01  0.227299E-01  0.188963E-01  0.158974E-01  0.136066E-01  0.119162E-01
  0.107344E-01  0.998585E-02  0.962176E-02  0.962176E-02  0.998585E-02  0.107344E-01
  0.119162E-01  0.136066E-01  0.158974E-01  0.188963E-01  0.227299E-01  0.275013E-01
  0.331849E-01  0.394975E-01  0.457740E-01  0.508390E-01  0.530488E-01  0.509178E-01
  0.443155E-01  0.351179E-01  0.262321E-01  0.198324E-01  0.166537E-01  0.166537E-01
  0.198324E-01  0.262321E-01  0.366729E-01  0.443155E-01  0.502241E-01  0.525039E-01
  0.508174E-01  0.462068E-01  0.401437E-01  0.338203E-01  0.279766E-01  0.229751E-01
  0.189039E-01  0.156899E-01  0.132088E-01  0.113467E-01  0.100079E-01  0.910994E-02
  0.859196E-02  0.842217E-02  0.859196E-02  0.910994E-02  0.100079E-01  0.113467E-01
  0.132088E-01  0.156899E-01  0.189039E-01  0.229751E-01  0.279766E-01  0.338203E-01
  0.401437E-01  0.462068E-01  0.508174E-01  0.525039E-01  0.502241E-01  0.443155E-01
  0.366729E-01  0.297074E-01  0.251044E-01  0.235303E-01  0.251044E-01  0.297074E-01
  0.366729E-01  0.465490E-01  0.509178E-01  0.525039E-01  0.507777E-01  0.463849E-01
  0.405119E-01  0.342493E-01  0.283411E-01  0.231935E-01  0.189454E-01  0.155583E-01
  0.129185E-01  0.109100E-01  0.943437E-02  0.840569E-02  0.775437E-02  0.743736E-02
  0.743736E-02  0.775437E-02  0.840569E-02  0.943437E-02  0.109100E-01  0.129185E-01
  0.155583E-01  0.189454E-01  0.231935E-01  0.283411E-01  0.342493E-01  0.405119E-01
  0.463849E-01  0.507777E-01  0.525039E-01  0.509178E-01  0.465490E-01  0.410295E-01
  0.362535E-01  0.335667E-01  0.335667E-01  0.362535E-01  0.410295E-01  0.465490E-01
  0.527142E-01  0.530488E-01  0.508174E-01  0.463849E-01  0.406305E-01  0.344644E-01
  0.285698E-01  0.233570E-01  0.189963E-01  0.154815E-01  0.127157E-01  0.105865E-01
  0.899459E-02  0.785323E-02  0.708783E-02  0.664581E-02  0.650080E-02  0.664581E-02
  0.708783E-02  0.785323E-02  0.899459E-02  0.105865E-01  0.127157E-01  0.154815E-01
  0.189963E-01  0.233570E-01  0.285698E-01  0.344644E-01  0.406305E-01  0.463849E-01
  0.508174E-01  0.530488E-01  0.527142E-01  0.503345E-01  0.471670E-01  0.446090E-01
  0.436435E-01  0.446090E-01  0.471670E-01  0.503345E-01  0.527142E-01  0.537899E-01
  0.508390E-01  0.462068E-01  0.405119E-01  0.344644E-01  0.286479E-01  0.234449E-01
  0.190369E-01  0.154425E-01  0.125849E-01  0.103604E-01  0.867249E-02  0.743542E-02
  0.657294E-02  0.602594E-02  0.575941E-02  0.575941E-02  0.602594E-02  0.657294E-02
  0.743542E-02  0.867249E-02  0.103604E-01  0.125849E-01  0.154425E-01  0.190369E-01
  0.234449E-01  0.286479E-01  0.344644E-01  0.405119E-01  0.462068E-01  0.508390E-01
  0.537899E-01  0.548526E-01  0.544242E-01  0.533565E-01  0.525474E-01  0.525474E-01
  0.533565E-01  0.544242E-01  0.548526E-01  0.537899E-01  0.506011E-01  0.457740E-01
  0.401437E-01  0.342493E-01  0.285698E-01  0.234449E-01  0.190524E-01  0.154274E-01
  0.125131E-01  0.102188E-01  0.845454E-02  0.713765E-02  0.619278E-02  0.555763E-02
  0.519038E-02  0.506994E-02  0.519038E-02  0.555763E-02  0.619278E-02  0.713765E-02
  0.845454E-02  0.102188E-01  0.125131E-01  0.154274E-01  0.190524E-01  0.234449E-01
  0.285698E-01  0.342493E-01  0.401437E-01  0.457740E-01  0.506011E-01  0.541857E-01
  0.563767E-01  0.573932E-01  0.577003E-01  0.577427E-01  0.577003E-01  0.573932E-01
  0.563767E-01  0.541857E-01  0.506011E-01  0.449788E-01  0.394975E-01  0.338203E-01
  0.283411E-01  0.233570E-01  0.190369E-01  0.154274E-01  0.124904E-01  0.101512E-01
  0.832931E-02  0.694743E-02  0.593285E-02  0.522294E-02  0.477193E-02  0.455246E-02
  0.455246E-02  0.477193E-02  0.522294E-02  0.593285E-02  0.694743E-02  0.832931E-02
  0.101512E-01  0.124904E-01  0.154274E-01  0.190369E-01  0.233570E-01  0.283411E-01
  0.338203E-01  0.394975E-01  0.449788E-01  0.498431E-01  0.537481E-01  0.565307E-01
  0.582328E-01  0.590161E-01  0.590161E-01  0.582328E-01  0.565307E-01  0.537481E-01
  0.498431E-01  0.449788E-01  0.385541E-01  0.331849E-01  0.279766E-01  0.231935E-01
  0.189963E-01  0.154425E-01  0.125131E-01  0.101512E-01  0.828859E-02  0.685504E-02
  0.578174E-02  0.500756E-02  0.448550E-02  0.418416E-02  0.408568E-02  0.418416E-02
  0.448550E-02  0.500756E-02  0.578174E-02  0.685504E-02  0.828859E-02  0.101512E-01
  0.125131E-01  0.154425E-01  0.189963E-01  0.231935E-01  0.279766E-01  0.331849E-01
  0.385541E-01  0.437480E-01  0.484132E-01  0.522465E-01  0.550493E-01  0.567368E-01
  0.572976E-01  0.567368E-01  0.550493E-01  0.522465E-01  0.484132E-01  0.437480E-01
  0.385541E-01  0.323673E-01  0.275013E-01  0.229751E-01  0.189454E-01  0.154815E-01
  0.125849E-01  0.102188E-01  0.832931E-02  0.685504E-02  0.573219E-02  0.490207E-02
  0.431811E-02  0.394730E-02  0.376770E-02  0.376770E-02  0.394730E-02  0.431811E-02
  0.490207E-02  0.573219E-02  0.685504E-02  0.832931E-02  0.102188E-01  0.125849E-01
  0.154815E-01  0.189454E-01  0.229751E-01  0.275013E-01  0.323673E-01  0.373312E-01
  0.420918E-01  0.463310E-01  0.497615E-01  0.521627E-01  0.533955E-01  0.533955E-01
  0.521627E-01  0.497615E-01  0.463310E-01  0.420918E-01  0.373312E-01  0.323673E-01
  0.269537E-01  0.227299E-01  0.189039E-01  0.155583E-01  0.127157E-01  0.103604E-01
  0.845454E-02  0.694743E-02  0.578174E-02  0.490207E-02  0.426297E-02  0.383112E-02
  0.358268E-02  0.350182E-02  0.358268E-02  0.383112E-02  0.426297E-02  0.490207E-02
  0.578174E-02  0.694743E-02  0.845454E-02  0.103604E-01  0.127157E-01  0.155583E-01
  0.189039E-01  0.227299E-01  0.269537E-01  0.314191E-01  0.358980E-01  0.401117E-01
  0.437665E-01  0.465927E-01  0.483779E-01  0.489882E-01  0.483779E-01  0.465927E-01
  0.437665E-01  0.401117E-01  0.358980E-01  0.314191E-01  0.269537E-01  0.224947E-01
  0.188963E-01  0.156899E-01  0.129185E-01  0.105865E-01  0.867249E-02  0.713765E-02
  0.593285E-02  0.500756E-02  0.431811E-02  0.383112E-02  0.352190E-02  0.337241E-02
  0.337241E-02  0.352190E-02  0.383112E-02  0.431811E-02  0.500756E-02  0.593285E-02
  0.713765E-02  0.867249E-02  0.105865E-01  0.129185E-01  0.156899E-01  0.188963E-01
  0.224947E-01  0.263887E-01  0.304189E-01  0.343666E-01  0.379727E-01  0.409702E-01
  0.431199E-01  0.442425E-01  0.442425E-01  0.431199E-01  0.409702E-01  0.379727E-01
  0.343666E-01  0.304189E-01  0.263887E-01  0.224947E-01  0.189531E-01  0.158974E-01
  0.132088E-01  0.109100E-01  0.899459E-02  0.743542E-02  0.619278E-02  0.522294E-02
  0.448550E-02  0.394730E-02  0.358268E-02  0.337241E-02  0.330383E-02  0.337241E-02
  0.358268E-02  0.394730E-02  0.448550E-02  0.522294E-02  0.619278E-02  0.743542E-02
  0.899459E-02  0.109100E-01  0.132088E-01  0.158974E-01  0.189531E-01  0.223142E-01
  0.258699E-01  0.294568E-01  0.328645E-01  0.358563E-01  0.381981E-01  0.396920E-01
  0.402055E-01  0.396920E-01  0.381981E-01  0.358563E-01  0.328645E-01  0.294568E-01
  0.258699E-01  0.223142E-01  0.189531E-01  0.162071E-01  0.136066E-01  0.113467E-01
  0.943437E-02  0.785323E-02  0.657294E-02  0.555763E-02  0.477193E-02  0.418416E-02
  0.376770E-02  0.350182E-02  0.337241E-02  0.337241E-02  0.350182E-02  0.376770E-02
  0.418416E-02  0.477193E-02  0.555763E-02  0.657294E-02  0.785323E-02  0.943437E-02
  0.113467E-01  0.136066E-01  0.162071E-01  0.191089E-01  0.222333E-01  0.254568E-01
  0.286129E-01  0.315026E-01  0.339140E-01  0.356507E-01  0.365607E-01  0.365607E-01
  0.356507E-01  0.339140E-01  0.315026E-01  0.286129E-01  0.254568E-01  0.222333E-01
  0.191089E-01  0.162071E-01  0.141361E-01  0.119162E-01  0.100079E-01  0.840569E-02
  0.708783E-02  0.602594E-02  0.519038E-02  0.455246E-02  0.408568E-02  0.376770E-02
  0.358268E-02  0.352190E-02  0.358268E-02  0.376770E-02  0.408568E-02  0.455246E-02
  0.519038E-02  0.602594E-02  0.708783E-02  0.840569E-02  0.100079E-01  0.119162E-01
  0.141361E-01  0.166476E-01  0.193962E-01  0.222887E-01  0.251927E-01  0.279424E-01
  0.303524E-01  0.322382E-01  0.334415E-01  0.338553E-01  0.334415E-01  0.322382E-01
  0.303524E-01  0.279424E-01  0.251927E-01  0.222887E-01  0.193962E-01  0.166476E-01
  0.141361E-01  0.126403E-01  0.107344E-01  0.910994E-02  0.775437E-02  0.664581E-02
  0.575941E-02  0.506994E-02  0.455246E-02  0.418416E-02  0.394730E-02  0.383112E-02
  0.383112E-02  0.394730E-02  0.418416E-02  0.455246E-02  0.506994E-02  0.575941E-02
  0.664581E-02  0.775437E-02  0.910994E-02  0.107344E-01  0.126403E-01  0.148213E-01
  0.172436E-01  0.198391E-01  0.225043E-01  0.251021E-01  0.274716E-01  0.294434E-01
  0.308608E-01  0.316026E-01  0.316026E-01  0.308608E-01  0.294434E-01  0.274716E-01
  0.251021E-01  0.225043E-01  0.198391E-01  0.172436E-01  0.148213E-01  0.126403E-01
  0.116342E-01  0.998585E-02  0.859196E-02  0.743736E-02  0.650080E-02  0.575941E-02
  0.519038E-02  0.477193E-02  0.448550E-02  0.431811E-02  0.426297E-02  0.431811E-02
  0.448550E-02  0.477193E-02  0.519038E-02  0.575941E-02  0.650080E-02  0.743736E-02
  0.859196E-02  0.998585E-02  0.116342E-01  0.135388E-01  0.156798E-01  0.180100E-01
  0.204504E-01  0.228904E-01  0.251927E-01  0.272043E-01  0.287745E-01  0.297746E-01
  0.301182E-01  0.297746E-01  0.287745E-01  0.272043E-01  0.251927E-01  0.228904E-01
  0.204504E-01  0.180100E-01  0.156798E-01  0.135388E-01  0.116342E-01  0.110535E-01
  0.962176E-02  0.842217E-02  0.743736E-02  0.664581E-02  0.602594E-02  0.555763E-02
  0.522294E-02  0.500756E-02  0.490207E-02  0.490207E-02  0.500756E-02  0.522294E-02
  0.555763E-02  0.602594E-02  0.664581E-02  0.743736E-02  0.842217E-02  0.962176E-02
  0.110535E-01  0.127241E-01  0.146233E-01  0.167181E-01  0.189493E-01  0.212293E-01
  0.234433E-01  0.254568E-01  0.271283E-01  0.283278E-01  0.289549E-01  0.289549E-01
  0.283278E-01  0.271283E-01  0.254568E-01  0.234433E-01  0.212293E-01  0.189493E-01
  0.167181E-01  0.146233E-01  0.127241E-01  0.110535E-01  0.108631E-01  0.962176E-02
  0.859196E-02  0.775437E-02  0.708783E-02  0.657294E-02  0.619278E-02  0.593285E-02
  0.578174E-02  0.573219E-02  0.578174E-02  0.593285E-02  0.619278E-02  0.657294E-02
  0.708783E-02  0.775437E-02  0.859196E-02  0.962176E-02  0.108631E-01  0.123274E-01
  0.140115E-01  0.158934E-01  0.179289E-01  0.200490E-01  0.221590E-01  0.241423E-01
  0.258699E-01  0.272156E-01  0.280717E-01  0.283657E-01  0.280717E-01  0.272156E-01
  0.258699E-01  0.241423E-01  0.221590E-01  0.200490E-01  0.179289E-01  0.158934E-01
  0.140115E-01  0.123274E-01  0.108631E-01  0.110535E-01  0.998585E-02  0.910994E-02
  0.840569E-02  0.785323E-02  0.743542E-02  0.713765E-02  0.694743E-02  0.685504E-02
  0.685504E-02  0.694743E-02  0.713765E-02  0.743542E-02  0.785323E-02  0.840569E-02
  0.910994E-02  0.998585E-02  0.110535E-01  0.123274E-01  0.138107E-01  0.154904E-01
  0.173348E-01  0.192907E-01  0.212807E-01  0.232048E-01  0.249472E-01  0.263887E-01
  0.274205E-01  0.279593E-01  0.279593E-01  0.274205E-01  0.263887E-01  0.249472E-01
  0.232048E-01  0.212807E-01  0.192907E-01  0.173348E-01  0.154904E-01  0.138107E-01
  0.123274E-01  0.110535E-01  0.116342E-01  0.107344E-01  0.100079E-01  0.943437E-02
  0.899459E-02  0.867249E-02  0.845454E-02  0.832931E-02  0.828859E-02  0.832931E-02
  0.845454E-02  0.867249E-02  0.899459E-02  0.943437E-02  0.100079E-01  0.107344E-01
  0.116342E-01  0.127241E-01  0.140115E-01  0.154904E-01  0.171392E-01  0.189181E-01
  0.207659E-01  0.225987E-01  0.243140E-01  0.258010E-01  0.269537E-01  0.276844E-01
  0.279348E-01  0.276844E-01  0.269537E-01  0.258010E-01  0.243140E-01  0.225987E-01
  0.207659E-01  0.189181E-01  0.171392E-01  0.154904E-01  0.140115E-01  0.127241E-01
  0.116342E-01  0.126403E-01  0.119162E-01  0.113467E-01  0.109100E-01  0.105865E-01
  0.103604E-01  0.102188E-01  0.101512E-01  0.101512E-01  0.102188E-01  0.103604E-01
  0.105865E-01  0.109100E-01  0.113467E-01  0.119162E-01  0.126403E-01  0.135388E-01
  0.146233E-01  0.158934E-01  0.173348E-01  0.189181E-01  0.205956E-01  0.222992E-01
  0.239410E-01  0.254203E-01  0.266364E-01  0.275013E-01  0.279506E-01  0.279506E-01
  0.275013E-01  0.266364E-01  0.254203E-01  0.239410E-01  0.222992E-01  0.205956E-01
  0.189181E-01  0.173348E-01  0.158934E-01  0.146233E-01  0.135388E-01  0.126403E-01
  0.141361E-01  0.136066E-01  0.132088E-01  0.129185E-01  0.127157E-01  0.125849E-01
  0.125131E-01  0.124904E-01  0.125131E-01  0.125849E-01  0.127157E-01  0.129185E-01
  0.132088E-01  0.136066E-01  0.141361E-01  0.148213E-01  0.156798E-01  0.167181E-01
  0.179289E-01  0.192907E-01  0.207659E-01  0.222992E-01  0.238172E-01  0.252319E-01
  0.264504E-01  0.273873E-01  0.279766E-01  0.281776E-01  0.279766E-01  0.273873E-01
  0.264504E-01  0.252319E-01  0.238172E-01  0.222992E-01  0.207659E-01  0.192907E-01
  0.179289E-01  0.167181E-01  0.156798E-01  0.148213E-01  0.141361E-01  0.162071E-01
  0.158974E-01  0.156899E-01  0.155583E-01  0.154815E-01  0.154425E-01  0.154274E-01
  0.154274E-01  0.154425E-01  0.154815E-01  0.155583E-01  0.156899E-01  0.158974E-01
  0.162071E-01  0.166476E-01  0.172436E-01  0.180100E-01  0.189493E-01  0.200490E-01
  0.212807E-01  0.225987E-01  0.239410E-01  0.252319E-01  0.263889E-01  0.273325E-01
  0.279978E-01  0.283411E-01  0.283411E-01  0.279978E-01  0.273325E-01  0.263889E-01
  0.252319E-01  0.239410E-01  0.225987E-01  0.212807E-01  0.200490E-01  0.189493E-01
  0.180100E-01  0.172436E-01  0.166476E-01  0.162071E-01  0.189531E-01  0.188963E-01
  0.189039E-01  0.189454E-01  0.189963E-01  0.190369E-01  0.190524E-01  0.190369E-01
  0.189963E-01  0.189454E-01  0.189039E-01  0.188963E-01  0.189531E-01  0.191089E-01
  0.193962E-01  0.198391E-01  0.204504E-01  0.212293E-01  0.221590E-01  0.232048E-01
  0.243140E-01  0.254203E-01  0.264504E-01  0.273325E-01  0.280059E-01  0.284268E-01
  0.285698E-01  0.284268E-01  0.280059E-01  0.273325E-01  0.264504E-01  0.254203E-01
  0.243140E-01  0.232048E-01  0.221590E-01  0.212293E-01  0.204504E-01  0.198391E-01
  0.193962E-01  0.191089E-01  0.189531E-01  0.224947E-01  0.227299E-01  0.229751E-01
  0.231935E-01  0.233570E-01  0.234449E-01  0.234449E-01  0.233570E-01  0.231935E-01
  0.229751E-01  0.227299E-01  0.224947E-01  0.223142E-01  0.222333E-01  0.222887E-01
  0.225043E-01  0.228904E-01  0.234433E-01  0.241423E-01  0.249472E-01  0.258010E-01
  0.266364E-01  0.273873E-01  0.279978E-01  0.284268E-01  0.286479E-01  0.286479E-01
  0.284268E-01  0.279978E-01  0.273873E-01  0.266364E-01  0.258010E-01  0.249472E-01
  0.241423E-01  0.234433E-01  0.228904E-01  0.225043E-01  0.222887E-01  0.222333E-01
  0.223142E-01  0.224947E-01  0.269537E-01  0.275013E-01  0.279766E-01  0.283411E-01
  0.285698E-01  0.286479E-01  0.285698E-01  0.283411E-01  0.279766E-01  0.275013E-01
  0.269537E-01  0.263887E-01  0.258699E-01  0.254568E-01  0.251927E-01  0.251021E-01
  0.251927E-01  0.254568E-01  0.258699E-01  0.263887E-01  0.269537E-01  0.275013E-01
  0.279766E-01  0.283411E-01  0.285698E-01  0.286479E-01  0.285698E-01  0.283411E-01
  0.279766E-01  0.275013E-01  0.269537E-01  0.263887E-01  0.258699E-01  0.254568E-01
  0.251927E-01  0.251021E-01  0.251927E-01  0.254568E-01  0.258699E-01  0.263887E-01
  0.269537E-01  0.323673E-01  0.331849E-01  0.338203E-01  0.342493E-01  0.344644E-01
  0.344644E-01  0.342493E-01  0.338203E-01  0.331849E-01  0.323673E-01  0.314191E-01
  0.304189E-01  0.294568E-01  0.286129E-01  0.279424E-01  0.274716E-01  0.272043E-01
  0.271283E-01  0.272156E-01  0.274205E-01  0.276844E-01  0.279506E-01  0.281776E-01
  0.283411E-01  0.284268E-01  0.284268E-01  0.283411E-01  0.281776E-01  0.279506E-01
  0.276844E-01  0.274205E-01  0.272156E-01  0.271283E-01  0.272043E-01  0.274716E-01
  0.279424E-01  0.286129E-01  0.294568E-01  0.304189E-01  0.314191E-01  0.323673E-01
  0.385541E-01  0.394975E-01  0.401437E-01  0.405119E-01  0.406305E-01  0.405119E-01
  0.401437E-01  0.394975E-01  0.385541E-01  0.373312E-01  0.358980E-01  0.343666E-01
  0.328645E-01  0.315026E-01  0.303524E-01  0.294434E-01  0.287745E-01  0.283278E-01
  0.280717E-01  0.279593E-01  0.279348E-01  0.279506E-01  0.279766E-01  0.279978E-01
  0.280059E-01  0.279978E-01  0.279766E-01  0.279506E-01  0.279348E-01  0.279593E-01
  0.280717E-01  0.283278E-01  0.287745E-01  0.294434E-01  0.303524E-01  0.315026E-01
  0.328645E-01  0.343666E-01  0.358980E-01  0.373312E-01  0.385541E-01  0.449788E-01
  0.457740E-01  0.462068E-01  0.463849E-01  0.463849E-01  0.462068E-01  0.457740E-01
  0.449788E-01  0.437480E-01  0.420918E-01  0.401117E-01  0.379727E-01  0.358563E-01
  0.339140E-01  0.322382E-01  0.308608E-01  0.297746E-01  0.289549E-01  0.283657E-01
  0.279593E-01  0.276844E-01  0.275013E-01  0.273873E-01  0.273325E-01  0.273325E-01
  0.273873E-01  0.275013E-01  0.276844E-01  0.279593E-01  0.283657E-01  0.289549E-01
  0.297746E-01  0.308608E-01  0.322382E-01  0.339140E-01  0.358563E-01  0.379727E-01
  0.401117E-01  0.420918E-01  0.437480E-01  0.449788E-01  0.506011E-01  0.508390E-01
  0.508174E-01  0.507777E-01  0.508174E-01  0.508390E-01  0.506011E-01  0.498431E-01
  0.484132E-01  0.463310E-01  0.437665E-01  0.409702E-01  0.381981E-01  0.356507E-01
  0.334415E-01  0.316026E-01  0.301182E-01  0.289549E-01  0.280717E-01  0.274205E-01
  0.269537E-01  0.266364E-01  0.264504E-01  0.263889E-01  0.264504E-01  0.266364E-01
  0.269537E-01  0.274205E-01  0.280717E-01  0.289549E-01  0.301182E-01  0.316026E-01
  0.334415E-01  0.356507E-01  0.381981E-01  0.409702E-01  0.437665E-01  0.463310E-01
  0.484132E-01  0.498431E-01  0.506011E-01  0.537899E-01  0.530488E-01  0.525039E-01
  0.525039E-01  0.530488E-01  0.537899E-01  0.541857E-01  0.537481E-01  0.522465E-01
  0.497615E-01  0.465927E-01  0.431199E-01  0.396920E-01  0.365607E-01  0.338553E-01
  0.316026E-01  0.297746E-01  0.283278E-01  0.272156E-01  0.263887E-01  0.258010E-01
  0.254203E-01  0.252319E-01  0.252319E-01  0.254203E-01  0.258010E-01  0.263887E-01
  0.272156E-01  0.283278E-01  0.297746E-01  0.316026E-01  0.338553E-01  0.365607E-01
  0.396920E-01  0.431199E-01  0.465927E-01  0.497615E-01  0.522465E-01  0.537481E-01
  0.541857E-01  0.537899E-01  0.527142E-01  0.509178E-01  0.502241E-01  0.509178E-01
  0.527142E-01  0.548526E-01  0.563767E-01  0.565307E-01  0.550493E-01  0.521627E-01
  0.483779E-01  0.442425E-01  0.402055E-01  0.365607E-01  0.334415E-01  0.308608E-01
  0.287745E-01  0.271283E-01  0.258699E-01  0.249472E-01  0.243140E-01  0.239410E-01
  0.238172E-01  0.239410E-01  0.243140E-01  0.249472E-01  0.258699E-01  0.271283E-01
  0.287745E-01  0.308608E-01  0.334415E-01  0.365607E-01  0.402055E-01  0.442425E-01
  0.483779E-01  0.521627E-01  0.550493E-01  0.565307E-01  0.563767E-01  0.548526E-01
  0.527142E-01  0.465490E-01  0.443155E-01  0.443155E-01  0.465490E-01  0.503345E-01
  0.544242E-01  0.573932E-01  0.582328E-01  0.567368E-01  0.533955E-01  0.489882E-01
  0.442425E-01  0.396920E-01  0.356507E-01  0.322382E-01  0.294434E-01  0.272043E-01
  0.254568E-01  0.241423E-01  0.232048E-01  0.225987E-01  0.222992E-01  0.222992E-01
  0.225987E-01  0.232048E-01  0.241423E-01  0.254568E-01  0.272043E-01  0.294434E-01
  0.322382E-01  0.356507E-01  0.396920E-01  0.442425E-01  0.489882E-01  0.533955E-01
  0.567368E-01  0.582328E-01  0.573932E-01  0.544242E-01  0.503345E-01  0.465490E-01
  0.366729E-01  0.351179E-01  0.366729E-01  0.410295E-01  0.471670E-01  0.533565E-01
  0.577003E-01  0.590161E-01  0.572976E-01  0.533955E-01  0.483779E-01  0.431199E-01
  0.381981E-01  0.339140E-01  0.303524E-01  0.274716E-01  0.251927E-01  0.234433E-01
  0.221590E-01  0.212807E-01  0.207659E-01  0.205956E-01  0.207659E-01  0.212807E-01
  0.221590E-01  0.234433E-01  0.251927E-01  0.274716E-01  0.303524E-01  0.339140E-01
  0.381981E-01  0.431199E-01  0.483779E-01  0.533955E-01  0.572976E-01  0.590161E-01
  0.577003E-01  0.533565E-01  0.471670E-01  0.410295E-01  0.366729E-01  0.262321E-01
  0.262321E-01  0.297074E-01  0.362535E-01  0.446090E-01  0.525474E-01  0.577427E-01
  0.590161E-01  0.567368E-01  0.521627E-01  0.465927E-01  0.409702E-01  0.358563E-01
  0.315026E-01  0.279424E-01  0.251021E-01  0.228904E-01  0.212293E-01  0.200490E-01
  0.192907E-01  0.189181E-01  0.189181E-01  0.192907E-01  0.200490E-01  0.212293E-01
  0.228904E-01  0.251021E-01  0.279424E-01  0.315026E-01  0.358563E-01  0.409702E-01
  0.465927E-01  0.521627E-01  0.567368E-01  0.590161E-01  0.577427E-01  0.525474E-01
  0.446090E-01  0.362535E-01  0.297074E-01  0.262321E-01  0.180896E-01  0.198324E-01
  0.251044E-01  0.335667E-01  0.436435E-01  0.525474E-01  0.577003E-01  0.582328E-01
  0.550493E-01  0.497615E-01  0.437665E-01  0.379727E-01  0.328645E-01  0.286129E-01
  0.251927E-01  0.225043E-01  0.204504E-01  0.189493E-01  0.179289E-01  0.173348E-01
  0.171392E-01  0.173348E-01  0.179289E-01  0.189493E-01  0.204504E-01  0.225043E-01
  0.251927E-01  0.286129E-01  0.328645E-01  0.379727E-01  0.437665E-01  0.497615E-01
  0.550493E-01  0.582328E-01  0.577003E-01  0.525474E-01  0.436435E-01  0.335667E-01
  0.251044E-01  0.198324E-01  0.180896E-01  0.133665E-01  0.166537E-01  0.235303E-01
  0.335667E-01  0.446090E-01  0.533565E-01  0.573932E-01  0.565307E-01  0.522465E-01
  0.463310E-01  0.401117E-01  0.343666E-01  0.294568E-01  0.254568E-01  0.222887E-01
  0.198391E-01  0.180100E-01  0.167181E-01  0.158934E-01  0.154904E-01  0.154904E-01
  0.158934E-01  0.167181E-01  0.180100E-01  0.198391E-01  0.222887E-01  0.254568E-01
  0.294568E-01  0.343666E-01  0.401117E-01  0.463310E-01  0.522465E-01  0.565307E-01
  0.573932E-01  0.533565E-01  0.446090E-01  0.335667E-01  0.235303E-01  0.166537E-01
  0.133665E-01  0.133665E-01  0.118765E-01  0.166537E-01  0.251044E-01  0.362535E-01
  0.471670E-01  0.544242E-01  0.563767E-01  0.537481E-01  0.484132E-01  0.420918E-01
  0.358980E-01  0.304189E-01  0.258699E-01  0.222333E-01  0.193962E-01  0.172436E-01
  0.156798E-01  0.146233E-01  0.140115E-01  0.138107E-01  0.140115E-01  0.146233E-01
  0.156798E-01  0.172436E-01  0.193962E-01  0.222333E-01  0.258699E-01  0.304189E-01
  0.358980E-01  0.420918E-01  0.484132E-01  0.537481E-01  0.563767E-01  0.544242E-01
  0.471670E-01  0.362535E-01  0.251044E-01  0.166537E-01  0.118765E-01  0.103953E-01
  0.118765E-01  0.133665E-01  0.198324E-01  0.297074E-01  0.410295E-01  0.503345E-01
  0.548526E-01  0.541857E-01  0.498431E-01  0.437480E-01  0.373312E-01  0.314191E-01
  0.263887E-01  0.223142E-01  0.191089E-01  0.166476E-01  0.148213E-01  0.135388E-01
  0.127241E-01  0.123274E-01  0.123274E-01  0.127241E-01  0.135388E-01  0.148213E-01
  0.166476E-01  0.191089E-01  0.223142E-01  0.263887E-01  0.314191E-01  0.373312E-01
  0.437480E-01  0.498431E-01  0.541857E-01  0.548526E-01  0.503345E-01  0.410295E-01
  0.297074E-01  0.198324E-01  0.133665E-01  0.103953E-01  0.103953E-01  0.133665E-01
  0.180896E-01  0.262321E-01  0.366729E-01  0.465490E-01  0.527142E-01  0.537899E-01
  0.506011E-01  0.449788E-01  0.385541E-01  0.323673E-01  0.269537E-01  0.224947E-01
  0.189531E-01  0.162071E-01  0.141361E-01  0.126403E-01  0.116342E-01  0.110535E-01
  0.108631E-01  0.110535E-01  0.116342E-01  0.126403E-01  0.141361E-01  0.162071E-01
  0.189531E-01  0.224947E-01  0.269537E-01  0.323673E-01  0.385541E-01  0.449788E-01
  0.506011E-01  0.537899E-01  0.527142E-01  0.465490E-01  0.366729E-01  0.262321E-01
  0.180896E-01  0.133665E-01  0.118765E-01  0.133665E-01  0.180896E-01  0.342465E-01
  0.419489E-01  0.491626E-01  0.535133E-01  0.537899E-01  0.504371E-01  0.448526E-01
  0.384425E-01  0.321876E-01  0.266364E-01  0.220076E-01  0.182967E-01  0.153943E-01
  0.131774E-01  0.115421E-01  0.103987E-01  0.967365E-02  0.932061E-02  0.932061E-02
  0.967365E-02  0.103987E-01  0.115421E-01  0.131774E-01  0.153943E-01  0.182967E-01
  0.220076E-01  0.266364E-01  0.321876E-01  0.384425E-01  0.448526E-01  0.504371E-01
  0.537899E-01  0.535133E-01  0.491626E-01  0.419489E-01  0.342465E-01  0.282389E-01
  0.250749E-01  0.250749E-01  0.282389E-01  0.342465E-01  0.419489E-01  0.482686E-01
  0.526024E-01  0.534794E-01  0.508390E-01  0.457324E-01  0.394901E-01  0.331601E-01
  0.273873E-01  0.224788E-01  0.184939E-01  0.153496E-01  0.129226E-01  0.111017E-01
  0.979274E-02  0.891429E-02  0.840714E-02  0.824080E-02  0.840714E-02  0.891429E-02
  0.979274E-02  0.111017E-01  0.129226E-01  0.153496E-01  0.184939E-01  0.224788E-01
  0.273873E-01  0.331601E-01  0.394901E-01  0.457324E-01  0.508390E-01  0.534794E-01
  0.526024E-01  0.482686E-01  0.419489E-01  0.357903E-01  0.315275E-01  0.300317E-01
  0.315275E-01  0.357903E-01  0.419489E-01  0.491626E-01  0.526024E-01  0.533225E-01
  0.509634E-01  0.462068E-01  0.401762E-01  0.338790E-01  0.279978E-01  0.229001E-01
  0.187029E-01  0.153585E-01  0.127520E-01  0.107695E-01  0.931329E-02  0.829803E-02
  0.765492E-02  0.734177E-02  0.734177E-02  0.765492E-02  0.829803E-02  0.931329E-02
  0.107695E-01  0.127520E-01  0.153585E-01  0.187029E-01  0.229001E-01  0.279978E-01
  0.338790E-01  0.401762E-01  0.462068E-01  0.509634E-01  0.533225E-01  0.526024E-01
  0.491626E-01  0.444181E-01  0.401387E-01  0.376753E-01  0.376753E-01  0.401387E-01
  0.444181E-01  0.491626E-01  0.535133E-01  0.534794E-01  0.509634E-01  0.463536E-01
  0.405119E-01  0.343174E-01  0.284268E-01  0.232322E-01  0.188928E-01  0.153965E-01
  0.126455E-01  0.105277E-01  0.894473E-02  0.780979E-02  0.704860E-02  0.660894E-02
  0.646470E-02  0.660894E-02  0.704860E-02  0.780979E-02  0.894473E-02  0.105277E-01
  0.126455E-01  0.153965E-01  0.188928E-01  0.232322E-01  0.284268E-01  0.343174E-01
  0.405119E-01  0.463536E-01  0.509634E-01  0.534794E-01  0.535133E-01  0.515170E-01
  0.486672E-01  0.463092E-01  0.454105E-01  0.463092E-01  0.486672E-01  0.515170E-01
  0.535133E-01  0.537899E-01  0.508390E-01  0.462068E-01  0.405119E-01  0.344644E-01
  0.286479E-01  0.234449E-01  0.190369E-01  0.154425E-01  0.125849E-01  0.103604E-01
  0.867249E-02  0.743542E-02  0.657294E-02  0.602594E-02  0.575941E-02  0.575941E-02
  0.602594E-02  0.657294E-02  0.743542E-02  0.867249E-02  0.103604E-01  0.125849E-01
  0.154425E-01  0.190369E-01  0.234449E-01  0.286479E-01  0.344644E-01  0.405119E-01
  0.462068E-01  0.508390E-01  0.537899E-01  0.548526E-01  0.544242E-01  0.533565E-01
  0.525474E-01  0.525474E-01  0.533565E-01  0.544242E-01  0.548526E-01  0.537899E-01
  0.504371E-01  0.457324E-01  0.401762E-01  0.343174E-01  0.286479E-01  0.235182E-01
  0.191149E-01  0.154786E-01  0.125549E-01  0.102532E-01  0.848302E-02  0.716169E-02
  0.621367E-02  0.557639E-02  0.520786E-02  0.508697E-02  0.520786E-02  0.557639E-02
  0.621367E-02  0.716169E-02  0.848302E-02  0.102532E-01  0.125549E-01  0.154786E-01
  0.191149E-01  0.235182E-01  0.286479E-01  0.343174E-01  0.401762E-01  0.457324E-01
  0.504371E-01  0.538518E-01  0.558462E-01  0.566775E-01  0.568528E-01  0.568476E-01
  0.568528E-01  0.566775E-01  0.558462E-01  0.538518E-01  0.504371E-01  0.448526E-01
  0.394901E-01  0.338790E-01  0.284268E-01  0.234449E-01  0.191149E-01  0.154922E-01
  0.125433E-01  0.101942E-01  0.836431E-02  0.697635E-02  0.595753E-02  0.524472E-02
  0.479170E-02  0.457110E-02  0.457110E-02  0.479170E-02  0.524472E-02  0.595753E-02
  0.697635E-02  0.836431E-02  0.101942E-01  0.125433E-01  0.154922E-01  0.191149E-01
  0.234449E-01  0.284268E-01  0.338790E-01  0.394901E-01  0.448526E-01  0.495394E-01
  0.532184E-01  0.557599E-01  0.572566E-01  0.579216E-01  0.579216E-01  0.572566E-01
  0.557599E-01  0.532184E-01  0.495394E-01  0.448526E-01  0.384425E-01  0.331601E-01
  0.279978E-01  0.232322E-01  0.190369E-01  0.154786E-01  0.125433E-01  0.101755E-01
  0.830734E-02  0.686938E-02  0.579324E-02  0.501737E-02  0.449404E-02  0.419164E-02
  0.409270E-02  0.419164E-02  0.449404E-02  0.501737E-02  0.579324E-02  0.686938E-02
  0.830734E-02  0.101755E-01  0.125433E-01  0.154786E-01  0.190369E-01  0.232322E-01
  0.279978E-01  0.331601E-01  0.384425E-01  0.435011E-01  0.479848E-01  0.516094E-01
  0.542123E-01  0.557541E-01  0.562615E-01  0.557541E-01  0.542123E-01  0.516094E-01
  0.479848E-01  0.435011E-01  0.384425E-01  0.321876E-01  0.273873E-01  0.229001E-01
  0.188928E-01  0.154425E-01  0.125549E-01  0.101942E-01  0.830734E-02  0.683443E-02
  0.571299E-02  0.488453E-02  0.430185E-02  0.393153E-02  0.375193E-02  0.375193E-02
  0.393153E-02  0.430185E-02  0.488453E-02  0.571299E-02  0.683443E-02  0.830734E-02
  0.101942E-01  0.125549E-01  0.154425E-01  0.188928E-01  0.229001E-01  0.273873E-01
  0.321876E-01  0.370511E-01  0.416756E-01  0.457528E-01  0.490175E-01  0.512805E-01
  0.524341E-01  0.524341E-01  0.512805E-01  0.490175E-01  0.457528E-01  0.416756E-01
  0.370511E-01  0.321876E-01  0.266364E-01  0.224788E-01  0.187029E-01  0.153965E-01
  0.125849E-01  0.102532E-01  0.836431E-02  0.686938E-02  0.571299E-02  0.484078E-02
  0.420736E-02  0.377924E-02  0.353276E-02  0.345248E-02  0.353276E-02  0.377924E-02
  0.420736E-02  0.484078E-02  0.571299E-02  0.686938E-02  0.836431E-02  0.102532E-01
  0.125849E-01  0.153965E-01  0.187029E-01  0.224788E-01  0.266364E-01  0.310132E-01
  0.353784E-01  0.394581E-01  0.429721E-01  0.456717E-01  0.473681E-01  0.479464E-01
  0.473681E-01  0.456717E-01  0.429721E-01  0.394581E-01  0.353784E-01  0.310132E-01
  0.266364E-01  0.220076E-01  0.184939E-01  0.153585E-01  0.126455E-01  0.103604E-01
  0.848302E-02  0.697635E-02  0.579324E-02  0.488453E-02  0.420736E-02  0.372901E-02
  0.342534E-02  0.327860E-02  0.327860E-02  0.342534E-02  0.372901E-02  0.420736E-02
  0.488453E-02  0.579324E-02  0.697635E-02  0.848302E-02  0.103604E-01  0.126455E-01
  0.153585E-01  0.184939E-01  0.220076E-01  0.258010E-01  0.297139E-01  0.335305E-01
  0.370004E-01  0.398713E-01  0.419220E-01  0.429902E-01  0.429902E-01  0.419220E-01
  0.398713E-01  0.370004E-01  0.335305E-01  0.297139E-01  0.258010E-01  0.220076E-01
  0.182967E-01  0.153496E-01  0.127520E-01  0.105277E-01  0.867249E-02  0.716169E-02
  0.595753E-02  0.501737E-02  0.430185E-02  0.377924E-02  0.342534E-02  0.322159E-02
  0.315524E-02  0.322159E-02  0.342534E-02  0.377924E-02  0.430185E-02  0.501737E-02
  0.595753E-02  0.716169E-02  0.867249E-02  0.105277E-01  0.127520E-01  0.153496E-01
  0.182967E-01  0.215320E-01  0.249472E-01  0.283834E-01  0.316384E-01  0.344873E-01
  0.367110E-01  0.381263E-01  0.386122E-01  0.381263E-01  0.367110E-01  0.344873E-01
  0.316384E-01  0.283834E-01  0.249472E-01  0.215320E-01  0.182967E-01  0.153943E-01
  0.129226E-01  0.107695E-01  0.894473E-02  0.743542E-02  0.621367E-02  0.524472E-02
  0.449404E-02  0.393153E-02  0.353276E-02  0.327860E-02  0.315524E-02  0.315524E-02
  0.327860E-02  0.353276E-02  0.393153E-02  0.449404E-02  0.524472E-02  0.621367E-02
  0.743542E-02  0.894473E-02  0.107695E-01  0.129226E-01  0.153943E-01  0.181454E-01
  0.211002E-01  0.241423E-01  0.271147E-01  0.298307E-01  0.320930E-01  0.337198E-01
  0.345712E-01  0.345712E-01  0.337198E-01  0.320930E-01  0.298307E-01  0.271147E-01
  0.241423E-01  0.211002E-01  0.181454E-01  0.153943E-01  0.131774E-01  0.111017E-01
  0.931329E-02  0.780979E-02  0.657294E-02  0.557639E-02  0.479170E-02  0.419164E-02
  0.375193E-02  0.345248E-02  0.327860E-02  0.322159E-02  0.327860E-02  0.345248E-02
  0.375193E-02  0.419164E-02  0.479170E-02  0.557639E-02  0.657294E-02  0.780979E-02
  0.931329E-02  0.111017E-01  0.131774E-01  0.155190E-01  0.180743E-01  0.207564E-01
  0.234433E-01  0.259829E-01  0.282053E-01  0.299422E-01  0.310496E-01  0.314302E-01
  0.310496E-01  0.299422E-01  0.282053E-01  0.259829E-01  0.234433E-01  0.207564E-01
  0.180743E-01  0.155190E-01  0.131774E-01  0.115421E-01  0.979274E-02  0.829803E-02
  0.704860E-02  0.602594E-02  0.520786E-02  0.457110E-02  0.409270E-02  0.375193E-02
  0.353276E-02  0.342534E-02  0.342534E-02  0.353276E-02  0.375193E-02  0.409270E-02
  0.457110E-02  0.520786E-02  0.602594E-02  0.704860E-02  0.829803E-02  0.979274E-02
  0.115421E-01  0.135387E-01  0.157502E-01  0.181140E-01  0.205354E-01  0.228904E-01
  0.250345E-01  0.268160E-01  0.280954E-01  0.287646E-01  0.287646E-01  0.280954E-01
  0.268160E-01  0.250345E-01  0.228904E-01  0.205354E-01  0.181140E-01  0.157502E-01
  0.135387E-01  0.115421E-01  0.103987E-01  0.891429E-02  0.765492E-02  0.660894E-02
  0.575941E-02  0.508697E-02  0.457110E-02  0.419164E-02  0.393153E-02  0.377924E-02
  0.372901E-02  0.377924E-02  0.393153E-02  0.419164E-02  0.457110E-02  0.508697E-02
  0.575941E-02  0.660894E-02  0.765492E-02  0.891429E-02  0.103987E-01  0.121087E-01
  0.140265E-01  0.161097E-01  0.182869E-01  0.204592E-01  0.225043E-01  0.242878E-01
  0.256776E-01  0.265620E-01  0.268656E-01  0.265620E-01  0.256776E-01  0.242878E-01
  0.225043E-01  0.204592E-01  0.182869E-01  0.161097E-01  0.140265E-01  0.121087E-01
  0.103987E-01  0.967365E-02  0.840714E-02  0.734177E-02  0.646470E-02  0.575941E-02
  0.520786E-02  0.479170E-02  0.449404E-02  0.430185E-02  0.420736E-02  0.420736E-02
  0.430185E-02  0.449404E-02  0.479170E-02  0.520786E-02  0.575941E-02  0.646470E-02
  0.734177E-02  0.840714E-02  0.967365E-02  0.111462E-01  0.128159E-01  0.146544E-01
  0.166093E-01  0.186032E-01  0.205354E-01  0.222887E-01  0.237415E-01  0.247824E-01
  0.253260E-01  0.253260E-01  0.247824E-01  0.237415E-01  0.222887E-01  0.205354E-01
  0.186032E-01  0.166093E-01  0.146544E-01  0.128159E-01  0.111462E-01  0.967365E-02
  0.932061E-02  0.824080E-02  0.734177E-02  0.660894E-02  0.602594E-02  0.557639E-02
  0.524472E-02  0.501737E-02  0.488453E-02  0.484078E-02  0.488453E-02  0.501737E-02
  0.524472E-02  0.557639E-02  0.602594E-02  0.660894E-02  0.734177E-02  0.824080E-02
  0.932061E-02  0.105899E-01  0.120460E-01  0.136703E-01  0.154243E-01  0.172475E-01
  0.190581E-01  0.207564E-01  0.222333E-01  0.233819E-01  0.241118E-01  0.243623E-01
  0.241118E-01  0.233819E-01  0.222333E-01  0.207564E-01  0.190581E-01  0.172475E-01
  0.154243E-01  0.136703E-01  0.120460E-01  0.105899E-01  0.932061E-02  0.932061E-02
  0.840714E-02  0.765492E-02  0.704860E-02  0.657294E-02  0.621367E-02  0.595753E-02
  0.579324E-02  0.571299E-02  0.571299E-02  0.579324E-02  0.595753E-02  0.621367E-02
  0.657294E-02  0.704860E-02  0.765492E-02  0.840714E-02  0.932061E-02  0.104073E-01
  0.116705E-01  0.130995E-01  0.146665E-01  0.163248E-01  0.180079E-01  0.196318E-01
  0.211002E-01  0.223142E-01  0.231829E-01  0.236364E-01  0.236364E-01  0.231829E-01
  0.223142E-01  0.211002E-01  0.196318E-01  0.180079E-01  0.163248E-01  0.146665E-01
  0.130995E-01  0.116705E-01  0.104073E-01  0.932061E-02  0.967365E-02  0.891429E-02
  0.829803E-02  0.780979E-02  0.743542E-02  0.716169E-02  0.697635E-02  0.686938E-02
  0.683443E-02  0.686938E-02  0.697635E-02  0.716169E-02  0.743542E-02  0.780979E-02
  0.829803E-02  0.891429E-02  0.967365E-02  0.105899E-01  0.116705E-01  0.129118E-01
  0.142955E-01  0.157864E-01  0.173318E-01  0.188616E-01  0.202918E-01  0.215320E-01
  0.224947E-01  0.231059E-01  0.233155E-01  0.231059E-01  0.224947E-01  0.215320E-01
  0.202918E-01  0.188616E-01  0.173318E-01  0.157864E-01  0.142955E-01  0.129118E-01
  0.116705E-01  0.105899E-01  0.967365E-02  0.103987E-01  0.979274E-02  0.931329E-02
  0.894473E-02  0.867249E-02  0.848302E-02  0.836431E-02  0.830734E-02  0.830734E-02
  0.836431E-02  0.848302E-02  0.867249E-02  0.894473E-02  0.931329E-02  0.979274E-02
  0.103987E-01  0.111462E-01  0.120460E-01  0.130995E-01  0.142955E-01  0.156087E-01
  0.169990E-01  0.184095E-01  0.197689E-01  0.209958E-01  0.220076E-01  0.227299E-01
  0.231063E-01  0.231063E-01  0.227299E-01  0.220076E-01  0.209958E-01  0.197689E-01
  0.184095E-01  0.169990E-01  0.156087E-01  0.142955E-01  0.130995E-01  0.120460E-01
  0.111462E-01  0.103987E-01  0.115421E-01  0.111017E-01  0.107695E-01  0.105277E-01
  0.103604E-01  0.102532E-01  0.101942E-01  0.101755E-01  0.101942E-01  0.102532E-01
  0.103604E-01  0.105277E-01  0.107695E-01  0.111017E-01  0.115421E-01  0.121087E-01
  0.128159E-01  0.136703E-01  0.146665E-01  0.157864E-01  0.169990E-01  0.182599E-01
  0.195108E-01  0.206810E-01  0.216945E-01  0.224788E-01  0.229751E-01  0.231449E-01
  0.229751E-01  0.224788E-01  0.216945E-01  0.206810E-01  0.195108E-01  0.182599E-01
  0.169990E-01  0.157864E-01  0.146665E-01  0.136703E-01  0.128159E-01  0.121087E-01
  0.115421E-01  0.131774E-01  0.129226E-01  0.127520E-01  0.126455E-01  0.125849E-01
  0.125549E-01  0.125433E-01  0.125433E-01  0.125549E-01  0.125849E-01  0.126455E-01
  0.127520E-01  0.129226E-01  0.131774E-01  0.135387E-01  0.140265E-01  0.146544E-01
  0.154243E-01  0.163248E-01  0.173318E-01  0.184095E-01  0.195108E-01  0.205769E-01
  0.215410E-01  0.223351E-01  0.229001E-01  0.231935E-01  0.231935E-01  0.229001E-01
  0.223351E-01  0.215410E-01  0.205769E-01  0.195108E-01  0.184095E-01  0.173318E-01
  0.163248E-01  0.154243E-01  0.146544E-01  0.140265E-01  0.135387E-01  0.131774E-01
  0.153943E-01  0.153496E-01  0.153585E-01  0.153965E-01  0.154425E-01  0.154786E-01
  0.154922E-01  0.154786E-01  0.154425E-01  0.153965E-01  0.153585E-01  0.153496E-01
  0.153943E-01  0.155190E-01  0.157502E-01  0.161097E-01  0.166093E-01  0.172475E-01
  0.180079E-01  0.188616E-01  0.197689E-01  0.206810E-01  0.215410E-01  0.222884E-01
  0.228670E-01  0.232322E-01  0.233570E-01  0.232322E-01  0.228670E-01  0.222884E-01
  0.215410E-01  0.206810E-01  0.197689E-01  0.188616E-01  0.180079E-01  0.172475E-01
  0.166093E-01  0.161097E-01  0.157502E-01  0.155190E-01  0.153943E-01  0.182967E-01
  0.184939E-01  0.187029E-01  0.188928E-01  0.190369E-01  0.191149E-01  0.191149E-01
  0.190369E-01  0.188928E-01  0.187029E-01  0.184939E-01  0.182967E-01  0.181454E-01
  0.180743E-01  0.181140E-01  0.182869E-01  0.186032E-01  0.190581E-01  0.196318E-01
  0.202918E-01  0.209958E-01  0.216945E-01  0.223351E-01  0.228670E-01  0.232470E-01
  0.234449E-01  0.234449E-01  0.232470E-01  0.228670E-01  0.223351E-01  0.216945E-01
  0.209958E-01  0.202918E-01  0.196318E-01  0.190581E-01  0.186032E-01  0.182869E-01
  0.181140E-01  0.180743E-01  0.181454E-01  0.182967E-01  0.220076E-01  0.224788E-01
  0.229001E-01  0.232322E-01  0.234449E-01  0.235182E-01  0.234449E-01  0.232322E-01
  0.229001E-01  0.224788E-01  0.220076E-01  0.215320E-01  0.211002E-01  0.207564E-01
  0.205354E-01  0.204592E-01  0.205354E-01  0.207564E-01  0.211002E-01  0.215320E-01
  0.220076E-01  0.224788E-01  0.229001E-01  0.232322E-01  0.234449E-01  0.235182E-01
  0.234449E-01  0.232322E-01  0.229001E-01  0.224788E-01  0.220076E-01  0.215320E-01
  0.211002E-01  0.207564E-01  0.205354E-01  0.204592E-01  0.205354E-01  0.207564E-01
  0.211002E-01  0.215320E-01  0.220076E-01  0.266364E-01  0.273873E-01  0.279978E-01
  0.284268E-01  0.286479E-01  0.286479E-01  0.284268E-01  0.279978E-01  0.273873E-01
  0.266364E-01  0.258010E-01  0.249472E-01  0.241423E-01  0.234433E-01  0.228904E-01
  0.225043E-01  0.222887E-01  0.222333E-01  0.223142E-01  0.224947E-01  0.227299E-01
  0.229751E-01  0.231935E-01  0.233570E-01  0.234449E-01  0.234449E-01  0.233570E-01
  0.231935E-01  0.229751E-01  0.227299E-01  0.224947E-01  0.223142E-01  0.222333E-01
  0.222887E-01  0.225043E-01  0.228904E-01  0.234433E-01  0.241423E-01  0.249472E-01
  0.258010E-01  0.266364E-01  0.321876E-01  0.331601E-01  0.338790E-01  0.343174E-01
  0.344644E-01  0.343174E-01  0.338790E-01  0.331601E-01  0.321876E-01  0.310132E-01
  0.297139E-01  0.283834E-01  0.271147E-01  0.259829E-01  0.250345E-01  0.242878E-01
  0.237415E-01  0.233819E-01  0.231829E-01  0.231059E-01  0.231063E-01  0.231449E-01
  0.231935E-01  0.232322E-01  0.232470E-01  0.232322E-01  0.231935E-01  0.231449E-01
  0.231063E-01  0.231059E-01  0.231829E-01  0.233819E-01  0.237415E-01  0.242878E-01
  0.250345E-01  0.259829E-01  0.271147E-01  0.283834E-01  0.297139E-01  0.310132E-01
  0.321876E-01  0.384425E-01  0.394901E-01  0.401762E-01  0.405119E-01  0.405119E-01
  0.401762E-01  0.394901E-01  0.384425E-01  0.370511E-01  0.353784E-01  0.335305E-01
  0.316384E-01  0.298307E-01  0.282053E-01  0.268160E-01  0.256776E-01  0.247824E-01
  0.241118E-01  0.236364E-01  0.233155E-01  0.231063E-01  0.229751E-01  0.229001E-01
  0.228670E-01  0.228670E-01  0.229001E-01  0.229751E-01  0.231063E-01  0.233155E-01
  0.236364E-01  0.241118E-01  0.247824E-01  0.256776E-01  0.268160E-01  0.282053E-01
  0.298307E-01  0.316384E-01  0.335305E-01  0.353784E-01  0.370511E-01  0.384425E-01
  0.448526E-01  0.457324E-01  0.462068E-01  0.463536E-01  0.462068E-01  0.457324E-01
  0.448526E-01  0.435011E-01  0.416756E-01  0.394581E-01  0.370004E-01  0.344873E-01
  0.320930E-01  0.299422E-01  0.280954E-01  0.265620E-01  0.253260E-01  0.243623E-01
  0.236364E-01  0.231059E-01  0.227299E-01  0.224788E-01  0.223351E-01  0.222884E-01
  0.223351E-01  0.224788E-01  0.227299E-01  0.231059E-01  0.236364E-01  0.243623E-01
  0.253260E-01  0.265620E-01  0.280954E-01  0.299422E-01  0.320930E-01  0.344873E-01
  0.370004E-01  0.394581E-01  0.416756E-01  0.435011E-01  0.448526E-01  0.504371E-01
  0.508390E-01  0.509634E-01  0.509634E-01  0.508390E-01  0.504371E-01  0.495394E-01
  0.479848E-01  0.457528E-01  0.429721E-01  0.398713E-01  0.367110E-01  0.337198E-01
  0.310496E-01  0.287646E-01  0.268656E-01  0.253260E-01  0.241118E-01  0.231829E-01
  0.224947E-01  0.220076E-01  0.216945E-01  0.215410E-01  0.215410E-01  0.216945E-01
  0.220076E-01  0.224947E-01  0.231829E-01  0.241118E-01  0.253260E-01  0.268656E-01
  0.287646E-01  0.310496E-01  0.337198E-01  0.367110E-01  0.398713E-01  0.429721E-01
  0.457528E-01  0.479848E-01  0.495394E-01  0.504371E-01  0.537899E-01  0.534794E-01
  0.533225E-01  0.534794E-01  0.537899E-01  0.538518E-01  0.532184E-01  0.516094E-01
  0.490175E-01  0.456717E-01  0.419220E-01  0.381263E-01  0.345712E-01  0.314302E-01
  0.287646E-01  0.265620E-01  0.247824E-01  0.233819E-01  0.223142E-01  0.215320E-01
  0.209958E-01  0.206810E-01  0.205769E-01  0.206810E-01  0.209958E-01  0.215320E-01
  0.223142E-01  0.233819E-01  0.247824E-01  0.265620E-01  0.287646E-01  0.314302E-01
  0.345712E-01  0.381263E-01  0.419220E-01  0.456717E-01  0.490175E-01  0.516094E-01
  0.532184E-01  0.538518E-01  0.537899E-01  0.535133E-01  0.526024E-01  0.526024E-01
  0.535133E-01  0.548526E-01  0.558462E-01  0.557599E-01  0.542123E-01  0.512805E-01
  0.473681E-01  0.429902E-01  0.386122E-01  0.345712E-01  0.310496E-01  0.280954E-01
  0.256776E-01  0.237415E-01  0.222333E-01  0.211002E-01  0.202918E-01  0.197689E-01
  0.195108E-01  0.195108E-01  0.197689E-01  0.202918E-01  0.211002E-01  0.222333E-01
  0.237415E-01  0.256776E-01  0.280954E-01  0.310496E-01  0.345712E-01  0.386122E-01
  0.429902E-01  0.473681E-01  0.512805E-01  0.542123E-01  0.557599E-01  0.558462E-01
  0.548526E-01  0.535133E-01  0.491626E-01  0.482686E-01  0.491626E-01  0.515170E-01
  0.544242E-01  0.566775E-01  0.572566E-01  0.557541E-01  0.524341E-01  0.479464E-01
  0.429902E-01  0.381263E-01  0.337198E-01  0.299422E-01  0.268160E-01  0.242878E-01
  0.222887E-01  0.207564E-01  0.196318E-01  0.188616E-01  0.184095E-01  0.182599E-01
  0.184095E-01  0.188616E-01  0.196318E-01  0.207564E-01  0.222887E-01  0.242878E-01
  0.268160E-01  0.299422E-01  0.337198E-01  0.381263E-01  0.429902E-01  0.479464E-01
  0.524341E-01  0.557541E-01  0.572566E-01  0.566775E-01  0.544242E-01  0.515170E-01
  0.491626E-01  0.419489E-01  0.419489E-01  0.444181E-01  0.486672E-01  0.533565E-01
  0.568528E-01  0.579216E-01  0.562615E-01  0.524341E-01  0.473681E-01  0.419220E-01
  0.367110E-01  0.320930E-01  0.282053E-01  0.250345E-01  0.225043E-01  0.205354E-01
  0.190581E-01  0.180079E-01  0.173318E-01  0.169990E-01  0.169990E-01  0.173318E-01
  0.180079E-01  0.190581E-01  0.205354E-01  0.225043E-01  0.250345E-01  0.282053E-01
  0.320930E-01  0.367110E-01  0.419220E-01  0.473681E-01  0.524341E-01  0.562615E-01
  0.579216E-01  0.568528E-01  0.533565E-01  0.486672E-01  0.444181E-01  0.419489E-01
  0.342465E-01  0.357903E-01  0.401387E-01  0.463092E-01  0.525474E-01  0.568476E-01
  0.579216E-01  0.557541E-01  0.512805E-01  0.456717E-01  0.398713E-01  0.344873E-01
  0.298307E-01  0.259829E-01  0.228904E-01  0.204592E-01  0.186032E-01  0.172475E-01
  0.163248E-01  0.157864E-01  0.156087E-01  0.157864E-01  0.163248E-01  0.172475E-01
  0.186032E-01  0.204592E-01  0.228904E-01  0.259829E-01  0.298307E-01  0.344873E-01
  0.398713E-01  0.456717E-01  0.512805E-01  0.557541E-01  0.579216E-01  0.568476E-01
  0.525474E-01  0.463092E-01  0.401387E-01  0.357903E-01  0.342465E-01  0.282389E-01
  0.315275E-01  0.376753E-01  0.454105E-01  0.525474E-01  0.568528E-01  0.572566E-01
  0.542123E-01  0.490175E-01  0.429721E-01  0.370004E-01  0.316384E-01  0.271147E-01
  0.234433E-01  0.205354E-01  0.182869E-01  0.166093E-01  0.154243E-01  0.146665E-01
  0.142955E-01  0.142955E-01  0.146665E-01  0.154243E-01  0.166093E-01  0.182869E-01
  0.205354E-01  0.234433E-01  0.271147E-01  0.316384E-01  0.370004E-01  0.429721E-01
  0.490175E-01  0.542123E-01  0.572566E-01  0.568528E-01  0.525474E-01  0.454105E-01
  0.376753E-01  0.315275E-01  0.282389E-01  0.282389E-01  0.250749E-01  0.300317E-01
  0.376753E-01  0.463092E-01  0.533565E-01  0.566775E-01  0.557599E-01  0.516094E-01
  0.457528E-01  0.394581E-01  0.335305E-01  0.283834E-01  0.241423E-01  0.207564E-01
  0.181140E-01  0.161097E-01  0.146544E-01  0.136703E-01  0.130995E-01  0.129118E-01
  0.130995E-01  0.136703E-01  0.146544E-01  0.161097E-01  0.181140E-01  0.207564E-01
  0.241423E-01  0.283834E-01  0.335305E-01  0.394581E-01  0.457528E-01  0.516094E-01
  0.557599E-01  0.566775E-01  0.533565E-01  0.463092E-01  0.376753E-01  0.300317E-01
  0.250749E-01  0.233970E-01  0.250749E-01  0.250749E-01  0.315275E-01  0.401387E-01
  0.486672E-01  0.544242E-01  0.558462E-01  0.532184E-01  0.479848E-01  0.416756E-01
  0.353784E-01  0.297139E-01  0.249472E-01  0.211002E-01  0.180743E-01  0.157502E-01
  0.140265E-01  0.128159E-01  0.120460E-01  0.116705E-01  0.116705E-01  0.120460E-01
  0.128159E-01  0.140265E-01  0.157502E-01  0.180743E-01  0.211002E-01  0.249472E-01
  0.297139E-01  0.353784E-01  0.416756E-01  0.479848E-01  0.532184E-01  0.558462E-01
  0.544242E-01  0.486672E-01  0.401387E-01  0.315275E-01  0.250749E-01  0.217696E-01
  0.217696E-01  0.250749E-01  0.282389E-01  0.357903E-01  0.444181E-01  0.515170E-01
  0.548526E-01  0.538518E-01  0.495394E-01  0.435011E-01  0.370511E-01  0.310132E-01
  0.258010E-01  0.215320E-01  0.181454E-01  0.155190E-01  0.135387E-01  0.121087E-01
  0.111462E-01  0.105899E-01  0.104073E-01  0.105899E-01  0.111462E-01  0.121087E-01
  0.135387E-01  0.155190E-01  0.181454E-01  0.215320E-01  0.258010E-01  0.310132E-01
  0.370511E-01  0.435011E-01  0.495394E-01  0.538518E-01  0.548526E-01  0.515170E-01
  0.444181E-01  0.357903E-01  0.282389E-01  0.233970E-01  0.217696E-01  0.233970E-01
  0.282389E-01  0.342465E-01  0.419489E-01  0.491626E-01  0.535133E-01  0.537899E-01
  0.504371E-01  0.448526E-01  0.384425E-01  0.321876E-01  0.266364E-01  0.220076E-01
  0.182967E-01  0.153943E-01  0.131774E-01  0.115421E-01  0.103987E-01  0.967365E-02
  0.932061E-02  0.932061E-02  0.967365E-02  0.103987E-01  0.115421E-01  0.131774E-01
  0.153943E-01  0.182967E-01  0.220076E-01  0.266364E-01  0.321876E-01  0.384425E-01
  0.448526E-01  0.504371E-01  0.537899E-01  0.535133E-01  0.491626E-01  0.419489E-01
  0.342465E-01  0.282389E-01  0.250749E-01  0.250749E-01  0.282389E-01  0.342465E-01
  0.495863E-01  0.536934E-01  0.556429E-01  0.545318E-01  0.506011E-01  0.448526E-01
  0.384012E-01  0.320957E-01  0.264504E-01  0.216945E-01  0.178470E-01  0.148127E-01
  0.124707E-01  0.107145E-01  0.945202E-02  0.860419E-02  0.811422E-02  0.795343E-02
  0.811422E-02  0.860419E-02  0.945202E-02  0.107145E-01  0.124707E-01  0.148127E-01
  0.178470E-01  0.216945E-01  0.264504E-01  0.320957E-01  0.384012E-01  0.448526E-01
  0.506011E-01  0.545318E-01  0.556429E-01  0.536934E-01  0.495863E-01  0.450034E-01
  0.415779E-01  0.403287E-01  0.415779E-01  0.450034E-01  0.495863E-01  0.536934E-01
  0.554089E-01  0.545897E-01  0.511406E-01  0.457740E-01  0.394901E-01  0.331509E-01
  0.273325E-01  0.223351E-01  0.182371E-01  0.149749E-01  0.124328E-01  0.104999E-01
  0.908068E-02  0.809089E-02  0.746345E-02  0.715777E-02  0.715777E-02  0.746345E-02
  0.809089E-02  0.908068E-02  0.104999E-01  0.124328E-01  0.149749E-01  0.182371E-01
  0.223351E-01  0.273325E-01  0.331509E-01  0.394901E-01  0.457740E-01  0.511406E-01
  0.545897E-01  0.554089E-01  0.536934E-01  0.504743E-01  0.472457E-01  0.452903E-01
  0.452903E-01  0.472457E-01  0.504743E-01  0.536934E-01  0.556429E-01  0.545897E-01
  0.513000E-01  0.462150E-01  0.401437E-01  0.338790E-01  0.280059E-01  0.228670E-01
  0.185901E-01  0.151483E-01  0.124406E-01  0.103566E-01  0.879944E-02  0.768303E-02
  0.693399E-02  0.650120E-02  0.635920E-02  0.650120E-02  0.693399E-02  0.768303E-02
  0.879944E-02  0.103566E-01  0.124406E-01  0.151483E-01  0.185901E-01  0.228670E-01
  0.280059E-01  0.338790E-01  0.401437E-01  0.462150E-01  0.513000E-01  0.545897E-01
  0.556429E-01  0.547312E-01  0.528033E-01  0.510403E-01  0.503439E-01  0.510403E-01
  0.528033E-01  0.547312E-01  0.556429E-01  0.545318E-01  0.511406E-01  0.462150E-01
  0.403607E-01  0.342493E-01  0.284268E-01  0.232470E-01  0.188713E-01  0.153069E-01
  0.124737E-01  0.102683E-01  0.859524E-02  0.736922E-02  0.651433E-02  0.597210E-02
  0.570792E-02  0.570792E-02  0.597210E-02  0.651433E-02  0.736922E-02  0.859524E-02
  0.102683E-01  0.124737E-01  0.153069E-01  0.188713E-01  0.232470E-01  0.284268E-01
  0.342493E-01  0.403607E-01  0.462150E-01  0.511406E-01  0.545318E-01  0.561397E-01
  0.562621E-01  0.556342E-01  0.550659E-01  0.550659E-01  0.556342E-01  0.562621E-01
  0.561397E-01  0.545318E-01  0.506011E-01  0.457740E-01  0.401437E-01  0.342493E-01
  0.285698E-01  0.234449E-01  0.190524E-01  0.154274E-01  0.125131E-01  0.102188E-01
  0.845454E-02  0.713765E-02  0.619278E-02  0.555763E-02  0.519038E-02  0.506994E-02
  0.519038E-02  0.555763E-02  0.619278E-02  0.713765E-02  0.845454E-02  0.102188E-01
  0.125131E-01  0.154274E-01  0.190524E-01  0.234449E-01  0.285698E-01  0.342493E-01
  0.401437E-01  0.457740E-01  0.506011E-01  0.541857E-01  0.563767E-01  0.573932E-01
  0.577003E-01  0.577427E-01  0.577003E-01  0.573932E-01  0.563767E-01  0.541857E-01
  0.506011E-01  0.448526E-01  0.394901E-01  0.338790E-01  0.284268E-01  0.234449E-01
  0.191149E-01  0.154922E-01  0.125433E-01  0.101942E-01  0.836431E-02  0.697635E-02
  0.595753E-02  0.524472E-02  0.479170E-02  0.457110E-02  0.457110E-02  0.479170E-02
  0.524472E-02  0.595753E-02  0.697635E-02  0.836431E-02  0.101942E-01  0.125433E-01
  0.154922E-01  0.191149E-01  0.234449E-01  0.284268E-01  0.338790E-01  0.394901E-01
  0.448526E-01  0.495394E-01  0.532184E-01  0.557599E-01  0.572566E-01  0.579216E-01
  0.579216E-01  0.572566E-01  0.557599E-01  0.532184E-01  0.495394E-01  0.448526E-01
  0.384012E-01  0.331509E-01  0.280059E-01  0.232470E-01  0.190524E-01  0.154922E-01
  0.125545E-01  0.101844E-01  0.831421E-02  0.687473E-02  0.579763E-02  0.502117E-02
  0.449734E-02  0.419451E-02  0.409540E-02  0.419451E-02  0.449734E-02  0.502117E-02
  0.579763E-02  0.687473E-02  0.831421E-02  0.101844E-01  0.125545E-01  0.154922E-01
  0.190524E-01  0.232470E-01  0.280059E-01  0.331509E-01  0.384012E-01  0.434099E-01
  0.478271E-01  0.513753E-01  0.539051E-01  0.553937E-01  0.558816E-01  0.553937E-01
  0.539051E-01  0.513753E-01  0.478271E-01  0.434099E-01  0.384012E-01  0.320957E-01
  0.273325E-01  0.228670E-01  0.188713E-01  0.154274E-01  0.125433E-01  0.101844E-01
  0.829815E-02  0.682557E-02  0.570477E-02  0.487716E-02  0.429508E-02  0.392483E-02
  0.374508E-02  0.374508E-02  0.392483E-02  0.429508E-02  0.487716E-02  0.570477E-02
  0.682557E-02  0.829815E-02  0.101844E-01  0.125433E-01  0.154274E-01  0.188713E-01
  0.228670E-01  0.273325E-01  0.320957E-01  0.369025E-01  0.414504E-01  0.454365E-01
  0.486079E-01  0.507931E-01  0.519023E-01  0.519023E-01  0.507931E-01  0.486079E-01
  0.454365E-01  0.414504E-01  0.369025E-01  0.320957E-01  0.264504E-01  0.223351E-01
  0.185901E-01  0.153069E-01  0.125131E-01  0.101942E-01  0.831421E-02  0.682557E-02
  0.567428E-02  0.480651E-02  0.417655E-02  0.375052E-02  0.350493E-02  0.342485E-02
  0.350493E-02  0.375052E-02  0.417655E-02  0.480651E-02  0.567428E-02  0.682557E-02
  0.831421E-02  0.101942E-01  0.125131E-01  0.153069E-01  0.185901E-01  0.223351E-01
  0.264504E-01  0.307694E-01  0.350597E-01  0.390504E-01  0.424704E-01  0.450852E-01
  0.467221E-01  0.472789E-01  0.467221E-01  0.450852E-01  0.424704E-01  0.390504E-01
  0.350597E-01  0.307694E-01  0.264504E-01  0.216945E-01  0.182371E-01  0.151483E-01
  0.124737E-01  0.102188E-01  0.836431E-02  0.687473E-02  0.570477E-02  0.480651E-02
  0.413745E-02  0.366477E-02  0.336450E-02  0.321928E-02  0.321928E-02  0.336450E-02
  0.366477E-02  0.413745E-02  0.480651E-02  0.570477E-02  0.687473E-02  0.836431E-02
  0.102188E-01  0.124737E-01  0.151483E-01  0.182371E-01  0.216945E-01  0.254203E-01
  0.292532E-01  0.329785E-01  0.363524E-01  0.391331E-01  0.411129E-01  0.421418E-01
  0.421418E-01  0.411129E-01  0.391331E-01  0.363524E-01  0.329785E-01  0.292532E-01
  0.254203E-01  0.216945E-01  0.178470E-01  0.149749E-01  0.124406E-01  0.102683E-01
  0.845454E-02  0.697635E-02  0.579763E-02  0.487716E-02  0.417655E-02  0.366477E-02
  0.331823E-02  0.311879E-02  0.305387E-02  0.311879E-02  0.331823E-02  0.366477E-02
  0.417655E-02  0.487716E-02  0.579763E-02  0.697635E-02  0.845454E-02  0.102683E-01
  0.124406E-01  0.149749E-01  0.178470E-01  0.209958E-01  0.243140E-01  0.276449E-01
  0.307916E-01  0.335376E-01  0.356751E-01  0.370327E-01  0.374983E-01  0.370327E-01
  0.356751E-01  0.335376E-01  0.307916E-01  0.276449E-01  0.243140E-01  0.209958E-01
  0.178470E-01  0.148127E-01  0.124328E-01  0.103566E-01  0.859524E-02  0.713765E-02
  0.595753E-02  0.502117E-02  0.429508E-02  0.375052E-02  0.336450E-02  0.311879E-02
  0.299975E-02  0.299975E-02  0.311879E-02  0.336450E-02  0.375052E-02  0.429508E-02
  0.502117E-02  0.595753E-02  0.713765E-02  0.859524E-02  0.103566E-01  0.124328E-01
  0.148127E-01  0.174570E-01  0.202918E-01  0.232048E-01  0.260454E-01  0.286355E-01
  0.307885E-01  0.323339E-01  0.331418E-01  0.331418E-01  0.323339E-01  0.307885E-01
  0.286355E-01  0.260454E-01  0.232048E-01  0.202918E-01  0.174570E-01  0.148127E-01
  0.124707E-01  0.104999E-01  0.879944E-02  0.736922E-02  0.619278E-02  0.524472E-02
  0.449734E-02  0.392483E-02  0.350493E-02  0.321928E-02  0.305387E-02  0.299975E-02
  0.305387E-02  0.321928E-02  0.350493E-02  0.392483E-02  0.449734E-02  0.524472E-02
  0.619278E-02  0.736922E-02  0.879944E-02  0.104999E-01  0.124707E-01  0.146890E-01
  0.171035E-01  0.196318E-01  0.221590E-01  0.245431E-01  0.266260E-01  0.282516E-01
  0.292871E-01  0.296428E-01  0.292871E-01  0.282516E-01  0.266260E-01  0.245431E-01
  0.221590E-01  0.196318E-01  0.171035E-01  0.146890E-01  0.124707E-01  0.107145E-01
  0.908068E-02  0.768303E-02  0.651433E-02  0.555763E-02  0.479170E-02  0.419451E-02
  0.374508E-02  0.342485E-02  0.321928E-02  0.311879E-02  0.311879E-02  0.321928E-02
  0.342485E-02  0.374508E-02  0.419451E-02  0.479170E-02  0.555763E-02  0.651433E-02
  0.768303E-02  0.908068E-02  0.107145E-01  0.125751E-01  0.146302E-01  0.168205E-01
  0.190581E-01  0.212293E-01  0.232023E-01  0.248396E-01  0.260143E-01  0.266284E-01
  0.266284E-01  0.260143E-01  0.248396E-01  0.232023E-01  0.212293E-01  0.190581E-01
  0.168205E-01  0.146302E-01  0.125751E-01  0.107145E-01  0.945202E-02  0.809089E-02
  0.693399E-02  0.597210E-02  0.519038E-02  0.457110E-02  0.409540E-02  0.374508E-02
  0.350493E-02  0.336450E-02  0.331823E-02  0.336450E-02  0.350493E-02  0.374508E-02
  0.409540E-02  0.457110E-02  0.519038E-02  0.597210E-02  0.693399E-02  0.809089E-02
  0.945202E-02  0.110163E-01  0.127660E-01  0.146613E-01  0.166370E-01  0.186032E-01
  0.204504E-01  0.220586E-01  0.233103E-01  0.241062E-01  0.243794E-01  0.241062E-01
  0.233103E-01  0.220586E-01  0.204504E-01  0.186032E-01  0.166370E-01  0.146613E-01
  0.127660E-01  0.110163E-01  0.945202E-02  0.860419E-02  0.746345E-02  0.650120E-02
  0.570792E-02  0.506994E-02  0.457110E-02  0.419451E-02  0.392483E-02  0.375052E-02
  0.366477E-02  0.366477E-02  0.375052E-02  0.392483E-02  0.419451E-02  0.457110E-02
  0.506994E-02  0.570792E-02  0.650120E-02  0.746345E-02  0.860419E-02  0.992596E-02
  0.114199E-01  0.130606E-01  0.148014E-01  0.165733E-01  0.182869E-01  0.198391E-01
  0.211233E-01  0.220422E-01  0.225217E-01  0.225217E-01  0.220422E-01  0.211233E-01
  0.198391E-01  0.182869E-01  0.165733E-01  0.148014E-01  0.130606E-01  0.114199E-01
  0.992596E-02  0.860419E-02  0.811422E-02  0.715777E-02  0.635920E-02  0.570792E-02
  0.519038E-02  0.479170E-02  0.449734E-02  0.429508E-02  0.417655E-02  0.413745E-02
  0.417655E-02  0.429508E-02  0.449734E-02  0.479170E-02  0.519038E-02  0.570792E-02
  0.635920E-02  0.715777E-02  0.811422E-02  0.923386E-02  0.105132E-01  0.119360E-01
  0.134690E-01  0.150598E-01  0.166370E-01  0.181140E-01  0.193962E-01  0.203918E-01
  0.210236E-01  0.212403E-01  0.210236E-01  0.203918E-01  0.193962E-01  0.181140E-01
  0.166370E-01  0.150598E-01  0.134690E-01  0.119360E-01  0.105132E-01  0.923386E-02
  0.811422E-02  0.795343E-02  0.715777E-02  0.650120E-02  0.597210E-02  0.555763E-02
  0.524472E-02  0.502117E-02  0.487716E-02  0.480651E-02  0.480651E-02  0.487716E-02
  0.502117E-02  0.524472E-02  0.555763E-02  0.597210E-02  0.650120E-02  0.715777E-02
  0.795343E-02  0.889648E-02  0.998833E-02  0.112196E-01  0.125668E-01  0.139899E-01
  0.154318E-01  0.168205E-01  0.180743E-01  0.191089E-01  0.198482E-01  0.202337E-01
  0.202337E-01  0.198482E-01  0.191089E-01  0.180743E-01  0.168205E-01  0.154318E-01
  0.139899E-01  0.125668E-01  0.112196E-01  0.998833E-02  0.889648E-02  0.795343E-02
  0.811422E-02  0.746345E-02  0.693399E-02  0.651433E-02  0.619278E-02  0.595753E-02
  0.579763E-02  0.570477E-02  0.567428E-02  0.570477E-02  0.579763E-02  0.595753E-02
  0.619278E-02  0.651433E-02  0.693399E-02  0.746345E-02  0.811422E-02  0.889648E-02
  0.981594E-02  0.108697E-01  0.120424E-01  0.133044E-01  0.146102E-01  0.159000E-01
  0.171035E-01  0.181454E-01  0.189531E-01  0.194655E-01  0.196412E-01  0.194655E-01
  0.189531E-01  0.181454E-01  0.171035E-01  0.159000E-01  0.146102E-01  0.133044E-01
  0.120424E-01  0.108697E-01  0.981594E-02  0.889648E-02  0.811422E-02  0.860419E-02
  0.809089E-02  0.768303E-02  0.736922E-02  0.713765E-02  0.697635E-02  0.687473E-02
  0.682557E-02  0.682557E-02  0.687473E-02  0.697635E-02  0.713765E-02  0.736922E-02
  0.768303E-02  0.809089E-02  0.860419E-02  0.923386E-02  0.998833E-02  0.108697E-01
  0.118698E-01  0.129681E-01  0.141299E-01  0.153064E-01  0.164378E-01  0.174570E-01
  0.182967E-01  0.188963E-01  0.192089E-01  0.192089E-01  0.188963E-01  0.182967E-01
  0.174570E-01  0.164378E-01  0.153064E-01  0.141299E-01  0.129681E-01  0.118698E-01
  0.108697E-01  0.998833E-02  0.923386E-02  0.860419E-02  0.945202E-02  0.908068E-02
  0.879944E-02  0.859524E-02  0.845454E-02  0.836431E-02  0.831421E-02  0.829815E-02
  0.831421E-02  0.836431E-02  0.845454E-02  0.859524E-02  0.879944E-02  0.908068E-02
  0.945202E-02  0.992596E-02  0.105132E-01  0.112196E-01  0.120424E-01  0.129681E-01
  0.139713E-01  0.150140E-01  0.160469E-01  0.170118E-01  0.178470E-01  0.184939E-01
  0.189039E-01  0.190444E-01  0.189039E-01  0.184939E-01  0.178470E-01  0.170118E-01
  0.160469E-01  0.150140E-01  0.139713E-01  0.129681E-01  0.120424E-01  0.112196E-01
  0.105132E-01  0.992596E-02  0.945202E-02  0.107145E-01  0.104999E-01  0.103566E-01
  0.102683E-01  0.102188E-01  0.101942E-01  0.101844E-01  0.101844E-01  0.101942E-01
  0.102188E-01  0.102683E-01  0.103566E-01  0.104999E-01  0.107145E-01  0.110163E-01
  0.114199E-01  0.119360E-01  0.125668E-01  0.133044E-01  0.141299E-01  0.150140E-01
  0.159177E-01  0.167925E-01  0.175840E-01  0.182371E-01  0.187029E-01  0.189454E-01
  0.189454E-01  0.187029E-01  0.182371E-01  0.175840E-01  0.167925E-01  0.159177E-01
  0.150140E-01  0.141299E-01  0.133044E-01  0.125668E-01  0.119360E-01  0.114199E-01
  0.110163E-01  0.107145E-01  0.124707E-01  0.124328E-01  0.124406E-01  0.124737E-01
  0.125131E-01  0.125433E-01  0.125545E-01  0.125433E-01  0.125131E-01  0.124737E-01
  0.124406E-01  0.124328E-01  0.124707E-01  0.125751E-01  0.127660E-01  0.130606E-01
  0.134690E-01  0.139899E-01  0.146102E-01  0.153064E-01  0.160469E-01  0.167925E-01
  0.174974E-01  0.181123E-01  0.185901E-01  0.188928E-01  0.189963E-01  0.188928E-01
  0.185901E-01  0.181123E-01  0.174974E-01  0.167925E-01  0.160469E-01  0.153064E-01
  0.146102E-01  0.139899E-01  0.134690E-01  0.130606E-01  0.127660E-01  0.125751E-01
  0.124707E-01  0.148127E-01  0.149749E-01  0.151483E-01  0.153069E-01  0.154274E-01
  0.154922E-01  0.154922E-01  0.154274E-01  0.153069E-01  0.151483E-01  0.149749E-01
  0.148127E-01  0.146890E-01  0.146302E-01  0.146613E-01  0.148014E-01  0.150598E-01
  0.154318E-01  0.159000E-01  0.164378E-01  0.170118E-01  0.175840E-01  0.181123E-01
  0.185540E-01  0.188713E-01  0.190369E-01  0.190369E-01  0.188713E-01  0.185540E-01
  0.181123E-01  0.175840E-01  0.170118E-01  0.164378E-01  0.159000E-01  0.154318E-01
  0.150598E-01  0.148014E-01  0.146613E-01  0.146302E-01  0.146890E-01  0.148127E-01
  0.178470E-01  0.182371E-01  0.185901E-01  0.188713E-01  0.190524E-01  0.191149E-01
  0.190524E-01  0.188713E-01  0.185901E-01  0.182371E-01  0.178470E-01  0.174570E-01
  0.171035E-01  0.168205E-01  0.166370E-01  0.165733E-01  0.166370E-01  0.168205E-01
  0.171035E-01  0.174570E-01  0.178470E-01  0.182371E-01  0.185901E-01  0.188713E-01
  0.190524E-01  0.191149E-01  0.190524E-01  0.188713E-01  0.185901E-01  0.182371E-01
  0.178470E-01  0.174570E-01  0.171035E-01  0.168205E-01  0.166370E-01  0.165733E-01
  0.166370E-01  0.168205E-01  0.171035E-01  0.174570E-01  0.178470E-01  0.216945E-01
  0.223351E-01  0.228670E-01  0.232470E-01  0.234449E-01  0.234449E-01  0.232470E-01
  0.228670E-01  0.223351E-01  0.216945E-01  0.209958E-01  0.202918E-01  0.196318E-01
  0.190581E-01  0.186032E-01  0.182869E-01  0.181140E-01  0.180743E-01  0.181454E-01
  0.182967E-01  0.184939E-01  0.187029E-01  0.188928E-01  0.190369E-01  0.191149E-01
  0.191149E-01  0.190369E-01  0.188928E-01  0.187029E-01  0.184939E-01  0.182967E-01
  0.181454E-01  0.180743E-01  0.181140E-01  0.182869E-01  0.186032E-01  0.190581E-01
  0.196318E-01  0.202918E-01  0.209958E-01  0.216945E-01  0.264504E-01  0.273325E-01
  0.280059E-01  0.284268E-01  0.285698E-01  0.284268E-01  0.280059E-01  0.273325E-01
  0.264504E-01  0.254203E-01  0.243140E-01  0.232048E-01  0.221590E-01  0.212293E-01
  0.204504E-01  0.198391E-01  0.193962E-01  0.191089E-01  0.189531E-01  0.188963E-01
  0.189039E-01  0.189454E-01  0.189963E-01  0.190369E-01  0.190524E-01  0.190369E-01
  0.189963E-01  0.189454E-01  0.189039E-01  0.188963E-01  0.189531E-01  0.191089E-01
  0.193962E-01  0.198391E-01  0.204504E-01  0.212293E-01  0.221590E-01  0.232048E-01
  0.243140E-01  0.254203E-01  0.264504E-01  0.320957E-01  0.331509E-01  0.338790E-01
  0.342493E-01  0.342493E-01  0.338790E-01  0.331509E-01  0.320957E-01  0.307694E-01
  0.292532E-01  0.276449E-01  0.260454E-01  0.245431E-01  0.232023E-01  0.220586E-01
  0.211233E-01  0.203918E-01  0.198482E-01  0.194655E-01  0.192089E-01  0.190444E-01
  0.189454E-01  0.188928E-01  0.188713E-01  0.188713E-01  0.188928E-01  0.189454E-01
  0.190444E-01  0.192089E-01  0.194655E-01  0.198482E-01  0.203918E-01  0.211233E-01
  0.220586E-01  0.232023E-01  0.245431E-01  0.260454E-01  0.276449E-01  0.292532E-01
  0.307694E-01  0.320957E-01  0.384012E-01  0.394901E-01  0.401437E-01  0.403607E-01
  0.401437E-01  0.394901E-01  0.384012E-01  0.369025E-01  0.350597E-01  0.329785E-01
  0.307916E-01  0.286355E-01  0.266260E-01  0.248396E-01  0.233103E-01  0.220422E-01
  0.210236E-01  0.202337E-01  0.196412E-01  0.192089E-01  0.189039E-01  0.187029E-01
  0.185901E-01  0.185540E-01  0.185901E-01  0.187029E-01  0.189039E-01  0.192089E-01
  0.196412E-01  0.202337E-01  0.210236E-01  0.220422E-01  0.233103E-01  0.248396E-01
  0.266260E-01  0.286355E-01  0.307916E-01  0.329785E-01  0.350597E-01  0.369025E-01
  0.384012E-01  0.448526E-01  0.457740E-01  0.462150E-01  0.462150E-01  0.457740E-01
  0.448526E-01  0.434099E-01  0.414504E-01  0.390504E-01  0.363524E-01  0.335376E-01
  0.307885E-01  0.282516E-01  0.260143E-01  0.241062E-01  0.225217E-01  0.212403E-01
  0.202337E-01  0.194655E-01  0.188963E-01  0.184939E-01  0.182371E-01  0.181123E-01
  0.181123E-01  0.182371E-01  0.184939E-01  0.188963E-01  0.194655E-01  0.202337E-01
  0.212403E-01  0.225217E-01  0.241062E-01  0.260143E-01  0.282516E-01  0.307885E-01
  0.335376E-01  0.363524E-01  0.390504E-01  0.414504E-01  0.434099E-01  0.448526E-01
  0.506011E-01  0.511406E-01  0.513000E-01  0.511406E-01  0.506011E-01  0.495394E-01
  0.478271E-01  0.454365E-01  0.424704E-01  0.391331E-01  0.356751E-01  0.323339E-01
  0.292871E-01  0.266284E-01  0.243794E-01  0.225217E-01  0.210236E-01  0.198482E-01
  0.189531E-01  0.182967E-01  0.178470E-01  0.175840E-01  0.174974E-01  0.175840E-01
  0.178470E-01  0.182967E-01  0.189531E-01  0.198482E-01  0.210236E-01  0.225217E-01
  0.243794E-01  0.266284E-01  0.292871E-01  0.323339E-01  0.356751E-01  0.391331E-01
  0.424704E-01  0.454365E-01  0.478271E-01  0.495394E-01  0.506011E-01  0.545318E-01
  0.545897E-01  0.545897E-01  0.545318E-01  0.541857E-01  0.532184E-01  0.513753E-01
  0.486079E-01  0.450852E-01  0.411129E-01  0.370327E-01  0.331418E-01  0.296428E-01
  0.266284E-01  0.241062E-01  0.220422E-01  0.203918E-01  0.191089E-01  0.181454E-01
  0.174570E-01  0.170118E-01  0.167925E-01  0.167925E-01  0.170118E-01  0.174570E-01
  0.181454E-01  0.191089E-01  0.203918E-01  0.220422E-01  0.241062E-01  0.266284E-01
  0.296428E-01  0.331418E-01  0.370327E-01  0.411129E-01  0.450852E-01  0.486079E-01
  0.513753E-01  0.532184E-01  0.541857E-01  0.545318E-01  0.556429E-01  0.554089E-01
  0.556429E-01  0.561397E-01  0.563767E-01  0.557599E-01  0.539051E-01  0.507931E-01
  0.467221E-01  0.421418E-01  0.374983E-01  0.331418E-01  0.292871E-01  0.260143E-01
  0.233103E-01  0.211233E-01  0.193962E-01  0.180743E-01  0.171035E-01  0.164378E-01
  0.160469E-01  0.159177E-01  0.160469E-01  0.164378E-01  0.171035E-01  0.180743E-01
  0.193962E-01  0.211233E-01  0.233103E-01  0.260143E-01  0.292871E-01  0.331418E-01
  0.374983E-01  0.421418E-01  0.467221E-01  0.507931E-01  0.539051E-01  0.557599E-01
  0.563767E-01  0.561397E-01  0.556429E-01  0.536934E-01  0.536934E-01  0.547312E-01
  0.562621E-01  0.573932E-01  0.572566E-01  0.553937E-01  0.519023E-01  0.472789E-01
  0.421418E-01  0.370327E-01  0.323339E-01  0.282516E-01  0.248396E-01  0.220586E-01
  0.198391E-01  0.181140E-01  0.168205E-01  0.159000E-01  0.153064E-01  0.150140E-01
  0.150140E-01  0.153064E-01  0.159000E-01  0.168205E-01  0.181140E-01  0.198391E-01
  0.220586E-01  0.248396E-01  0.282516E-01  0.323339E-01  0.370327E-01  0.421418E-01
  0.472789E-01  0.519023E-01  0.553937E-01  0.572566E-01  0.573932E-01  0.562621E-01
  0.547312E-01  0.536934E-01  0.495863E-01  0.504743E-01  0.528033E-01  0.556342E-01
  0.577003E-01  0.579216E-01  0.558816E-01  0.519023E-01  0.467221E-01  0.411129E-01
  0.356751E-01  0.307885E-01  0.266260E-01  0.232023E-01  0.204504E-01  0.182869E-01
  0.166370E-01  0.154318E-01  0.146102E-01  0.141299E-01  0.139713E-01  0.141299E-01
  0.146102E-01  0.154318E-01  0.166370E-01  0.182869E-01  0.204504E-01  0.232023E-01
  0.266260E-01  0.307885E-01  0.356751E-01  0.411129E-01  0.467221E-01  0.519023E-01
  0.558816E-01  0.579216E-01  0.577003E-01  0.556342E-01  0.528033E-01  0.504743E-01
  0.495863E-01  0.450034E-01  0.472457E-01  0.510403E-01  0.550659E-01  0.577427E-01
  0.579216E-01  0.553937E-01  0.507931E-01  0.450852E-01  0.391331E-01  0.335376E-01
  0.286355E-01  0.245431E-01  0.212293E-01  0.186032E-01  0.165733E-01  0.150598E-01
  0.139899E-01  0.133044E-01  0.129681E-01  0.129681E-01  0.133044E-01  0.139899E-01
  0.150598E-01  0.165733E-01  0.186032E-01  0.212293E-01  0.245431E-01  0.286355E-01
  0.335376E-01  0.391331E-01  0.450852E-01  0.507931E-01  0.553937E-01  0.579216E-01
  0.577427E-01  0.550659E-01  0.510403E-01  0.472457E-01  0.450034E-01  0.450034E-01
  0.415779E-01  0.452903E-01  0.503439E-01  0.550659E-01  0.577003E-01  0.572566E-01
  0.539051E-01  0.486079E-01  0.424704E-01  0.363524E-01  0.307916E-01  0.260454E-01
  0.221590E-01  0.190581E-01  0.166370E-01  0.148014E-01  0.134690E-01  0.125668E-01
  0.120424E-01  0.118698E-01  0.120424E-01  0.125668E-01  0.134690E-01  0.148014E-01
  0.166370E-01  0.190581E-01  0.221590E-01  0.260454E-01  0.307916E-01  0.363524E-01
  0.424704E-01  0.486079E-01  0.539051E-01  0.572566E-01  0.577003E-01  0.550659E-01
  0.503439E-01  0.452903E-01  0.415779E-01  0.402336E-01  0.415779E-01  0.403287E-01
  0.452903E-01  0.510403E-01  0.556342E-01  0.573932E-01  0.557599E-01  0.513753E-01
  0.454365E-01  0.390504E-01  0.329785E-01  0.276449E-01  0.232048E-01  0.196318E-01
  0.168205E-01  0.146613E-01  0.130606E-01  0.119360E-01  0.112196E-01  0.108697E-01
  0.108697E-01  0.112196E-01  0.119360E-01  0.130606E-01  0.146613E-01  0.168205E-01
  0.196318E-01  0.232048E-01  0.276449E-01  0.329785E-01  0.390504E-01  0.454365E-01
  0.513753E-01  0.557599E-01  0.573932E-01  0.556342E-01  0.510403E-01  0.452903E-01
  0.403287E-01  0.375396E-01  0.375396E-01  0.403287E-01  0.415779E-01  0.472457E-01
  0.528033E-01  0.562621E-01  0.563767E-01  0.532184E-01  0.478271E-01  0.414504E-01
  0.350597E-01  0.292532E-01  0.243140E-01  0.202918E-01  0.171035E-01  0.146302E-01
  0.127660E-01  0.114199E-01  0.105132E-01  0.998833E-02  0.981594E-02  0.998833E-02
  0.105132E-01  0.114199E-01  0.127660E-01  0.146302E-01  0.171035E-01  0.202918E-01
  0.243140E-01  0.292532E-01  0.350597E-01  0.414504E-01  0.478271E-01  0.532184E-01
  0.563767E-01  0.562621E-01  0.528033E-01  0.472457E-01  0.415779E-01  0.375396E-01
  0.361006E-01  0.375396E-01  0.415779E-01  0.450034E-01  0.504743E-01  0.547312E-01
  0.561397E-01  0.541857E-01  0.495394E-01  0.434099E-01  0.369025E-01  0.307694E-01
  0.254203E-01  0.209958E-01  0.174570E-01  0.146890E-01  0.125751E-01  0.110163E-01
  0.992596E-02  0.923386E-02  0.889648E-02  0.889648E-02  0.923386E-02  0.992596E-02
  0.110163E-01  0.125751E-01  0.146890E-01  0.174570E-01  0.209958E-01  0.254203E-01
  0.307694E-01  0.369025E-01  0.434099E-01  0.495394E-01  0.541857E-01  0.561397E-01
  0.547312E-01  0.504743E-01  0.450034E-01  0.402336E-01  0.375396E-01  0.375396E-01
  0.402336E-01  0.450034E-01  0.495863E-01  0.536934E-01  0.556429E-01  0.545318E-01
  0.506011E-01  0.448526E-01  0.384012E-01  0.320957E-01  0.264504E-01  0.216945E-01
  0.178470E-01  0.148127E-01  0.124707E-01  0.107145E-01  0.945202E-02  0.860419E-02
  0.811422E-02  0.795343E-02  0.811422E-02  0.860419E-02  0.945202E-02  0.107145E-01
  0.124707E-01  0.148127E-01  0.178470E-01  0.216945E-01  0.264504E-01  0.320957E-01
  0.384012E-01  0.448526E-01  0.506011E-01  0.545318E-01  0.556429E-01  0.536934E-01
  0.495863E-01  0.450034E-01  0.415779E-01  0.403287E-01  0.415779E-01  0.450034E-01
  0.495863E-01  0.588714E-01  0.583896E-01  0.557180E-01  0.510155E-01  0.449788E-01
  0.384425E-01  0.320957E-01  0.263889E-01  0.215410E-01  0.175840E-01  0.144373E-01
  0.119857E-01  0.101223E-01  0.875431E-02  0.779965E-02  0.719398E-02  0.689880E-02
  0.689880E-02  0.719398E-02  0.779965E-02  0.875431E-02  0.101223E-01  0.119857E-01
  0.144373E-01  0.175840E-01  0.215410E-01  0.263889E-01  0.320957E-01  0.384425E-01
  0.449788E-01  0.510155E-01  0.557180E-01  0.583896E-01  0.588714E-01  0.577399E-01
  0.560688E-01  0.549204E-01  0.549204E-01  0.560688E-01  0.577399E-01  0.588714E-01
  0.583896E-01  0.559102E-01  0.515706E-01  0.458587E-01  0.394975E-01  0.331601E-01
  0.273325E-01  0.222884E-01  0.181123E-01  0.147570E-01  0.121178E-01  0.100874E-01
  0.857080E-02  0.748316E-02  0.675291E-02  0.633084E-02  0.619237E-02  0.633084E-02
  0.675291E-02  0.748316E-02  0.857080E-02  0.100874E-01  0.121178E-01  0.147570E-01
  0.181123E-01  0.222884E-01  0.273325E-01  0.331601E-01  0.394975E-01  0.458587E-01
  0.515706E-01  0.559102E-01  0.583896E-01  0.590528E-01  0.585206E-01  0.576945E-01
  0.573242E-01  0.576945E-01  0.585206E-01  0.590528E-01  0.583896E-01  0.557180E-01
  0.515706E-01  0.461493E-01  0.400311E-01  0.338203E-01  0.279978E-01  0.228670E-01
  0.185540E-01  0.150472E-01  0.122607E-01  0.100922E-01  0.844791E-02  0.724288E-02
  0.640224E-02  0.586892E-02  0.560915E-02  0.560915E-02  0.586892E-02  0.640224E-02
  0.724288E-02  0.844791E-02  0.100922E-01  0.122607E-01  0.150472E-01  0.185540E-01
  0.228670E-01  0.279978E-01  0.338203E-01  0.400311E-01  0.461493E-01  0.515706E-01
  0.557180E-01  0.582785E-01  0.593826E-01  0.595544E-01  0.594306E-01  0.594306E-01
  0.595544E-01  0.593826E-01  0.582785E-01  0.557180E-01  0.510155E-01  0.458587E-01
  0.400311E-01  0.340437E-01  0.283411E-01  0.232322E-01  0.188713E-01  0.152786E-01
  0.123915E-01  0.101191E-01  0.837211E-02  0.706820E-02  0.613237E-02  0.550322E-02
  0.513959E-02  0.502040E-02  0.513959E-02  0.550322E-02  0.613237E-02  0.706820E-02
  0.837211E-02  0.101191E-01  0.123915E-01  0.152786E-01  0.188713E-01  0.232322E-01
  0.283411E-01  0.340437E-01  0.400311E-01  0.458587E-01  0.510155E-01  0.550604E-01
  0.577883E-01  0.593150E-01  0.599877E-01  0.601627E-01  0.599877E-01  0.593150E-01
  0.577883E-01  0.550604E-01  0.510155E-01  0.449788E-01  0.394975E-01  0.338203E-01
  0.283411E-01  0.233570E-01  0.190369E-01  0.154274E-01  0.124904E-01  0.101512E-01
  0.832931E-02  0.694743E-02  0.593285E-02  0.522294E-02  0.477193E-02  0.455246E-02
  0.455246E-02  0.477193E-02  0.522294E-02  0.593285E-02  0.694743E-02  0.832931E-02
  0.101512E-01  0.124904E-01  0.154274E-01  0.190369E-01  0.233570E-01  0.283411E-01
  0.338203E-01  0.394975E-01  0.449788E-01  0.498431E-01  0.537481E-01  0.565307E-01
  0.582328E-01  0.590161E-01  0.590161E-01  0.582328E-01  0.565307E-01  0.537481E-01
  0.498431E-01  0.449788E-01  0.384425E-01  0.331601E-01  0.279978E-01  0.232322E-01
  0.190369E-01  0.154786E-01  0.125433E-01  0.101755E-01  0.830734E-02  0.686938E-02
  0.579324E-02  0.501737E-02  0.449404E-02  0.419164E-02  0.409270E-02  0.419164E-02
  0.449404E-02  0.501737E-02  0.579324E-02  0.686938E-02  0.830734E-02  0.101755E-01
  0.125433E-01  0.154786E-01  0.190369E-01  0.232322E-01  0.279978E-01  0.331601E-01
  0.384425E-01  0.435011E-01  0.479848E-01  0.516094E-01  0.542123E-01  0.557541E-01
  0.562615E-01  0.557541E-01  0.542123E-01  0.516094E-01  0.479848E-01  0.435011E-01
  0.384425E-01  0.320957E-01  0.273325E-01  0.228670E-01  0.188713E-01  0.154274E-01
  0.125433E-01  0.101844E-01  0.829815E-02  0.682557E-02  0.570477E-02  0.487716E-02
  0.429508E-02  0.392483E-02  0.374508E-02  0.374508E-02  0.392483E-02  0.429508E-02
  0.487716E-02  0.570477E-02  0.682557E-02  0.829815E-02  0.101844E-01  0.125433E-01
  0.154274E-01  0.188713E-01  0.228670E-01  0.273325E-01  0.320957E-01  0.369025E-01
  0.414504E-01  0.454365E-01  0.486079E-01  0.507931E-01  0.519023E-01  0.519023E-01
  0.507931E-01  0.486079E-01  0.454365E-01  0.414504E-01  0.369025E-01  0.320957E-01
  0.263889E-01  0.222884E-01  0.185540E-01  0.152786E-01  0.124904E-01  0.101755E-01
  0.829815E-02  0.681141E-02  0.566177E-02  0.479552E-02  0.416675E-02  0.374139E-02
  0.349603E-02  0.341598E-02  0.349603E-02  0.374139E-02  0.416675E-02  0.479552E-02
  0.566177E-02  0.681141E-02  0.829815E-02  0.101755E-01  0.124904E-01  0.152786E-01
  0.185540E-01  0.222884E-01  0.263889E-01  0.306875E-01  0.349512E-01  0.389104E-01
  0.422971E-01  0.448819E-01  0.464977E-01  0.470469E-01  0.464977E-01  0.448819E-01
  0.422971E-01  0.389104E-01  0.349512E-01  0.306875E-01  0.263889E-01  0.215410E-01
  0.181123E-01  0.150472E-01  0.123915E-01  0.101512E-01  0.830734E-02  0.682557E-02
  0.566177E-02  0.476869E-02  0.410378E-02  0.363398E-02  0.333527E-02  0.319066E-02
  0.319066E-02  0.333527E-02  0.363398E-02  0.410378E-02  0.476869E-02  0.566177E-02
  0.682557E-02  0.830734E-02  0.101512E-01  0.123915E-01  0.150472E-01  0.181123E-01
  0.215410E-01  0.252319E-01  0.290231E-01  0.327008E-01  0.360244E-01  0.387577E-01
  0.407002E-01  0.417085E-01  0.417085E-01  0.407002E-01  0.387577E-01  0.360244E-01
  0.327008E-01  0.290231E-01  0.252319E-01  0.215410E-01  0.175840E-01  0.147570E-01
  0.122607E-01  0.101191E-01  0.832931E-02  0.686938E-02  0.570477E-02  0.479552E-02
  0.410378E-02  0.359859E-02  0.325636E-02  0.305923E-02  0.299501E-02  0.305923E-02
  0.325636E-02  0.359859E-02  0.410378E-02  0.479552E-02  0.570477E-02  0.686938E-02
  0.832931E-02  0.101191E-01  0.122607E-01  0.147570E-01  0.175840E-01  0.206810E-01
  0.239410E-01  0.272087E-01  0.302900E-01  0.329736E-01  0.350585E-01  0.363807E-01
  0.368338E-01  0.363807E-01  0.350585E-01  0.329736E-01  0.302900E-01  0.272087E-01
  0.239410E-01  0.206810E-01  0.175840E-01  0.144373E-01  0.121178E-01  0.100922E-01
  0.837211E-02  0.694743E-02  0.579324E-02  0.487716E-02  0.416675E-02  0.363398E-02
  0.325636E-02  0.301601E-02  0.289958E-02  0.289958E-02  0.301601E-02  0.325636E-02
  0.363398E-02  0.416675E-02  0.487716E-02  0.579324E-02  0.694743E-02  0.837211E-02
  0.100922E-01  0.121178E-01  0.144373E-01  0.170118E-01  0.197689E-01  0.225987E-01
  0.253543E-01  0.278629E-01  0.299446E-01  0.314366E-01  0.322157E-01  0.322157E-01
  0.314366E-01  0.299446E-01  0.278629E-01  0.253543E-01  0.225987E-01  0.197689E-01
  0.170118E-01  0.144373E-01  0.119857E-01  0.100874E-01  0.844791E-02  0.706820E-02
  0.593285E-02  0.501737E-02  0.429508E-02  0.374139E-02  0.333527E-02  0.305923E-02
  0.289958E-02  0.284741E-02  0.289958E-02  0.305923E-02  0.333527E-02  0.374139E-02
  0.429508E-02  0.501737E-02  0.593285E-02  0.706820E-02  0.844791E-02  0.100874E-01
  0.119857E-01  0.141192E-01  0.164378E-01  0.188616E-01  0.212807E-01  0.235593E-01
  0.255469E-01  0.270961E-01  0.280818E-01  0.284202E-01  0.280818E-01  0.270961E-01
  0.255469E-01  0.235593E-01  0.212807E-01  0.188616E-01  0.164378E-01  0.141192E-01
  0.119857E-01  0.101223E-01  0.857080E-02  0.724288E-02  0.613237E-02  0.522294E-02
  0.449404E-02  0.392483E-02  0.349603E-02  0.319066E-02  0.299501E-02  0.289958E-02
  0.289958E-02  0.299501E-02  0.319066E-02  0.349603E-02  0.392483E-02  0.449404E-02
  0.522294E-02  0.613237E-02  0.724288E-02  0.857080E-02  0.101223E-01  0.118868E-01
  0.138319E-01  0.159000E-01  0.180079E-01  0.200490E-01  0.219006E-01  0.234348E-01
  0.245344E-01  0.251089E-01  0.251089E-01  0.245344E-01  0.234348E-01  0.219006E-01
  0.200490E-01  0.180079E-01  0.159000E-01  0.138319E-01  0.118868E-01  0.101223E-01
  0.875431E-02  0.748316E-02  0.640224E-02  0.550322E-02  0.477193E-02  0.419164E-02
  0.374508E-02  0.341598E-02  0.319066E-02  0.305923E-02  0.301601E-02  0.305923E-02
  0.319066E-02  0.341598E-02  0.374508E-02  0.419164E-02  0.477193E-02  0.550322E-02
  0.640224E-02  0.748316E-02  0.875431E-02  0.102135E-01  0.118424E-01  0.136023E-01
  0.154318E-01  0.172475E-01  0.189493E-01  0.204283E-01  0.215780E-01  0.223085E-01
  0.225592E-01  0.223085E-01  0.215780E-01  0.204283E-01  0.189493E-01  0.172475E-01
  0.154318E-01  0.136023E-01  0.118424E-01  0.102135E-01  0.875431E-02  0.779965E-02
  0.675291E-02  0.586892E-02  0.513959E-02  0.455246E-02  0.409270E-02  0.374508E-02
  0.349603E-02  0.333527E-02  0.325636E-02  0.325636E-02  0.333527E-02  0.349603E-02
  0.374508E-02  0.409270E-02  0.455246E-02  0.513959E-02  0.586892E-02  0.675291E-02
  0.779965E-02  0.901037E-02  0.103757E-01  0.118711E-01  0.134535E-01  0.150598E-01
  0.166093E-01  0.180100E-01  0.191670E-01  0.199941E-01  0.204255E-01  0.204255E-01
  0.199941E-01  0.191670E-01  0.180100E-01  0.166093E-01  0.150598E-01  0.134535E-01
  0.118711E-01  0.103757E-01  0.901037E-02  0.779965E-02  0.719398E-02  0.633084E-02
  0.560915E-02  0.502040E-02  0.455246E-02  0.419164E-02  0.392483E-02  0.374139E-02
  0.363398E-02  0.359859E-02  0.363398E-02  0.374139E-02  0.392483E-02  0.419164E-02
  0.455246E-02  0.502040E-02  0.560915E-02  0.633084E-02  0.719398E-02  0.820161E-02
  0.934907E-02  0.106209E-01  0.119873E-01  0.134019E-01  0.148014E-01  0.161097E-01
  0.172436E-01  0.181228E-01  0.186802E-01  0.188712E-01  0.186802E-01  0.181228E-01
  0.172436E-01  0.161097E-01  0.148014E-01  0.134019E-01  0.119873E-01  0.106209E-01
  0.934907E-02  0.820161E-02  0.719398E-02  0.689880E-02  0.619237E-02  0.560915E-02
  0.513959E-02  0.477193E-02  0.449404E-02  0.429508E-02  0.416675E-02  0.410378E-02
  0.410378E-02  0.416675E-02  0.429508E-02  0.449404E-02  0.477193E-02  0.513959E-02
  0.560915E-02  0.619237E-02  0.689880E-02  0.773381E-02  0.869654E-02  0.977755E-02
  0.109561E-01  0.121978E-01  0.134535E-01  0.146613E-01  0.157502E-01  0.166476E-01
  0.172879E-01  0.176214E-01  0.176214E-01  0.172879E-01  0.166476E-01  0.157502E-01
  0.146613E-01  0.134535E-01  0.121978E-01  0.109561E-01  0.977755E-02  0.869654E-02
  0.773381E-02  0.689880E-02  0.689880E-02  0.633084E-02  0.586892E-02  0.550322E-02
  0.522294E-02  0.501737E-02  0.487716E-02  0.479552E-02  0.476869E-02  0.479552E-02
  0.487716E-02  0.501737E-02  0.522294E-02  0.550322E-02  0.586892E-02  0.633084E-02
  0.689880E-02  0.758025E-02  0.837818E-02  0.928862E-02  0.102980E-01  0.113810E-01
  0.124993E-01  0.136023E-01  0.146302E-01  0.155190E-01  0.162071E-01  0.166430E-01
  0.167923E-01  0.166430E-01  0.162071E-01  0.155190E-01  0.146302E-01  0.136023E-01
  0.124993E-01  0.113810E-01  0.102980E-01  0.928862E-02  0.837818E-02  0.758025E-02
  0.689880E-02  0.719398E-02  0.675291E-02  0.640224E-02  0.613237E-02  0.593285E-02
  0.579324E-02  0.570477E-02  0.566177E-02  0.566177E-02  0.570477E-02  0.579324E-02
  0.593285E-02  0.613237E-02  0.640224E-02  0.675291E-02  0.719398E-02  0.773381E-02
  0.837818E-02  0.912794E-02  0.997613E-02  0.109055E-01  0.118869E-01  0.128792E-01
  0.138319E-01  0.146890E-01  0.153943E-01  0.158974E-01  0.161595E-01  0.161595E-01
  0.158974E-01  0.153943E-01  0.146890E-01  0.138319E-01  0.128792E-01  0.118869E-01
  0.109055E-01  0.997613E-02  0.912794E-02  0.837818E-02  0.773381E-02  0.719398E-02
  0.779965E-02  0.748316E-02  0.724288E-02  0.706820E-02  0.694743E-02  0.686938E-02
  0.682557E-02  0.681141E-02  0.682557E-02  0.686938E-02  0.694743E-02  0.706820E-02
  0.724288E-02  0.748316E-02  0.779965E-02  0.820161E-02  0.869654E-02  0.928862E-02
  0.997613E-02  0.107489E-01  0.115863E-01  0.124563E-01  0.133168E-01  0.141192E-01
  0.148127E-01  0.153496E-01  0.156899E-01  0.158065E-01  0.156899E-01  0.153496E-01
  0.148127E-01  0.141192E-01  0.133168E-01  0.124563E-01  0.115863E-01  0.107489E-01
  0.997613E-02  0.928862E-02  0.869654E-02  0.820161E-02  0.779965E-02  0.875431E-02
  0.857080E-02  0.844791E-02  0.837211E-02  0.832931E-02  0.830734E-02  0.829815E-02
  0.829815E-02  0.830734E-02  0.832931E-02  0.837211E-02  0.844791E-02  0.857080E-02
  0.875431E-02  0.901037E-02  0.934907E-02  0.977755E-02  0.102980E-01  0.109055E-01
  0.115863E-01  0.123167E-01  0.130634E-01  0.137853E-01  0.144373E-01  0.149749E-01
  0.153585E-01  0.155583E-01  0.155583E-01  0.153585E-01  0.149749E-01  0.144373E-01
  0.137853E-01  0.130634E-01  0.123167E-01  0.115863E-01  0.109055E-01  0.102980E-01
  0.977755E-02  0.934907E-02  0.901037E-02  0.875431E-02  0.101223E-01  0.100874E-01
  0.100922E-01  0.101191E-01  0.101512E-01  0.101755E-01  0.101844E-01  0.101755E-01
  0.101512E-01  0.101191E-01  0.100922E-01  0.100874E-01  0.101223E-01  0.102135E-01
  0.103757E-01  0.106209E-01  0.109561E-01  0.113810E-01  0.118869E-01  0.124563E-01
  0.130634E-01  0.136752E-01  0.142532E-01  0.147570E-01  0.151483E-01  0.153965E-01
  0.154815E-01  0.153965E-01  0.151483E-01  0.147570E-01  0.142532E-01  0.136752E-01
  0.130634E-01  0.124563E-01  0.118869E-01  0.113810E-01  0.109561E-01  0.106209E-01
  0.103757E-01  0.102135E-01  0.101223E-01  0.119857E-01  0.121178E-01  0.122607E-01
  0.123915E-01  0.124904E-01  0.125433E-01  0.125433E-01  0.124904E-01  0.123915E-01
  0.122607E-01  0.121178E-01  0.119857E-01  0.118868E-01  0.118424E-01  0.118711E-01
  0.119873E-01  0.121978E-01  0.124993E-01  0.128792E-01  0.133168E-01  0.137853E-01
  0.142532E-01  0.146856E-01  0.150472E-01  0.153069E-01  0.154425E-01  0.154425E-01
  0.153069E-01  0.150472E-01  0.146856E-01  0.142532E-01  0.137853E-01  0.133168E-01
  0.128792E-01  0.124993E-01  0.121978E-01  0.119873E-01  0.118711E-01  0.118424E-01
  0.118868E-01  0.119857E-01  0.144373E-01  0.147570E-01  0.150472E-01  0.152786E-01
  0.154274E-01  0.154786E-01  0.154274E-01  0.152786E-01  0.150472E-01  0.147570E-01
  0.144373E-01  0.141192E-01  0.138319E-01  0.136023E-01  0.134535E-01  0.134019E-01
  0.134535E-01  0.136023E-01  0.138319E-01  0.141192E-01  0.144373E-01  0.147570E-01
  0.150472E-01  0.152786E-01  0.154274E-01  0.154786E-01  0.154274E-01  0.152786E-01
  0.150472E-01  0.147570E-01  0.144373E-01  0.141192E-01  0.138319E-01  0.136023E-01
  0.134535E-01  0.134019E-01  0.134535E-01  0.136023E-01  0.138319E-01  0.141192E-01
  0.144373E-01  0.175840E-01  0.181123E-01  0.185540E-01  0.188713E-01  0.190369E-01
  0.190369E-01  0.188713E-01  0.185540E-01  0.181123E-01  0.175840E-01  0.170118E-01
  0.164378E-01  0.159000E-01  0.154318E-01  0.150598E-01  0.148014E-01  0.146613E-01
  0.146302E-01  0.146890E-01  0.148127E-01  0.149749E-01  0.151483E-01  0.153069E-01
  0.154274E-01  0.154922E-01  0.154922E-01  0.154274E-01  0.153069E-01  0.151483E-01
  0.149749E-01  0.148127E-01  0.146890E-01  0.146302E-01  0.146613E-01  0.148014E-01
  0.150598E-01  0.154318E-01  0.159000E-01  0.164378E-01  0.170118E-01  0.175840E-01
  0.215410E-01  0.222884E-01  0.228670E-01  0.232322E-01  0.233570E-01  0.232322E-01
  0.228670E-01  0.222884E-01  0.215410E-01  0.206810E-01  0.197689E-01  0.188616E-01
  0.180079E-01  0.172475E-01  0.166093E-01  0.161097E-01  0.157502E-01  0.155190E-01
  0.153943E-01  0.153496E-01  0.153585E-01  0.153965E-01  0.154425E-01  0.154786E-01
  0.154922E-01  0.154786E-01  0.154425E-01  0.153965E-01  0.153585E-01  0.153496E-01
  0.153943E-01  0.155190E-01  0.157502E-01  0.161097E-01  0.166093E-01  0.172475E-01
  0.180079E-01  0.188616E-01  0.197689E-01  0.206810E-01  0.215410E-01  0.263889E-01
  0.273325E-01  0.279978E-01  0.283411E-01  0.283411E-01  0.279978E-01  0.273325E-01
  0.263889E-01  0.252319E-01  0.239410E-01  0.225987E-01  0.212807E-01  0.200490E-01
  0.189493E-01  0.180100E-01  0.172436E-01  0.166476E-01  0.162071E-01  0.158974E-01
  0.156899E-01  0.155583E-01  0.154815E-01  0.154425E-01  0.154274E-01  0.154274E-01
  0.154425E-01  0.154815E-01  0.155583E-01  0.156899E-01  0.158974E-01  0.162071E-01
  0.166476E-01  0.172436E-01  0.180100E-01  0.189493E-01  0.200490E-01  0.212807E-01
  0.225987E-01  0.239410E-01  0.252319E-01  0.263889E-01  0.320957E-01  0.331601E-01
  0.338203E-01  0.340437E-01  0.338203E-01  0.331601E-01  0.320957E-01  0.306875E-01
  0.290231E-01  0.272087E-01  0.253543E-01  0.235593E-01  0.219006E-01  0.204283E-01
  0.191670E-01  0.181228E-01  0.172879E-01  0.166430E-01  0.161595E-01  0.158065E-01
  0.155583E-01  0.153965E-01  0.153069E-01  0.152786E-01  0.153069E-01  0.153965E-01
  0.155583E-01  0.158065E-01  0.161595E-01  0.166430E-01  0.172879E-01  0.181228E-01
  0.191670E-01  0.204283E-01  0.219006E-01  0.235593E-01  0.253543E-01  0.272087E-01
  0.290231E-01  0.306875E-01  0.320957E-01  0.384425E-01  0.394975E-01  0.400311E-01
  0.400311E-01  0.394975E-01  0.384425E-01  0.369025E-01  0.349512E-01  0.327008E-01
  0.302900E-01  0.278629E-01  0.255469E-01  0.234348E-01  0.215780E-01  0.199941E-01
  0.186802E-01  0.176214E-01  0.167923E-01  0.161595E-01  0.156899E-01  0.153585E-01
  0.151483E-01  0.150472E-01  0.150472E-01  0.151483E-01  0.153585E-01  0.156899E-01
  0.161595E-01  0.167923E-01  0.176214E-01  0.186802E-01  0.199941E-01  0.215780E-01
  0.234348E-01  0.255469E-01  0.278629E-01  0.302900E-01  0.327008E-01  0.349512E-01
  0.369025E-01  0.384425E-01  0.449788E-01  0.458587E-01  0.461493E-01  0.458587E-01
  0.449788E-01  0.435011E-01  0.414504E-01  0.389104E-01  0.360244E-01  0.329736E-01
  0.299446E-01  0.270961E-01  0.245344E-01  0.223085E-01  0.204255E-01  0.188712E-01
  0.176214E-01  0.166430E-01  0.158974E-01  0.153496E-01  0.149749E-01  0.147570E-01
  0.146856E-01  0.147570E-01  0.149749E-01  0.153496E-01  0.158974E-01  0.166430E-01
  0.176214E-01  0.188712E-01  0.204255E-01  0.223085E-01  0.245344E-01  0.270961E-01
  0.299446E-01  0.329736E-01  0.360244E-01  0.389104E-01  0.414504E-01  0.435011E-01
  0.449788E-01  0.510155E-01  0.515706E-01  0.515706E-01  0.510155E-01  0.498431E-01
  0.479848E-01  0.454365E-01  0.422971E-01  0.387577E-01  0.350585E-01  0.314366E-01
  0.280818E-01  0.251089E-01  0.225592E-01  0.204255E-01  0.186802E-01  0.172879E-01
  0.162071E-01  0.153943E-01  0.148127E-01  0.144373E-01  0.142532E-01  0.142532E-01
  0.144373E-01  0.148127E-01  0.153943E-01  0.162071E-01  0.172879E-01  0.186802E-01
  0.204255E-01  0.225592E-01  0.251089E-01  0.280818E-01  0.314366E-01  0.350585E-01
  0.387577E-01  0.422971E-01  0.454365E-01  0.479848E-01  0.498431E-01  0.510155E-01
  0.557180E-01  0.559102E-01  0.557180E-01  0.550604E-01  0.537481E-01  0.516094E-01
  0.486079E-01  0.448819E-01  0.407002E-01  0.363807E-01  0.322157E-01  0.284202E-01
  0.251089E-01  0.223085E-01  0.199941E-01  0.181228E-01  0.166476E-01  0.155190E-01
  0.146890E-01  0.141192E-01  0.137853E-01  0.136752E-01  0.137853E-01  0.141192E-01
  0.146890E-01  0.155190E-01  0.166476E-01  0.181228E-01  0.199941E-01  0.223085E-01
  0.251089E-01  0.284202E-01  0.322157E-01  0.363807E-01  0.407002E-01  0.448819E-01
  0.486079E-01  0.516094E-01  0.537481E-01  0.550604E-01  0.557180E-01  0.583896E-01
  0.583896E-01  0.582785E-01  0.577883E-01  0.565307E-01  0.542123E-01  0.507931E-01
  0.464977E-01  0.417085E-01  0.368338E-01  0.322157E-01  0.280818E-01  0.245344E-01
  0.215780E-01  0.191670E-01  0.172436E-01  0.157502E-01  0.146302E-01  0.138319E-01
  0.133168E-01  0.130634E-01  0.130634E-01  0.133168E-01  0.138319E-01  0.146302E-01
  0.157502E-01  0.172436E-01  0.191670E-01  0.215780E-01  0.245344E-01  0.280818E-01
  0.322157E-01  0.368338E-01  0.417085E-01  0.464977E-01  0.507931E-01  0.542123E-01
  0.565307E-01  0.577883E-01  0.582785E-01  0.583896E-01  0.588714E-01  0.590528E-01
  0.593826E-01  0.593150E-01  0.582328E-01  0.557541E-01  0.519023E-01  0.470469E-01
  0.417085E-01  0.363807E-01  0.314366E-01  0.270961E-01  0.234348E-01  0.204283E-01
  0.180100E-01  0.161097E-01  0.146613E-01  0.136023E-01  0.128792E-01  0.124563E-01
  0.123167E-01  0.124563E-01  0.128792E-01  0.136023E-01  0.146613E-01  0.161097E-01
  0.180100E-01  0.204283E-01  0.234348E-01  0.270961E-01  0.314366E-01  0.363807E-01
  0.417085E-01  0.470469E-01  0.519023E-01  0.557541E-01  0.582328E-01  0.593150E-01
  0.593826E-01  0.590528E-01  0.588714E-01  0.577399E-01  0.585206E-01  0.595544E-01
  0.599877E-01  0.590161E-01  0.562615E-01  0.519023E-01  0.464977E-01  0.407002E-01
  0.350585E-01  0.299446E-01  0.255469E-01  0.219006E-01  0.189493E-01  0.166093E-01
  0.148014E-01  0.134535E-01  0.124993E-01  0.118869E-01  0.115863E-01  0.115863E-01
  0.118869E-01  0.124993E-01  0.134535E-01  0.148014E-01  0.166093E-01  0.189493E-01
  0.219006E-01  0.255469E-01  0.299446E-01  0.350585E-01  0.407002E-01  0.464977E-01
  0.519023E-01  0.562615E-01  0.590161E-01  0.599877E-01  0.595544E-01  0.585206E-01
  0.577399E-01  0.577399E-01  0.560688E-01  0.576945E-01  0.594306E-01  0.601627E-01
  0.590161E-01  0.557541E-01  0.507931E-01  0.448819E-01  0.387577E-01  0.329736E-01
  0.278629E-01  0.235593E-01  0.200490E-01  0.172475E-01  0.150598E-01  0.134019E-01
  0.121978E-01  0.113810E-01  0.109055E-01  0.107489E-01  0.109055E-01  0.113810E-01
  0.121978E-01  0.134019E-01  0.150598E-01  0.172475E-01  0.200490E-01  0.235593E-01
  0.278629E-01  0.329736E-01  0.387577E-01  0.448819E-01  0.507931E-01  0.557541E-01
  0.590161E-01  0.601627E-01  0.594306E-01  0.576945E-01  0.560688E-01  0.554209E-01
  0.560688E-01  0.549204E-01  0.573242E-01  0.594306E-01  0.599877E-01  0.582328E-01
  0.542123E-01  0.486079E-01  0.422971E-01  0.360244E-01  0.302900E-01  0.253543E-01
  0.212807E-01  0.180079E-01  0.154318E-01  0.134535E-01  0.119873E-01  0.109561E-01
  0.102980E-01  0.997613E-02  0.997613E-02  0.102980E-01  0.109561E-01  0.119873E-01
  0.134535E-01  0.154318E-01  0.180079E-01  0.212807E-01  0.253543E-01  0.302900E-01
  0.360244E-01  0.422971E-01  0.486079E-01  0.542123E-01  0.582328E-01  0.599877E-01
  0.594306E-01  0.573242E-01  0.549204E-01  0.533873E-01  0.533873E-01  0.549204E-01
  0.549204E-01  0.576945E-01  0.595544E-01  0.593150E-01  0.565307E-01  0.516094E-01
  0.454365E-01  0.389104E-01  0.327008E-01  0.272087E-01  0.225987E-01  0.188616E-01
  0.159000E-01  0.136023E-01  0.118711E-01  0.106209E-01  0.977755E-02  0.928862E-02
  0.912794E-02  0.928862E-02  0.977755E-02  0.106209E-01  0.118711E-01  0.136023E-01
  0.159000E-01  0.188616E-01  0.225987E-01  0.272087E-01  0.327008E-01  0.389104E-01
  0.454365E-01  0.516094E-01  0.565307E-01  0.593150E-01  0.595544E-01  0.576945E-01
  0.549204E-01  0.525960E-01  0.517061E-01  0.525960E-01  0.549204E-01  0.560688E-01
  0.585206E-01  0.593826E-01  0.577883E-01  0.537481E-01  0.479848E-01  0.414504E-01
  0.349512E-01  0.290231E-01  0.239410E-01  0.197689E-01  0.164378E-01  0.138319E-01
  0.118424E-01  0.103757E-01  0.934907E-02  0.869654E-02  0.837818E-02  0.837818E-02
  0.869654E-02  0.934907E-02  0.103757E-01  0.118424E-01  0.138319E-01  0.164378E-01
  0.197689E-01  0.239410E-01  0.290231E-01  0.349512E-01  0.414504E-01  0.479848E-01
  0.537481E-01  0.577883E-01  0.593826E-01  0.585206E-01  0.560688E-01  0.533873E-01
  0.517061E-01  0.517061E-01  0.533873E-01  0.560688E-01  0.577399E-01  0.590528E-01
  0.582785E-01  0.550604E-01  0.498431E-01  0.435011E-01  0.369025E-01  0.306875E-01
  0.252319E-01  0.206810E-01  0.170118E-01  0.141192E-01  0.118868E-01  0.102135E-01
  0.901037E-02  0.820161E-02  0.773381E-02  0.758025E-02  0.773381E-02  0.820161E-02
  0.901037E-02  0.102135E-01  0.118868E-01  0.141192E-01  0.170118E-01  0.206810E-01
  0.252319E-01  0.306875E-01  0.369025E-01  0.435011E-01  0.498431E-01  0.550604E-01
  0.582785E-01  0.590528E-01  0.577399E-01  0.554209E-01  0.533873E-01  0.525960E-01
  0.533873E-01  0.554209E-01  0.577399E-01  0.588714E-01  0.583896E-01  0.557180E-01
  0.510155E-01  0.449788E-01  0.384425E-01  0.320957E-01  0.263889E-01  0.215410E-01
  0.175840E-01  0.144373E-01  0.119857E-01  0.101223E-01  0.875431E-02  0.779965E-02
  0.719398E-02  0.689880E-02  0.689880E-02  0.719398E-02  0.779965E-02  0.875431E-02
  0.101223E-01  0.119857E-01  0.144373E-01  0.175840E-01  0.215410E-01  0.263889E-01
  0.320957E-01  0.384425E-01  0.449788E-01  0.510155E-01  0.557180E-01  0.583896E-01
  0.588714E-01  0.577399E-01  0.560688E-01  0.549204E-01  0.549204E-01  0.560688E-01
  0.577399E-01  0.588714E-01  0.608584E-01  0.568829E-01  0.514845E-01  0.451683E-01
  0.385541E-01  0.321876E-01  0.264504E-01  0.215410E-01  0.174974E-01  0.142532E-01
  0.117025E-01  0.974131E-02  0.827676E-02  0.722561E-02  0.651908E-02  0.611065E-02
  0.597671E-02  0.611065E-02  0.651908E-02  0.722561E-02  0.827676E-02  0.974131E-02
  0.117025E-01  0.142532E-01  0.174974E-01  0.215410E-01  0.264504E-01  0.321876E-01
  0.385541E-01  0.451683E-01  0.514845E-01  0.568829E-01  0.608584E-01  0.632468E-01
  0.643148E-01  0.646071E-01  0.646360E-01  0.646071E-01  0.643148E-01  0.632468E-01
  0.608584E-01  0.568829E-01  0.518644E-01  0.458868E-01  0.394858E-01  0.331849E-01
  0.273873E-01  0.223351E-01  0.181123E-01  0.146856E-01  0.119642E-01  0.984773E-02
  0.824357E-02  0.706753E-02  0.624628E-02  0.572503E-02  0.547127E-02  0.547127E-02
  0.572503E-02  0.624628E-02  0.706753E-02  0.824357E-02  0.984773E-02  0.119642E-01
  0.146856E-01  0.181123E-01  0.223351E-01  0.273873E-01  0.331849E-01  0.394858E-01
  0.458868E-01  0.518644E-01  0.568829E-01  0.605687E-01  0.628642E-01  0.640315E-01
  0.644719E-01  0.644719E-01  0.640315E-01  0.628642E-01  0.605687E-01  0.568829E-01
  0.514845E-01  0.458868E-01  0.398010E-01  0.336987E-01  0.279766E-01  0.229001E-01
  0.185901E-01  0.150472E-01  0.122021E-01  0.996398E-02  0.824434E-02  0.696078E-02
  0.603886E-02  0.541874E-02  0.506048E-02  0.494315E-02  0.506048E-02  0.541874E-02
  0.603886E-02  0.696078E-02  0.824434E-02  0.996398E-02  0.122021E-01  0.150472E-01
  0.185901E-01  0.229001E-01  0.279766E-01  0.336987E-01  0.398010E-01  0.458868E-01
  0.514845E-01  0.561538E-01  0.596200E-01  0.618579E-01  0.630464E-01  0.634098E-01
  0.630464E-01  0.618579E-01  0.596200E-01  0.561538E-01  0.514845E-01  0.451683E-01
  0.394858E-01  0.336987E-01  0.281776E-01  0.231935E-01  0.188928E-01  0.153069E-01
  0.123915E-01  0.100707E-01  0.826403E-02  0.689386E-02  0.588733E-02  0.518272E-02
  0.473525E-02  0.451774E-02  0.451774E-02  0.473525E-02  0.518272E-02  0.588733E-02
  0.689386E-02  0.826403E-02  0.100707E-01  0.123915E-01  0.153069E-01  0.188928E-01
  0.231935E-01  0.281776E-01  0.336987E-01  0.394858E-01  0.451683E-01  0.503363E-01
  0.546304E-01  0.578306E-01  0.598902E-01  0.608806E-01  0.608806E-01  0.598902E-01
  0.578306E-01  0.546304E-01  0.503363E-01  0.451683E-01  0.385541E-01  0.331849E-01
  0.279766E-01  0.231935E-01  0.189963E-01  0.154425E-01  0.125131E-01  0.101512E-01
  0.828859E-02  0.685504E-02  0.578174E-02  0.500756E-02  0.448550E-02  0.418416E-02
  0.408568E-02  0.418416E-02  0.448550E-02  0.500756E-02  0.578174E-02  0.685504E-02
  0.828859E-02  0.101512E-01  0.125131E-01  0.154425E-01  0.189963E-01  0.231935E-01
  0.279766E-01  0.331849E-01  0.385541E-01  0.437480E-01  0.484132E-01  0.522465E-01
  0.550493E-01  0.567368E-01  0.572976E-01  0.567368E-01  0.550493E-01  0.522465E-01
  0.484132E-01  0.437480E-01  0.385541E-01  0.321876E-01  0.273873E-01  0.229001E-01
  0.188928E-01  0.154425E-01  0.125549E-01  0.101942E-01  0.830734E-02  0.683443E-02
  0.571299E-02  0.488453E-02  0.430185E-02  0.393153E-02  0.375193E-02  0.375193E-02
  0.393153E-02  0.430185E-02  0.488453E-02  0.571299E-02  0.683443E-02  0.830734E-02
  0.101942E-01  0.125549E-01  0.154425E-01  0.188928E-01  0.229001E-01  0.273873E-01
  0.321876E-01  0.370511E-01  0.416756E-01  0.457528E-01  0.490175E-01  0.512805E-01
  0.524341E-01  0.524341E-01  0.512805E-01  0.490175E-01  0.457528E-01  0.416756E-01
  0.370511E-01  0.321876E-01  0.264504E-01  0.223351E-01  0.185901E-01  0.153069E-01
  0.125131E-01  0.101942E-01  0.831421E-02  0.682557E-02  0.567428E-02  0.480651E-02
  0.417655E-02  0.375052E-02  0.350493E-02  0.342485E-02  0.350493E-02  0.375052E-02
  0.417655E-02  0.480651E-02  0.567428E-02  0.682557E-02  0.831421E-02  0.101942E-01
  0.125131E-01  0.153069E-01  0.185901E-01  0.223351E-01  0.264504E-01  0.307694E-01
  0.350597E-01  0.390504E-01  0.424704E-01  0.450852E-01  0.467221E-01  0.472789E-01
  0.467221E-01  0.450852E-01  0.424704E-01  0.390504E-01  0.350597E-01  0.307694E-01
  0.264504E-01  0.215410E-01  0.181123E-01  0.150472E-01  0.123915E-01  0.101512E-01
  0.830734E-02  0.682557E-02  0.566177E-02  0.476869E-02  0.410378E-02  0.363398E-02
  0.333527E-02  0.319066E-02  0.319066E-02  0.333527E-02  0.363398E-02  0.410378E-02
  0.476869E-02  0.566177E-02  0.682557E-02  0.830734E-02  0.101512E-01  0.123915E-01
  0.150472E-01  0.181123E-01  0.215410E-01  0.252319E-01  0.290231E-01  0.327008E-01
  0.360244E-01  0.387577E-01  0.407002E-01  0.417085E-01  0.417085E-01  0.407002E-01
  0.387577E-01  0.360244E-01  0.327008E-01  0.290231E-01  0.252319E-01  0.215410E-01
  0.174974E-01  0.146856E-01  0.122021E-01  0.100707E-01  0.828859E-02  0.683443E-02
  0.567428E-02  0.476869E-02  0.407994E-02  0.357699E-02  0.323617E-02  0.303974E-02
  0.297573E-02  0.303974E-02  0.323617E-02  0.357699E-02  0.407994E-02  0.476869E-02
  0.567428E-02  0.683443E-02  0.828859E-02  0.100707E-01  0.122021E-01  0.146856E-01
  0.174974E-01  0.205769E-01  0.238172E-01  0.270636E-01  0.301229E-01  0.327855E-01
  0.348526E-01  0.361630E-01  0.366118E-01  0.361630E-01  0.348526E-01  0.327855E-01
  0.301229E-01  0.270636E-01  0.238172E-01  0.205769E-01  0.174974E-01  0.142532E-01
  0.119642E-01  0.996398E-02  0.826403E-02  0.685504E-02  0.571299E-02  0.480651E-02
  0.410378E-02  0.357699E-02  0.320359E-02  0.296580E-02  0.285053E-02  0.285053E-02
  0.296580E-02  0.320359E-02  0.357699E-02  0.410378E-02  0.480651E-02  0.571299E-02
  0.685504E-02  0.826403E-02  0.996398E-02  0.119642E-01  0.142532E-01  0.167925E-01
  0.195108E-01  0.222992E-01  0.250130E-01  0.274815E-01  0.295281E-01  0.309936E-01
  0.317585E-01  0.317585E-01  0.309936E-01  0.295281E-01  0.274815E-01  0.250130E-01
  0.222992E-01  0.195108E-01  0.167925E-01  0.142532E-01  0.117025E-01  0.984773E-02
  0.824434E-02  0.689386E-02  0.578174E-02  0.488453E-02  0.417655E-02  0.363398E-02
  0.323617E-02  0.296580E-02  0.280940E-02  0.275826E-02  0.280940E-02  0.296580E-02
  0.323617E-02  0.363398E-02  0.417655E-02  0.488453E-02  0.578174E-02  0.689386E-02
  0.824434E-02  0.984773E-02  0.117025E-01  0.137853E-01  0.160469E-01  0.184095E-01
  0.207659E-01  0.229837E-01  0.249165E-01  0.264215E-01  0.273783E-01  0.277066E-01
  0.273783E-01  0.264215E-01  0.249165E-01  0.229837E-01  0.207659E-01  0.184095E-01
  0.160469E-01  0.137853E-01  0.117025E-01  0.974131E-02  0.824357E-02  0.696078E-02
  0.588733E-02  0.500756E-02  0.430185E-02  0.375052E-02  0.333527E-02  0.303974E-02
  0.285053E-02  0.275826E-02  0.275826E-02  0.285053E-02  0.303974E-02  0.333527E-02
  0.375052E-02  0.430185E-02  0.500756E-02  0.588733E-02  0.696078E-02  0.824357E-02
  0.974131E-02  0.114431E-01  0.133168E-01  0.153064E-01  0.173318E-01  0.192907E-01
  0.210656E-01  0.225346E-01  0.235865E-01  0.241357E-01  0.241357E-01  0.235865E-01
  0.225346E-01  0.210656E-01  0.192907E-01  0.173318E-01  0.153064E-01  0.133168E-01
  0.114431E-01  0.974131E-02  0.827676E-02  0.706753E-02  0.603886E-02  0.518272E-02
  0.448550E-02  0.393153E-02  0.350493E-02  0.319066E-02  0.297573E-02  0.285053E-02
  0.280940E-02  0.285053E-02  0.297573E-02  0.319066E-02  0.350493E-02  0.393153E-02
  0.448550E-02  0.518272E-02  0.603886E-02  0.706753E-02  0.827676E-02  0.966398E-02
  0.112108E-01  0.128792E-01  0.146102E-01  0.163248E-01  0.179289E-01  0.193208E-01
  0.204015E-01  0.210876E-01  0.213229E-01  0.210876E-01  0.204015E-01  0.193208E-01
  0.179289E-01  0.163248E-01  0.146102E-01  0.128792E-01  0.112108E-01  0.966398E-02
  0.827676E-02  0.722561E-02  0.624628E-02  0.541874E-02  0.473525E-02  0.418416E-02
  0.375193E-02  0.342485E-02  0.319066E-02  0.303974E-02  0.296580E-02  0.296580E-02
  0.303974E-02  0.319066E-02  0.342485E-02  0.375193E-02  0.418416E-02  0.473525E-02
  0.541874E-02  0.624628E-02  0.722561E-02  0.835765E-02  0.963287E-02  0.110272E-01
  0.124993E-01  0.139899E-01  0.154243E-01  0.167181E-01  0.177851E-01  0.185470E-01
  0.189441E-01  0.189441E-01  0.185470E-01  0.177851E-01  0.167181E-01  0.154243E-01
  0.139899E-01  0.124993E-01  0.110272E-01  0.963287E-02  0.835765E-02  0.722561E-02
  0.651908E-02  0.572503E-02  0.506048E-02  0.451774E-02  0.408568E-02  0.375193E-02
  0.350493E-02  0.333527E-02  0.323617E-02  0.320359E-02  0.323617E-02  0.333527E-02
  0.350493E-02  0.375193E-02  0.408568E-02  0.451774E-02  0.506048E-02  0.572503E-02
  0.651908E-02  0.744496E-02  0.849757E-02  0.966180E-02  0.109095E-01  0.121978E-01
  0.134690E-01  0.146544E-01  0.156798E-01  0.164739E-01  0.169768E-01  0.171491E-01
  0.169768E-01  0.164739E-01  0.156798E-01  0.146544E-01  0.134690E-01  0.121978E-01
  0.109095E-01  0.966180E-02  0.849757E-02  0.744496E-02  0.651908E-02  0.611065E-02
  0.547127E-02  0.494315E-02  0.451774E-02  0.418416E-02  0.393153E-02  0.375052E-02
  0.363398E-02  0.357699E-02  0.357699E-02  0.363398E-02  0.375052E-02  0.393153E-02
  0.418416E-02  0.451774E-02  0.494315E-02  0.547127E-02  0.611065E-02  0.686535E-02
  0.773329E-02  0.870471E-02  0.976028E-02  0.108690E-01  0.119873E-01  0.130606E-01
  0.140265E-01  0.148213E-01  0.153877E-01  0.156824E-01  0.156824E-01  0.153877E-01
  0.148213E-01  0.140265E-01  0.130606E-01  0.119873E-01  0.108690E-01  0.976028E-02
  0.870471E-02  0.773329E-02  0.686535E-02  0.611065E-02  0.597671E-02  0.547127E-02
  0.506048E-02  0.473525E-02  0.448550E-02  0.430185E-02  0.417655E-02  0.410378E-02
  0.407994E-02  0.410378E-02  0.417655E-02  0.430185E-02  0.448550E-02  0.473525E-02
  0.506048E-02  0.547127E-02  0.597671E-02  0.658288E-02  0.729089E-02  0.809547E-02
  0.898353E-02  0.993257E-02  0.109095E-01  0.118711E-01  0.127660E-01  0.135387E-01
  0.141361E-01  0.145141E-01  0.146435E-01  0.145141E-01  0.141361E-01  0.135387E-01
  0.127660E-01  0.118711E-01  0.109095E-01  0.993257E-02  0.898353E-02  0.809547E-02
  0.729089E-02  0.658288E-02  0.597671E-02  0.611065E-02  0.572503E-02  0.541874E-02
  0.518272E-02  0.500756E-02  0.488453E-02  0.480651E-02  0.476869E-02  0.476869E-02
  0.480651E-02  0.488453E-02  0.500756E-02  0.518272E-02  0.541874E-02  0.572503E-02
  0.611065E-02  0.658288E-02  0.714569E-02  0.779810E-02  0.853268E-02  0.933392E-02
  0.101769E-01  0.110272E-01  0.118424E-01  0.125751E-01  0.131774E-01  0.136066E-01
  0.138300E-01  0.138300E-01  0.136066E-01  0.131774E-01  0.125751E-01  0.118424E-01
  0.110272E-01  0.101769E-01  0.933392E-02  0.853268E-02  0.779810E-02  0.714569E-02
  0.658288E-02  0.611065E-02  0.651908E-02  0.624628E-02  0.603886E-02  0.588733E-02
  0.578174E-02  0.571299E-02  0.567428E-02  0.566177E-02  0.567428E-02  0.571299E-02
  0.578174E-02  0.588733E-02  0.603886E-02  0.624628E-02  0.651908E-02  0.686535E-02
  0.729089E-02  0.779810E-02  0.838449E-02  0.904098E-02  0.975009E-02  0.104851E-01
  0.112108E-01  0.118868E-01  0.124707E-01  0.129226E-01  0.132088E-01  0.133068E-01
  0.132088E-01  0.129226E-01  0.124707E-01  0.118868E-01  0.112108E-01  0.104851E-01
  0.975009E-02  0.904098E-02  0.838449E-02  0.779810E-02  0.729089E-02  0.686535E-02
  0.651908E-02  0.722561E-02  0.706753E-02  0.696078E-02  0.689386E-02  0.685504E-02
  0.683443E-02  0.682557E-02  0.682557E-02  0.683443E-02  0.685504E-02  0.689386E-02
  0.696078E-02  0.706753E-02  0.722561E-02  0.744496E-02  0.773329E-02  0.809547E-02
  0.853268E-02  0.904098E-02  0.960958E-02  0.102192E-01  0.108418E-01  0.114431E-01
  0.119857E-01  0.124328E-01  0.127520E-01  0.129185E-01  0.129185E-01  0.127520E-01
  0.124328E-01  0.119857E-01  0.114431E-01  0.108418E-01  0.102192E-01  0.960958E-02
  0.904098E-02  0.853268E-02  0.809547E-02  0.773329E-02  0.744496E-02  0.722561E-02
  0.827676E-02  0.824357E-02  0.824434E-02  0.826403E-02  0.828859E-02  0.830734E-02
  0.831421E-02  0.830734E-02  0.828859E-02  0.826403E-02  0.824434E-02  0.824357E-02
  0.827676E-02  0.835765E-02  0.849757E-02  0.870471E-02  0.898353E-02  0.933392E-02
  0.975009E-02  0.102192E-01  0.107203E-01  0.112255E-01  0.117025E-01  0.121178E-01
  0.124406E-01  0.126455E-01  0.127157E-01  0.126455E-01  0.124406E-01  0.121178E-01
  0.117025E-01  0.112255E-01  0.107203E-01  0.102192E-01  0.975009E-02  0.933392E-02
  0.898353E-02  0.870471E-02  0.849757E-02  0.835765E-02  0.827676E-02  0.974131E-02
  0.984773E-02  0.996398E-02  0.100707E-01  0.101512E-01  0.101942E-01  0.101942E-01
  0.101512E-01  0.100707E-01  0.996398E-02  0.984773E-02  0.974131E-02  0.966398E-02
  0.963287E-02  0.966180E-02  0.976028E-02  0.993257E-02  0.101769E-01  0.104851E-01
  0.108418E-01  0.112255E-01  0.116095E-01  0.119642E-01  0.122607E-01  0.124737E-01
  0.125849E-01  0.125849E-01  0.124737E-01  0.122607E-01  0.119642E-01  0.116095E-01
  0.112255E-01  0.108418E-01  0.104851E-01  0.101769E-01  0.993257E-02  0.976028E-02
  0.966180E-02  0.963287E-02  0.966398E-02  0.974131E-02  0.117025E-01  0.119642E-01
  0.122021E-01  0.123915E-01  0.125131E-01  0.125549E-01  0.125131E-01  0.123915E-01
  0.122021E-01  0.119642E-01  0.117025E-01  0.114431E-01  0.112108E-01  0.110272E-01
  0.109095E-01  0.108690E-01  0.109095E-01  0.110272E-01  0.112108E-01  0.114431E-01
  0.117025E-01  0.119642E-01  0.122021E-01  0.123915E-01  0.125131E-01  0.125549E-01
  0.125131E-01  0.123915E-01  0.122021E-01  0.119642E-01  0.117025E-01  0.114431E-01
  0.112108E-01  0.110272E-01  0.109095E-01  0.108690E-01  0.109095E-01  0.110272E-01
  0.112108E-01  0.114431E-01  0.117025E-01  0.142532E-01  0.146856E-01  0.150472E-01
  0.153069E-01  0.154425E-01  0.154425E-01  0.153069E-01  0.150472E-01  0.146856E-01
  0.142532E-01  0.137853E-01  0.133168E-01  0.128792E-01  0.124993E-01  0.121978E-01
  0.119873E-01  0.118711E-01  0.118424E-01  0.118868E-01  0.119857E-01  0.121178E-01
  0.122607E-01  0.123915E-01  0.124904E-01  0.125433E-01  0.125433E-01  0.124904E-01
  0.123915E-01  0.122607E-01  0.121178E-01  0.119857E-01  0.118868E-01  0.118424E-01
  0.118711E-01  0.119873E-01  0.121978E-01  0.124993E-01  0.128792E-01  0.133168E-01
  0.137853E-01  0.142532E-01  0.174974E-01  0.181123E-01  0.185901E-01  0.188928E-01
  0.189963E-01  0.188928E-01  0.185901E-01  0.181123E-01  0.174974E-01  0.167925E-01
  0.160469E-01  0.153064E-01  0.146102E-01  0.139899E-01  0.134690E-01  0.130606E-01
  0.127660E-01  0.125751E-01  0.124707E-01  0.124328E-01  0.124406E-01  0.124737E-01
  0.125131E-01  0.125433E-01  0.125545E-01  0.125433E-01  0.125131E-01  0.124737E-01
  0.124406E-01  0.124328E-01  0.124707E-01  0.125751E-01  0.127660E-01  0.130606E-01
  0.134690E-01  0.139899E-01  0.146102E-01  0.153064E-01  0.160469E-01  0.167925E-01
  0.174974E-01  0.215410E-01  0.223351E-01  0.229001E-01  0.231935E-01  0.231935E-01
  0.229001E-01  0.223351E-01  0.215410E-01  0.205769E-01  0.195108E-01  0.184095E-01
  0.173318E-01  0.163248E-01  0.154243E-01  0.146544E-01  0.140265E-01  0.135387E-01
  0.131774E-01  0.129226E-01  0.127520E-01  0.126455E-01  0.125849E-01  0.125549E-01
  0.125433E-01  0.125433E-01  0.125549E-01  0.125849E-01  0.126455E-01  0.127520E-01
  0.129226E-01  0.131774E-01  0.135387E-01  0.140265E-01  0.146544E-01  0.154243E-01
  0.163248E-01  0.173318E-01  0.184095E-01  0.195108E-01  0.205769E-01  0.215410E-01
  0.264504E-01  0.273873E-01  0.279766E-01  0.281776E-01  0.279766E-01  0.273873E-01
  0.264504E-01  0.252319E-01  0.238172E-01  0.222992E-01  0.207659E-01  0.192907E-01
  0.179289E-01  0.167181E-01  0.156798E-01  0.148213E-01  0.141361E-01  0.136066E-01
  0.132088E-01  0.129185E-01  0.127157E-01  0.125849E-01  0.125131E-01  0.124904E-01
  0.125131E-01  0.125849E-01  0.127157E-01  0.129185E-01  0.132088E-01  0.136066E-01
  0.141361E-01  0.148213E-01  0.156798E-01  0.167181E-01  0.179289E-01  0.192907E-01
  0.207659E-01  0.222992E-01  0.238172E-01  0.252319E-01  0.264504E-01  0.321876E-01
  0.331849E-01  0.336987E-01  0.336987E-01  0.331849E-01  0.321876E-01  0.307694E-01
  0.290231E-01  0.270636E-01  0.250130E-01  0.229837E-01  0.210656E-01  0.193208E-01
  0.177851E-01  0.164739E-01  0.153877E-01  0.145141E-01  0.138300E-01  0.133068E-01
  0.129185E-01  0.126455E-01  0.124737E-01  0.123915E-01  0.123915E-01  0.124737E-01
  0.126455E-01  0.129185E-01  0.133068E-01  0.138300E-01  0.145141E-01  0.153877E-01
  0.164739E-01  0.177851E-01  0.193208E-01  0.210656E-01  0.229837E-01  0.250130E-01
  0.270636E-01  0.290231E-01  0.307694E-01  0.321876E-01  0.385541E-01  0.394858E-01
  0.398010E-01  0.394858E-01  0.385541E-01  0.370511E-01  0.350597E-01  0.327008E-01
  0.301229E-01  0.274815E-01  0.249165E-01  0.225346E-01  0.204015E-01  0.185470E-01
  0.169768E-01  0.156824E-01  0.146435E-01  0.138300E-01  0.132088E-01  0.127520E-01
  0.124406E-01  0.122607E-01  0.122021E-01  0.122607E-01  0.124406E-01  0.127520E-01
  0.132088E-01  0.138300E-01  0.146435E-01  0.156824E-01  0.169768E-01  0.185470E-01
  0.204015E-01  0.225346E-01  0.249165E-01  0.274815E-01  0.301229E-01  0.327008E-01
  0.350597E-01  0.370511E-01  0.385541E-01  0.451683E-01  0.458868E-01  0.458868E-01
  0.451683E-01  0.437480E-01  0.416756E-01  0.390504E-01  0.360244E-01  0.327855E-01
  0.295281E-01  0.264215E-01  0.235865E-01  0.210876E-01  0.189441E-01  0.171491E-01
  0.156824E-01  0.145141E-01  0.136066E-01  0.129226E-01  0.124328E-01  0.121178E-01
  0.119642E-01  0.119642E-01  0.121178E-01  0.124328E-01  0.129226E-01  0.136066E-01
  0.145141E-01  0.156824E-01  0.171491E-01  0.189441E-01  0.210876E-01  0.235865E-01
  0.264215E-01  0.295281E-01  0.327855E-01  0.360244E-01  0.390504E-01  0.416756E-01
  0.437480E-01  0.451683E-01  0.514845E-01  0.518644E-01  0.514845E-01  0.503363E-01
  0.484132E-01  0.457528E-01  0.424704E-01  0.387577E-01  0.348526E-01  0.309936E-01
  0.273783E-01  0.241357E-01  0.213229E-01  0.189441E-01  0.169768E-01  0.153877E-01
  0.141361E-01  0.131774E-01  0.124707E-01  0.119857E-01  0.117025E-01  0.116095E-01
  0.117025E-01  0.119857E-01  0.124707E-01  0.131774E-01  0.141361E-01  0.153877E-01
  0.169768E-01  0.189441E-01  0.213229E-01  0.241357E-01  0.273783E-01  0.309936E-01
  0.348526E-01  0.387577E-01  0.424704E-01  0.457528E-01  0.484132E-01  0.503363E-01
  0.514845E-01  0.568829E-01  0.568829E-01  0.561538E-01  0.546304E-01  0.522465E-01
  0.490175E-01  0.450852E-01  0.407002E-01  0.361630E-01  0.317585E-01  0.277066E-01
  0.241357E-01  0.210876E-01  0.185470E-01  0.164739E-01  0.148213E-01  0.135387E-01
  0.125751E-01  0.118868E-01  0.114431E-01  0.112255E-01  0.112255E-01  0.114431E-01
  0.118868E-01  0.125751E-01  0.135387E-01  0.148213E-01  0.164739E-01  0.185470E-01
  0.210876E-01  0.241357E-01  0.277066E-01  0.317585E-01  0.361630E-01  0.407002E-01
  0.450852E-01  0.490175E-01  0.522465E-01  0.546304E-01  0.561538E-01  0.568829E-01
  0.608584E-01  0.605687E-01  0.596200E-01  0.578306E-01  0.550493E-01  0.512805E-01
  0.467221E-01  0.417085E-01  0.366118E-01  0.317585E-01  0.273783E-01  0.235865E-01
  0.204015E-01  0.177851E-01  0.156798E-01  0.140265E-01  0.127660E-01  0.118424E-01
  0.112108E-01  0.108418E-01  0.107203E-01  0.108418E-01  0.112108E-01  0.118424E-01
  0.127660E-01  0.140265E-01  0.156798E-01  0.177851E-01  0.204015E-01  0.235865E-01
  0.273783E-01  0.317585E-01  0.366118E-01  0.417085E-01  0.467221E-01  0.512805E-01
  0.550493E-01  0.578306E-01  0.596200E-01  0.605687E-01  0.608584E-01  0.632468E-01
  0.628642E-01  0.618579E-01  0.598902E-01  0.567368E-01  0.524341E-01  0.472789E-01
  0.417085E-01  0.361630E-01  0.309936E-01  0.264215E-01  0.225346E-01  0.193208E-01
  0.167181E-01  0.146544E-01  0.130606E-01  0.118711E-01  0.110272E-01  0.104851E-01
  0.102192E-01  0.102192E-01  0.104851E-01  0.110272E-01  0.118711E-01  0.130606E-01
  0.146544E-01  0.167181E-01  0.193208E-01  0.225346E-01  0.264215E-01  0.309936E-01
  0.361630E-01  0.417085E-01  0.472789E-01  0.524341E-01  0.567368E-01  0.598902E-01
  0.618579E-01  0.628642E-01  0.632468E-01  0.632468E-01  0.643148E-01  0.640315E-01
  0.630464E-01  0.608806E-01  0.572976E-01  0.524341E-01  0.467221E-01  0.407002E-01
  0.348526E-01  0.295281E-01  0.249165E-01  0.210656E-01  0.179289E-01  0.154243E-01
  0.134690E-01  0.119873E-01  0.109095E-01  0.101769E-01  0.975009E-02  0.960958E-02
  0.975009E-02  0.101769E-01  0.109095E-01  0.119873E-01  0.134690E-01  0.154243E-01
  0.179289E-01  0.210656E-01  0.249165E-01  0.295281E-01  0.348526E-01  0.407002E-01
  0.467221E-01  0.524341E-01  0.572976E-01  0.608806E-01  0.630464E-01  0.640315E-01
  0.643148E-01  0.643485E-01  0.643148E-01  0.646071E-01  0.644719E-01  0.634098E-01
  0.608806E-01  0.567368E-01  0.512805E-01  0.450852E-01  0.387577E-01  0.327855E-01
  0.274815E-01  0.229837E-01  0.192907E-01  0.163248E-01  0.139899E-01  0.121978E-01
  0.108690E-01  0.993257E-02  0.933392E-02  0.904098E-02  0.904098E-02  0.933392E-02
  0.993257E-02  0.108690E-01  0.121978E-01  0.139899E-01  0.163248E-01  0.192907E-01
  0.229837E-01  0.274815E-01  0.327855E-01  0.387577E-01  0.450852E-01  0.512805E-01
  0.567368E-01  0.608806E-01  0.634098E-01  0.644719E-01  0.646071E-01  0.644628E-01
  0.644628E-01  0.646071E-01  0.646360E-01  0.644719E-01  0.630464E-01  0.598902E-01
  0.550493E-01  0.490175E-01  0.424704E-01  0.360244E-01  0.301229E-01  0.250130E-01
  0.207659E-01  0.173318E-01  0.146102E-01  0.124993E-01  0.109095E-01  0.976028E-02
  0.898353E-02  0.853268E-02  0.838449E-02  0.853268E-02  0.898353E-02  0.976028E-02
  0.109095E-01  0.124993E-01  0.146102E-01  0.173318E-01  0.207659E-01  0.250130E-01
  0.301229E-01  0.360244E-01  0.424704E-01  0.490175E-01  0.550493E-01  0.598902E-01
  0.630464E-01  0.644719E-01  0.646360E-01  0.642914E-01  0.640920E-01  0.642914E-01
  0.646360E-01  0.646071E-01  0.640315E-01  0.618579E-01  0.578306E-01  0.522465E-01
  0.457528E-01  0.390504E-01  0.327008E-01  0.270636E-01  0.222992E-01  0.184095E-01
  0.153064E-01  0.128792E-01  0.110272E-01  0.966180E-02  0.870471E-02  0.809547E-02
  0.779810E-02  0.779810E-02  0.809547E-02  0.870471E-02  0.966180E-02  0.110272E-01
  0.128792E-01  0.153064E-01  0.184095E-01  0.222992E-01  0.270636E-01  0.327008E-01
  0.390504E-01  0.457528E-01  0.522465E-01  0.578306E-01  0.618579E-01  0.640315E-01
  0.646071E-01  0.642914E-01  0.638809E-01  0.638809E-01  0.642914E-01  0.646071E-01
  0.643148E-01  0.628642E-01  0.596200E-01  0.546304E-01  0.484132E-01  0.416756E-01
  0.350597E-01  0.290231E-01  0.238172E-01  0.195108E-01  0.160469E-01  0.133168E-01
  0.112108E-01  0.963287E-02  0.849757E-02  0.773329E-02  0.729089E-02  0.714569E-02
  0.729089E-02  0.773329E-02  0.849757E-02  0.963287E-02  0.112108E-01  0.133168E-01
  0.160469E-01  0.195108E-01  0.238172E-01  0.290231E-01  0.350597E-01  0.416756E-01
  0.484132E-01  0.546304E-01  0.596200E-01  0.628642E-01  0.643148E-01  0.644628E-01
  0.640920E-01  0.638809E-01  0.640920E-01  0.644628E-01  0.643148E-01  0.632468E-01
  0.605687E-01  0.561538E-01  0.503363E-01  0.437480E-01  0.370511E-01  0.307694E-01
  0.252319E-01  0.205769E-01  0.167925E-01  0.137853E-01  0.114431E-01  0.966398E-02
  0.835765E-02  0.744496E-02  0.686535E-02  0.658288E-02  0.658288E-02  0.686535E-02
  0.744496E-02  0.835765E-02  0.966398E-02  0.114431E-01  0.137853E-01  0.167925E-01
  0.205769E-01  0.252319E-01  0.307694E-01  0.370511E-01  0.437480E-01  0.503363E-01
  0.561538E-01  0.605687E-01  0.632468E-01  0.643485E-01  0.644628E-01  0.642914E-01
  0.642914E-01  0.644628E-01  0.643485E-01  0.632468E-01  0.608584E-01  0.568829E-01
  0.514845E-01  0.451683E-01  0.385541E-01  0.321876E-01  0.264504E-01  0.215410E-01
  0.174974E-01  0.142532E-01  0.117025E-01  0.974131E-02  0.827676E-02  0.722561E-02
  0.651908E-02  0.611065E-02  0.597671E-02  0.611065E-02  0.651908E-02  0.722561E-02
  0.827676E-02  0.974131E-02  0.117025E-01  0.142532E-01  0.174974E-01  0.215410E-01
  0.264504E-01  0.321876E-01  0.385541E-01  0.451683E-01  0.514845E-01  0.568829E-01
  0.608584E-01  0.632468E-01  0.643148E-01  0.646071E-01  0.646360E-01  0.646071E-01
  0.643148E-01  0.632468E-01  0.608584E-01  0.575969E-01  0.517906E-01  0.453305E-01
  0.387075E-01  0.323673E-01  0.266364E-01  0.216945E-01  0.175840E-01  0.142532E-01
  0.116095E-01  0.955532E-02  0.799931E-02  0.685770E-02  0.605933E-02  0.555230E-02
  0.530563E-02  0.530563E-02  0.555230E-02  0.605933E-02  0.685770E-02  0.799931E-02
  0.955532E-02  0.116095E-01  0.142532E-01  0.175840E-01  0.216945E-01  0.266364E-01
  0.323673E-01  0.387075E-01  0.453305E-01  0.517906E-01  0.575969E-01  0.623312E-01
  0.657687E-01  0.679156E-01  0.689216E-01  0.689216E-01  0.679156E-01  0.657687E-01
  0.623312E-01  0.575969E-01  0.517906E-01  0.457517E-01  0.394182E-01  0.332200E-01
  0.275013E-01  0.224788E-01  0.182371E-01  0.147570E-01  0.119642E-01  0.976934E-02
  0.808439E-02  0.682649E-02  0.592187E-02  0.531282E-02  0.496110E-02  0.484601E-02
  0.496110E-02  0.531282E-02  0.592187E-02  0.682649E-02  0.808439E-02  0.976934E-02
  0.119642E-01  0.147570E-01  0.182371E-01  0.224788E-01  0.275013E-01  0.332200E-01
  0.394182E-01  0.457517E-01  0.517906E-01  0.570977E-01  0.613304E-01  0.643180E-01
  0.660576E-01  0.666237E-01  0.660576E-01  0.643180E-01  0.613304E-01  0.570977E-01
  0.517906E-01  0.453305E-01  0.394182E-01  0.335111E-01  0.279506E-01  0.229751E-01
  0.187029E-01  0.151483E-01  0.122607E-01  0.996398E-02  0.817790E-02  0.682365E-02
  0.582799E-02  0.513030E-02  0.468726E-02  0.447212E-02  0.447212E-02  0.468726E-02
  0.513030E-02  0.582799E-02  0.682365E-02  0.817790E-02  0.996398E-02  0.122607E-01
  0.151483E-01  0.187029E-01  0.229751E-01  0.279506E-01  0.335111E-01  0.394182E-01
  0.453305E-01  0.508513E-01  0.556012E-01  0.592937E-01  0.617775E-01  0.630146E-01
  0.630146E-01  0.617775E-01  0.592937E-01  0.556012E-01  0.508513E-01  0.453305E-01
  0.387075E-01  0.332200E-01  0.279506E-01  0.231449E-01  0.189454E-01  0.153965E-01
  0.124737E-01  0.101191E-01  0.826403E-02  0.683691E-02  0.576789E-02  0.499615E-02
  0.447568E-02  0.417557E-02  0.407759E-02  0.417557E-02  0.447568E-02  0.499615E-02
  0.576789E-02  0.683691E-02  0.826403E-02  0.101191E-01  0.124737E-01  0.153965E-01
  0.189454E-01  0.231449E-01  0.279506E-01  0.332200E-01  0.387075E-01  0.440882E-01
  0.490050E-01  0.531285E-01  0.562095E-01  0.581001E-01  0.587356E-01  0.581001E-01
  0.562095E-01  0.531285E-01  0.490050E-01  0.440882E-01  0.387075E-01  0.323673E-01
  0.275013E-01  0.229751E-01  0.189454E-01  0.154815E-01  0.125849E-01  0.102188E-01
  0.832931E-02  0.685504E-02  0.573219E-02  0.490207E-02  0.431811E-02  0.394730E-02
  0.376770E-02  0.376770E-02  0.394730E-02  0.431811E-02  0.490207E-02  0.573219E-02
  0.685504E-02  0.832931E-02  0.102188E-01  0.125849E-01  0.154815E-01  0.189454E-01
  0.229751E-01  0.275013E-01  0.323673E-01  0.373312E-01  0.420918E-01  0.463310E-01
  0.497615E-01  0.521627E-01  0.533955E-01  0.533955E-01  0.521627E-01  0.497615E-01
  0.463310E-01  0.420918E-01  0.373312E-01  0.323673E-01  0.266364E-01  0.224788E-01
  0.187029E-01  0.153965E-01  0.125849E-01  0.102532E-01  0.836431E-02  0.686938E-02
  0.571299E-02  0.484078E-02  0.420736E-02  0.377924E-02  0.353276E-02  0.345248E-02
  0.353276E-02  0.377924E-02  0.420736E-02  0.484078E-02  0.571299E-02  0.686938E-02
  0.836431E-02  0.102532E-01  0.125849E-01  0.153965E-01  0.187029E-01  0.224788E-01
  0.266364E-01  0.310132E-01  0.353784E-01  0.394581E-01  0.429721E-01  0.456717E-01
  0.473681E-01  0.479464E-01  0.473681E-01  0.456717E-01  0.429721E-01  0.394581E-01
  0.353784E-01  0.310132E-01  0.266364E-01  0.216945E-01  0.182371E-01  0.151483E-01
  0.124737E-01  0.102188E-01  0.836431E-02  0.687473E-02  0.570477E-02  0.480651E-02
  0.413745E-02  0.366477E-02  0.336450E-02  0.321928E-02  0.321928E-02  0.336450E-02
  0.366477E-02  0.413745E-02  0.480651E-02  0.570477E-02  0.687473E-02  0.836431E-02
  0.102188E-01  0.124737E-01  0.151483E-01  0.182371E-01  0.216945E-01  0.254203E-01
  0.292532E-01  0.329785E-01  0.363524E-01  0.391331E-01  0.411129E-01  0.421418E-01
  0.421418E-01  0.411129E-01  0.391331E-01  0.363524E-01  0.329785E-01  0.292532E-01
  0.254203E-01  0.216945E-01  0.175840E-01  0.147570E-01  0.122607E-01  0.101191E-01
  0.832931E-02  0.686938E-02  0.570477E-02  0.479552E-02  0.410378E-02  0.359859E-02
  0.325636E-02  0.305923E-02  0.299501E-02  0.305923E-02  0.325636E-02  0.359859E-02
  0.410378E-02  0.479552E-02  0.570477E-02  0.686938E-02  0.832931E-02  0.101191E-01
  0.122607E-01  0.147570E-01  0.175840E-01  0.206810E-01  0.239410E-01  0.272087E-01
  0.302900E-01  0.329736E-01  0.350585E-01  0.363807E-01  0.368338E-01  0.363807E-01
  0.350585E-01  0.329736E-01  0.302900E-01  0.272087E-01  0.239410E-01  0.206810E-01
  0.175840E-01  0.142532E-01  0.119642E-01  0.996398E-02  0.826403E-02  0.685504E-02
  0.571299E-02  0.480651E-02  0.410378E-02  0.357699E-02  0.320359E-02  0.296580E-02
  0.285053E-02  0.285053E-02  0.296580E-02  0.320359E-02  0.357699E-02  0.410378E-02
  0.480651E-02  0.571299E-02  0.685504E-02  0.826403E-02  0.996398E-02  0.119642E-01
  0.142532E-01  0.167925E-01  0.195108E-01  0.222992E-01  0.250130E-01  0.274815E-01
  0.295281E-01  0.309936E-01  0.317585E-01  0.317585E-01  0.309936E-01  0.295281E-01
  0.274815E-01  0.250130E-01  0.222992E-01  0.195108E-01  0.167925E-01  0.142532E-01
  0.116095E-01  0.976934E-02  0.817790E-02  0.683691E-02  0.573219E-02  0.484078E-02
  0.413745E-02  0.359859E-02  0.320359E-02  0.293510E-02  0.277971E-02  0.272889E-02
  0.277971E-02  0.293510E-02  0.320359E-02  0.359859E-02  0.413745E-02  0.484078E-02
  0.573219E-02  0.683691E-02  0.817790E-02  0.976934E-02  0.116095E-01  0.136752E-01
  0.159177E-01  0.182599E-01  0.205956E-01  0.227935E-01  0.247085E-01  0.261991E-01
  0.271465E-01  0.274715E-01  0.271465E-01  0.261991E-01  0.247085E-01  0.227935E-01
  0.205956E-01  0.182599E-01  0.159177E-01  0.136752E-01  0.116095E-01  0.955532E-02
  0.808439E-02  0.682365E-02  0.576789E-02  0.490207E-02  0.420736E-02  0.366477E-02
  0.325636E-02  0.296580E-02  0.277971E-02  0.268891E-02  0.268891E-02  0.277971E-02
  0.296580E-02  0.325636E-02  0.366477E-02  0.420736E-02  0.490207E-02  0.576789E-02
  0.682365E-02  0.808439E-02  0.955532E-02  0.112255E-01  0.130634E-01  0.150140E-01
  0.169990E-01  0.189181E-01  0.206562E-01  0.220940E-01  0.231230E-01  0.236600E-01
  0.236600E-01  0.231230E-01  0.220940E-01  0.206562E-01  0.189181E-01  0.169990E-01
  0.150140E-01  0.130634E-01  0.112255E-01  0.955532E-02  0.799931E-02  0.682649E-02
  0.582799E-02  0.499615E-02  0.431811E-02  0.377924E-02  0.336450E-02  0.305923E-02
  0.285053E-02  0.272889E-02  0.268891E-02  0.272889E-02  0.285053E-02  0.305923E-02
  0.336450E-02  0.377924E-02  0.431811E-02  0.499615E-02  0.582799E-02  0.682649E-02
  0.799931E-02  0.934379E-02  0.108418E-01  0.124563E-01  0.141299E-01  0.157864E-01
  0.173348E-01  0.186773E-01  0.197188E-01  0.203796E-01  0.206061E-01  0.203796E-01
  0.197188E-01  0.186773E-01  0.173348E-01  0.157864E-01  0.141299E-01  0.124563E-01
  0.108418E-01  0.934379E-02  0.799931E-02  0.685770E-02  0.592187E-02  0.513030E-02
  0.447568E-02  0.394730E-02  0.353276E-02  0.321928E-02  0.299501E-02  0.285053E-02
  0.277971E-02  0.277971E-02  0.285053E-02  0.299501E-02  0.321928E-02  0.353276E-02
  0.394730E-02  0.447568E-02  0.513030E-02  0.592187E-02  0.685770E-02  0.793873E-02
  0.915565E-02  0.104851E-01  0.118869E-01  0.133044E-01  0.146665E-01  0.158934E-01
  0.169039E-01  0.176249E-01  0.180005E-01  0.180005E-01  0.176249E-01  0.169039E-01
  0.158934E-01  0.146665E-01  0.133044E-01  0.118869E-01  0.104851E-01  0.915565E-02
  0.793873E-02  0.685770E-02  0.605933E-02  0.531282E-02  0.468726E-02  0.417557E-02
  0.376770E-02  0.345248E-02  0.321928E-02  0.305923E-02  0.296580E-02  0.293510E-02
  0.296580E-02  0.305923E-02  0.321928E-02  0.345248E-02  0.376770E-02  0.417557E-02
  0.468726E-02  0.531282E-02  0.605933E-02  0.692898E-02  0.791693E-02  0.900858E-02
  0.101769E-01  0.113810E-01  0.125668E-01  0.136703E-01  0.146233E-01  0.153602E-01
  0.158266E-01  0.159863E-01  0.158266E-01  0.153602E-01  0.146233E-01  0.136703E-01
  0.125668E-01  0.113810E-01  0.101769E-01  0.900858E-02  0.791693E-02  0.692898E-02
  0.605933E-02  0.555230E-02  0.496110E-02  0.447212E-02  0.407759E-02  0.376770E-02
  0.353276E-02  0.336450E-02  0.325636E-02  0.320359E-02  0.320359E-02  0.325636E-02
  0.336450E-02  0.353276E-02  0.376770E-02  0.407759E-02  0.447212E-02  0.496110E-02
  0.555230E-02  0.624935E-02  0.705002E-02  0.794486E-02  0.891540E-02  0.993257E-02
  0.109561E-01  0.119360E-01  0.128159E-01  0.135388E-01  0.140532E-01  0.143208E-01
  0.143208E-01  0.140532E-01  0.135388E-01  0.128159E-01  0.119360E-01  0.109561E-01
  0.993257E-02  0.891540E-02  0.794486E-02  0.705002E-02  0.624935E-02  0.555230E-02
  0.530563E-02  0.484601E-02  0.447212E-02  0.417557E-02  0.394730E-02  0.377924E-02
  0.366477E-02  0.359859E-02  0.357699E-02  0.359859E-02  0.366477E-02  0.377924E-02
  0.394730E-02  0.417557E-02  0.447212E-02  0.484601E-02  0.530563E-02  0.585644E-02
  0.649892E-02  0.722746E-02  0.802931E-02  0.888355E-02  0.976028E-02  0.106209E-01
  0.114199E-01  0.121087E-01  0.126403E-01  0.129762E-01  0.130911E-01  0.129762E-01
  0.126403E-01  0.121087E-01  0.114199E-01  0.106209E-01  0.976028E-02  0.888355E-02
  0.802931E-02  0.722746E-02  0.649892E-02  0.585644E-02  0.530563E-02  0.530563E-02
  0.496110E-02  0.468726E-02  0.447568E-02  0.431811E-02  0.420736E-02  0.413745E-02
  0.410378E-02  0.410378E-02  0.413745E-02  0.420736E-02  0.431811E-02  0.447568E-02
  0.468726E-02  0.496110E-02  0.530563E-02  0.572769E-02  0.623045E-02  0.681200E-02
  0.746443E-02  0.817299E-02  0.891540E-02  0.966180E-02  0.103757E-01  0.110163E-01
  0.115421E-01  0.119162E-01  0.121106E-01  0.121106E-01  0.119162E-01  0.115421E-01
  0.110163E-01  0.103757E-01  0.966180E-02  0.891540E-02  0.817299E-02  0.746443E-02
  0.681200E-02  0.623045E-02  0.572769E-02  0.530563E-02  0.555230E-02  0.531282E-02
  0.513030E-02  0.499615E-02  0.490207E-02  0.484078E-02  0.480651E-02  0.479552E-02
  0.480651E-02  0.484078E-02  0.490207E-02  0.499615E-02  0.513030E-02  0.531282E-02
  0.555230E-02  0.585644E-02  0.623045E-02  0.667571E-02  0.718874E-02  0.776033E-02
  0.837460E-02  0.900858E-02  0.963287E-02  0.102135E-01  0.107145E-01  0.111017E-01
  0.113467E-01  0.114306E-01  0.113467E-01  0.111017E-01  0.107145E-01  0.102135E-01
  0.963287E-02  0.900858E-02  0.837460E-02  0.776033E-02  0.718874E-02  0.667571E-02
  0.623045E-02  0.585644E-02  0.555230E-02  0.605933E-02  0.592187E-02  0.582799E-02
  0.576789E-02  0.573219E-02  0.571299E-02  0.570477E-02  0.570477E-02  0.571299E-02
  0.573219E-02  0.576789E-02  0.582799E-02  0.592187E-02  0.605933E-02  0.624935E-02
  0.649892E-02  0.681200E-02  0.718874E-02  0.762478E-02  0.811017E-02  0.862824E-02
  0.915565E-02  0.966398E-02  0.101223E-01  0.104999E-01  0.107695E-01  0.109100E-01
  0.109100E-01  0.107695E-01  0.104999E-01  0.101223E-01  0.966398E-02  0.915565E-02
  0.862824E-02  0.811017E-02  0.762478E-02  0.718874E-02  0.681200E-02  0.649892E-02
  0.624935E-02  0.605933E-02  0.685770E-02  0.682649E-02  0.682365E-02  0.683691E-02
  0.685504E-02  0.686938E-02  0.687473E-02  0.686938E-02  0.685504E-02  0.683691E-02
  0.682365E-02  0.682649E-02  0.685770E-02  0.692898E-02  0.705002E-02  0.722746E-02
  0.746443E-02  0.776033E-02  0.811017E-02  0.850324E-02  0.892219E-02  0.934379E-02
  0.974131E-02  0.100874E-01  0.103566E-01  0.105277E-01  0.105865E-01  0.105277E-01
  0.103566E-01  0.100874E-01  0.974131E-02  0.934379E-02  0.892219E-02  0.850324E-02
  0.811017E-02  0.776033E-02  0.746443E-02  0.722746E-02  0.705002E-02  0.692898E-02
  0.685770E-02  0.799931E-02  0.808439E-02  0.817790E-02  0.826403E-02  0.832931E-02
  0.836431E-02  0.836431E-02  0.832931E-02  0.826403E-02  0.817790E-02  0.808439E-02
  0.799931E-02  0.793873E-02  0.791693E-02  0.794486E-02  0.802931E-02  0.817299E-02
  0.837460E-02  0.862824E-02  0.892219E-02  0.923869E-02  0.955532E-02  0.984773E-02
  0.100922E-01  0.102683E-01  0.103604E-01  0.103604E-01  0.102683E-01  0.100922E-01
  0.984773E-02  0.955532E-02  0.923869E-02  0.892219E-02  0.862824E-02  0.837460E-02
  0.817299E-02  0.802931E-02  0.794486E-02  0.791693E-02  0.793873E-02  0.799931E-02
  0.955532E-02  0.976934E-02  0.996398E-02  0.101191E-01  0.102188E-01  0.102532E-01
  0.102188E-01  0.101191E-01  0.996398E-02  0.976934E-02  0.955532E-02  0.934379E-02
  0.915565E-02  0.900858E-02  0.891540E-02  0.888355E-02  0.891540E-02  0.900858E-02
  0.915565E-02  0.934379E-02  0.955532E-02  0.976934E-02  0.996398E-02  0.101191E-01
  0.102188E-01  0.102532E-01  0.102188E-01  0.101191E-01  0.996398E-02  0.976934E-02
  0.955532E-02  0.934379E-02  0.915565E-02  0.900858E-02  0.891540E-02  0.888355E-02
  0.891540E-02  0.900858E-02  0.915565E-02  0.934379E-02  0.955532E-02  0.116095E-01
  0.119642E-01  0.122607E-01  0.124737E-01  0.125849E-01  0.125849E-01  0.124737E-01
  0.122607E-01  0.119642E-01  0.116095E-01  0.112255E-01  0.108418E-01  0.104851E-01
  0.101769E-01  0.993257E-02  0.976028E-02  0.966180E-02  0.963287E-02  0.966398E-02
  0.974131E-02  0.984773E-02  0.996398E-02  0.100707E-01  0.101512E-01  0.101942E-01
  0.101942E-01  0.101512E-01  0.100707E-01  0.996398E-02  0.984773E-02  0.974131E-02
  0.966398E-02  0.963287E-02  0.966180E-02  0.976028E-02  0.993257E-02  0.101769E-01
  0.104851E-01  0.108418E-01  0.112255E-01  0.116095E-01  0.142532E-01  0.147570E-01
  0.151483E-01  0.153965E-01  0.154815E-01  0.153965E-01  0.151483E-01  0.147570E-01
  0.142532E-01  0.136752E-01  0.130634E-01  0.124563E-01  0.118869E-01  0.113810E-01
  0.109561E-01  0.106209E-01  0.103757E-01  0.102135E-01  0.101223E-01  0.100874E-01
  0.100922E-01  0.101191E-01  0.101512E-01  0.101755E-01  0.101844E-01  0.101755E-01
  0.101512E-01  0.101191E-01  0.100922E-01  0.100874E-01  0.101223E-01  0.102135E-01
  0.103757E-01  0.106209E-01  0.109561E-01  0.113810E-01  0.118869E-01  0.124563E-01
  0.130634E-01  0.136752E-01  0.142532E-01  0.175840E-01  0.182371E-01  0.187029E-01
  0.189454E-01  0.189454E-01  0.187029E-01  0.182371E-01  0.175840E-01  0.167925E-01
  0.159177E-01  0.150140E-01  0.141299E-01  0.133044E-01  0.125668E-01  0.119360E-01
  0.114199E-01  0.110163E-01  0.107145E-01  0.104999E-01  0.103566E-01  0.102683E-01
  0.102188E-01  0.101942E-01  0.101844E-01  0.101844E-01  0.101942E-01  0.102188E-01
  0.102683E-01  0.103566E-01  0.104999E-01  0.107145E-01  0.110163E-01  0.114199E-01
  0.119360E-01  0.125668E-01  0.133044E-01  0.141299E-01  0.150140E-01  0.159177E-01
  0.167925E-01  0.175840E-01  0.216945E-01  0.224788E-01  0.229751E-01  0.231449E-01
  0.229751E-01  0.224788E-01  0.216945E-01  0.206810E-01  0.195108E-01  0.182599E-01
  0.169990E-01  0.157864E-01  0.146665E-01  0.136703E-01  0.128159E-01  0.121087E-01
  0.115421E-01  0.111017E-01  0.107695E-01  0.105277E-01  0.103604E-01  0.102532E-01
  0.101942E-01  0.101755E-01  0.101942E-01  0.102532E-01  0.103604E-01  0.105277E-01
  0.107695E-01  0.111017E-01  0.115421E-01  0.121087E-01  0.128159E-01  0.136703E-01
  0.146665E-01  0.157864E-01  0.169990E-01  0.182599E-01  0.195108E-01  0.206810E-01
  0.216945E-01  0.266364E-01  0.275013E-01  0.279506E-01  0.279506E-01  0.275013E-01
  0.266364E-01  0.254203E-01  0.239410E-01  0.222992E-01  0.205956E-01  0.189181E-01
  0.173348E-01  0.158934E-01  0.146233E-01  0.135388E-01  0.126403E-01  0.119162E-01
  0.113467E-01  0.109100E-01  0.105865E-01  0.103604E-01  0.102188E-01  0.101512E-01
  0.101512E-01  0.102188E-01  0.103604E-01  0.105865E-01  0.109100E-01  0.113467E-01
  0.119162E-01  0.126403E-01  0.135388E-01  0.146233E-01  0.158934E-01  0.173348E-01
  0.189181E-01  0.205956E-01  0.222992E-01  0.239410E-01  0.254203E-01  0.266364E-01
  0.323673E-01  0.332200E-01  0.335111E-01  0.332200E-01  0.323673E-01  0.310132E-01
  0.292532E-01  0.272087E-01  0.250130E-01  0.227935E-01  0.206562E-01  0.186773E-01
  0.169039E-01  0.153602E-01  0.140532E-01  0.129762E-01  0.121106E-01  0.114306E-01
  0.109100E-01  0.105277E-01  0.102683E-01  0.101191E-01  0.100707E-01  0.101191E-01
  0.102683E-01  0.105277E-01  0.109100E-01  0.114306E-01  0.121106E-01  0.129762E-01
  0.140532E-01  0.153602E-01  0.169039E-01  0.186773E-01  0.206562E-01  0.227935E-01
  0.250130E-01  0.272087E-01  0.292532E-01  0.310132E-01  0.323673E-01  0.387075E-01
  0.394182E-01  0.394182E-01  0.387075E-01  0.373312E-01  0.353784E-01  0.329785E-01
  0.302900E-01  0.274815E-01  0.247085E-01  0.220940E-01  0.197188E-01  0.176249E-01
  0.158266E-01  0.143208E-01  0.130911E-01  0.121106E-01  0.113467E-01  0.107695E-01
  0.103566E-01  0.100922E-01  0.996398E-02  0.996398E-02  0.100922E-01  0.103566E-01
  0.107695E-01  0.113467E-01  0.121106E-01  0.130911E-01  0.143208E-01  0.158266E-01
  0.176249E-01  0.197188E-01  0.220940E-01  0.247085E-01  0.274815E-01  0.302900E-01
  0.329785E-01  0.353784E-01  0.373312E-01  0.387075E-01  0.453305E-01  0.457517E-01
  0.453305E-01  0.440882E-01  0.420918E-01  0.394581E-01  0.363524E-01  0.329736E-01
  0.295281E-01  0.261991E-01  0.231230E-01  0.203796E-01  0.180005E-01  0.159863E-01
  0.143208E-01  0.129762E-01  0.119162E-01  0.111017E-01  0.104999E-01  0.100874E-01
  0.984773E-02  0.976934E-02  0.984773E-02  0.100874E-01  0.104999E-01  0.111017E-01
  0.119162E-01  0.129762E-01  0.143208E-01  0.159863E-01  0.180005E-01  0.203796E-01
  0.231230E-01  0.261991E-01  0.295281E-01  0.329736E-01  0.363524E-01  0.394581E-01
  0.420918E-01  0.440882E-01  0.453305E-01  0.517906E-01  0.517906E-01  0.508513E-01
  0.490050E-01  0.463310E-01  0.429721E-01  0.391331E-01  0.350585E-01  0.309936E-01
  0.271465E-01  0.236600E-01  0.206061E-01  0.180005E-01  0.158266E-01  0.140532E-01
  0.126403E-01  0.115421E-01  0.107145E-01  0.101223E-01  0.974131E-02  0.955532E-02
  0.955532E-02  0.974131E-02  0.101223E-01  0.107145E-01  0.115421E-01  0.126403E-01
  0.140532E-01  0.158266E-01  0.180005E-01  0.206061E-01  0.236600E-01  0.271465E-01
  0.309936E-01  0.350585E-01  0.391331E-01  0.429721E-01  0.463310E-01  0.490050E-01
  0.508513E-01  0.517906E-01  0.575969E-01  0.570977E-01  0.556012E-01  0.531285E-01
  0.497615E-01  0.456717E-01  0.411129E-01  0.363807E-01  0.317585E-01  0.274715E-01
  0.236600E-01  0.203796E-01  0.176249E-01  0.153602E-01  0.135388E-01  0.121087E-01
  0.110163E-01  0.102135E-01  0.966398E-02  0.934379E-02  0.923869E-02  0.934379E-02
  0.966398E-02  0.102135E-01  0.110163E-01  0.121087E-01  0.135388E-01  0.153602E-01
  0.176249E-01  0.203796E-01  0.236600E-01  0.274715E-01  0.317585E-01  0.363807E-01
  0.411129E-01  0.456717E-01  0.497615E-01  0.531285E-01  0.556012E-01  0.570977E-01
  0.575969E-01  0.623312E-01  0.613304E-01  0.592937E-01  0.562095E-01  0.521627E-01
  0.473681E-01  0.421418E-01  0.368338E-01  0.317585E-01  0.271465E-01  0.231230E-01
  0.197188E-01  0.169039E-01  0.146233E-01  0.128159E-01  0.114199E-01  0.103757E-01
  0.963287E-02  0.915565E-02  0.892219E-02  0.892219E-02  0.915565E-02  0.963287E-02
  0.103757E-01  0.114199E-01  0.128159E-01  0.146233E-01  0.169039E-01  0.197188E-01
  0.231230E-01  0.271465E-01  0.317585E-01  0.368338E-01  0.421418E-01  0.473681E-01
  0.521627E-01  0.562095E-01  0.592937E-01  0.613304E-01  0.623312E-01  0.623312E-01
  0.657687E-01  0.643180E-01  0.617775E-01  0.581001E-01  0.533955E-01  0.479464E-01
  0.421418E-01  0.363807E-01  0.309936E-01  0.261991E-01  0.220940E-01  0.186773E-01
  0.158934E-01  0.136703E-01  0.119360E-01  0.106209E-01  0.966180E-02  0.900858E-02
  0.862824E-02  0.850324E-02  0.862824E-02  0.900858E-02  0.966180E-02  0.106209E-01
  0.119360E-01  0.136703E-01  0.158934E-01  0.186773E-01  0.220940E-01  0.261991E-01
  0.309936E-01  0.363807E-01  0.421418E-01  0.479464E-01  0.533955E-01  0.581001E-01
  0.617775E-01  0.643180E-01  0.657687E-01  0.662352E-01  0.657687E-01  0.679156E-01
  0.660576E-01  0.630146E-01  0.587356E-01  0.533955E-01  0.473681E-01  0.411129E-01
  0.350585E-01  0.295281E-01  0.247085E-01  0.206562E-01  0.173348E-01  0.146665E-01
  0.125668E-01  0.109561E-01  0.976028E-02  0.891540E-02  0.837460E-02  0.811017E-02
  0.811017E-02  0.837460E-02  0.891540E-02  0.976028E-02  0.109561E-01  0.125668E-01
  0.146665E-01  0.173348E-01  0.206562E-01  0.247085E-01  0.295281E-01  0.350585E-01
  0.411129E-01  0.473681E-01  0.533955E-01  0.587356E-01  0.630146E-01  0.660576E-01
  0.679156E-01  0.687698E-01  0.687698E-01  0.679156E-01  0.689216E-01  0.666237E-01
  0.630146E-01  0.581001E-01  0.521627E-01  0.456717E-01  0.391331E-01  0.329736E-01
  0.274815E-01  0.227935E-01  0.189181E-01  0.157864E-01  0.133044E-01  0.113810E-01
  0.993257E-02  0.888355E-02  0.817299E-02  0.776033E-02  0.762478E-02  0.776033E-02
  0.817299E-02  0.888355E-02  0.993257E-02  0.113810E-01  0.133044E-01  0.157864E-01
  0.189181E-01  0.227935E-01  0.274815E-01  0.329736E-01  0.391331E-01  0.456717E-01
  0.521627E-01  0.581001E-01  0.630146E-01  0.666237E-01  0.689216E-01  0.701241E-01
  0.704877E-01  0.701241E-01  0.689216E-01  0.689216E-01  0.660576E-01  0.617775E-01
  0.562095E-01  0.497615E-01  0.429721E-01  0.363524E-01  0.302900E-01  0.250130E-01
  0.205956E-01  0.169990E-01  0.141299E-01  0.118869E-01  0.101769E-01  0.891540E-02
  0.802931E-02  0.746443E-02  0.718874E-02  0.718874E-02  0.746443E-02  0.802931E-02
  0.891540E-02  0.101769E-01  0.118869E-01  0.141299E-01  0.169990E-01  0.205956E-01
  0.250130E-01  0.302900E-01  0.363524E-01  0.429721E-01  0.497615E-01  0.562095E-01
  0.617775E-01  0.660576E-01  0.689216E-01  0.705399E-01  0.712299E-01  0.712299E-01
  0.705399E-01  0.689216E-01  0.679156E-01  0.643180E-01  0.592937E-01  0.531285E-01
  0.463310E-01  0.394581E-01  0.329785E-01  0.272087E-01  0.222992E-01  0.182599E-01
  0.150140E-01  0.124563E-01  0.104851E-01  0.900858E-02  0.794486E-02  0.722746E-02
  0.681200E-02  0.667571E-02  0.681200E-02  0.722746E-02  0.794486E-02  0.900858E-02
  0.104851E-01  0.124563E-01  0.150140E-01  0.182599E-01  0.222992E-01  0.272087E-01
  0.329785E-01  0.394581E-01  0.463310E-01  0.531285E-01  0.592937E-01  0.643180E-01
  0.679156E-01  0.701241E-01  0.712299E-01  0.715532E-01  0.712299E-01  0.701241E-01
  0.679156E-01  0.657687E-01  0.613304E-01  0.556012E-01  0.490050E-01  0.420918E-01
  0.353784E-01  0.292532E-01  0.239410E-01  0.195108E-01  0.159177E-01  0.130634E-01
  0.108418E-01  0.915565E-02  0.791693E-02  0.705002E-02  0.649892E-02  0.623045E-02
  0.623045E-02  0.649892E-02  0.705002E-02  0.791693E-02  0.915565E-02  0.108418E-01
  0.130634E-01  0.159177E-01  0.195108E-01  0.239410E-01  0.292532E-01  0.353784E-01
  0.420918E-01  0.490050E-01  0.556012E-01  0.613304E-01  0.657687E-01  0.687698E-01
  0.704877E-01  0.712299E-01  0.712299E-01  0.704877E-01  0.687698E-01  0.657687E-01
  0.623312E-01  0.570977E-01  0.508513E-01  0.440882E-01  0.373312E-01  0.310132E-01
  0.254203E-01  0.206810E-01  0.167925E-01  0.136752E-01  0.112255E-01  0.934379E-02
  0.793873E-02  0.692898E-02  0.624935E-02  0.585644E-02  0.572769E-02  0.585644E-02
  0.624935E-02  0.692898E-02  0.793873E-02  0.934379E-02  0.112255E-01  0.136752E-01
  0.167925E-01  0.206810E-01  0.254203E-01  0.310132E-01  0.373312E-01  0.440882E-01
  0.508513E-01  0.570977E-01  0.623312E-01  0.662352E-01  0.687698E-01  0.701241E-01
  0.705399E-01  0.701241E-01  0.687698E-01  0.662352E-01  0.623312E-01  0.575969E-01
  0.517906E-01  0.453305E-01  0.387075E-01  0.323673E-01  0.266364E-01  0.216945E-01
  0.175840E-01  0.142532E-01  0.116095E-01  0.955532E-02  0.799931E-02  0.685770E-02
  0.605933E-02  0.555230E-02  0.530563E-02  0.530563E-02  0.555230E-02  0.605933E-02
  0.685770E-02  0.799931E-02  0.955532E-02  0.116095E-01  0.142532E-01  0.175840E-01
  0.216945E-01  0.266364E-01  0.323673E-01  0.387075E-01  0.453305E-01  0.517906E-01
  0.575969E-01  0.623312E-01  0.657687E-01  0.679156E-01  0.689216E-01  0.689216E-01
  0.679156E-01  0.657687E-01  0.623312E-01  0.575969E-01  0.517947E-01  0.453993E-01
  0.388818E-01  0.326350E-01  0.269537E-01  0.220076E-01  0.178470E-01  0.144373E-01
  0.117025E-01  0.955532E-02  0.790852E-02  0.667868E-02  0.579302E-02  0.519619E-02
  0.485169E-02  0.473907E-02  0.485169E-02  0.519619E-02  0.579302E-02  0.667868E-02
  0.790852E-02  0.955532E-02  0.117025E-01  0.144373E-01  0.178470E-01  0.220076E-01
  0.269537E-01  0.326350E-01  0.388818E-01  0.453993E-01  0.517947E-01  0.576338E-01
  0.625173E-01  0.661508E-01  0.683705E-01  0.691144E-01  0.683705E-01  0.661508E-01
  0.625173E-01  0.576338E-01  0.517947E-01  0.453993E-01  0.392769E-01  0.332681E-01
  0.276844E-01  0.227299E-01  0.184939E-01  0.149749E-01  0.121178E-01  0.984773E-02
  0.808439E-02  0.674772E-02  0.576403E-02  0.507397E-02  0.463575E-02  0.442313E-02
  0.442313E-02  0.463575E-02  0.507397E-02  0.576403E-02  0.674772E-02  0.808439E-02
  0.984773E-02  0.121178E-01  0.149749E-01  0.184939E-01  0.227299E-01  0.276844E-01
  0.332681E-01  0.392769E-01  0.453993E-01  0.512508E-01  0.564317E-01  0.605922E-01
  0.634809E-01  0.649545E-01  0.649545E-01  0.634809E-01  0.605922E-01  0.564317E-01
  0.512508E-01  0.453993E-01  0.388818E-01  0.332681E-01  0.279348E-01  0.231063E-01
  0.189039E-01  0.153585E-01  0.124406E-01  0.100922E-01  0.824434E-02  0.682365E-02
  0.575898E-02  0.498963E-02  0.447058E-02  0.417145E-02  0.407387E-02  0.417145E-02
  0.447058E-02  0.498963E-02  0.575898E-02  0.682365E-02  0.824434E-02  0.100922E-01
  0.124406E-01  0.153585E-01  0.189039E-01  0.231063E-01  0.279348E-01  0.332681E-01
  0.388818E-01  0.444640E-01  0.496528E-01  0.540894E-01  0.574703E-01  0.595795E-01
  0.602953E-01  0.595795E-01  0.574703E-01  0.540894E-01  0.496528E-01  0.444640E-01
  0.388818E-01  0.326350E-01  0.276844E-01  0.231063E-01  0.190444E-01  0.155583E-01
  0.126455E-01  0.102683E-01  0.837211E-02  0.689386E-02  0.576789E-02  0.493489E-02
  0.434865E-02  0.397652E-02  0.379642E-02  0.379642E-02  0.397652E-02  0.434865E-02
  0.493489E-02  0.576789E-02  0.689386E-02  0.837211E-02  0.102683E-01  0.126455E-01
  0.155583E-01  0.190444E-01  0.231063E-01  0.276844E-01  0.326350E-01  0.377266E-01
  0.426591E-01  0.471020E-01  0.507399E-01  0.533135E-01  0.546448E-01  0.546448E-01
  0.533135E-01  0.507399E-01  0.471020E-01  0.426591E-01  0.377266E-01  0.326350E-01
  0.269537E-01  0.227299E-01  0.189039E-01  0.155583E-01  0.127157E-01  0.103604E-01
  0.845454E-02  0.694743E-02  0.578174E-02  0.490207E-02  0.426297E-02  0.383112E-02
  0.358268E-02  0.350182E-02  0.358268E-02  0.383112E-02  0.426297E-02  0.490207E-02
  0.578174E-02  0.694743E-02  0.845454E-02  0.103604E-01  0.127157E-01  0.155583E-01
  0.189039E-01  0.227299E-01  0.269537E-01  0.314191E-01  0.358980E-01  0.401117E-01
  0.437665E-01  0.465927E-01  0.483779E-01  0.489882E-01  0.483779E-01  0.465927E-01
  0.437665E-01  0.401117E-01  0.358980E-01  0.314191E-01  0.269537E-01  0.220076E-01
  0.184939E-01  0.153585E-01  0.126455E-01  0.103604E-01  0.848302E-02  0.697635E-02
  0.579324E-02  0.488453E-02  0.420736E-02  0.372901E-02  0.342534E-02  0.327860E-02
  0.327860E-02  0.342534E-02  0.372901E-02  0.420736E-02  0.488453E-02  0.579324E-02
  0.697635E-02  0.848302E-02  0.103604E-01  0.126455E-01  0.153585E-01  0.184939E-01
  0.220076E-01  0.258010E-01  0.297139E-01  0.335305E-01  0.370004E-01  0.398713E-01
  0.419220E-01  0.429902E-01  0.429902E-01  0.419220E-01  0.398713E-01  0.370004E-01
  0.335305E-01  0.297139E-01  0.258010E-01  0.220076E-01  0.178470E-01  0.149749E-01
  0.124406E-01  0.102683E-01  0.845454E-02  0.697635E-02  0.579763E-02  0.487716E-02
  0.417655E-02  0.366477E-02  0.331823E-02  0.311879E-02  0.305387E-02  0.311879E-02
  0.331823E-02  0.366477E-02  0.417655E-02  0.487716E-02  0.579763E-02  0.697635E-02
  0.845454E-02  0.102683E-01  0.124406E-01  0.149749E-01  0.178470E-01  0.209958E-01
  0.243140E-01  0.276449E-01  0.307916E-01  0.335376E-01  0.356751E-01  0.370327E-01
  0.374983E-01  0.370327E-01  0.356751E-01  0.335376E-01  0.307916E-01  0.276449E-01
  0.243140E-01  0.209958E-01  0.178470E-01  0.144373E-01  0.121178E-01  0.100922E-01
  0.837211E-02  0.694743E-02  0.579324E-02  0.487716E-02  0.416675E-02  0.363398E-02
  0.325636E-02  0.301601E-02  0.289958E-02  0.289958E-02  0.301601E-02  0.325636E-02
  0.363398E-02  0.416675E-02  0.487716E-02  0.579324E-02  0.694743E-02  0.837211E-02
  0.100922E-01  0.121178E-01  0.144373E-01  0.170118E-01  0.197689E-01  0.225987E-01
  0.253543E-01  0.278629E-01  0.299446E-01  0.314366E-01  0.322157E-01  0.322157E-01
  0.314366E-01  0.299446E-01  0.278629E-01  0.253543E-01  0.225987E-01  0.197689E-01
  0.170118E-01  0.144373E-01  0.117025E-01  0.984773E-02  0.824434E-02  0.689386E-02
  0.578174E-02  0.488453E-02  0.417655E-02  0.363398E-02  0.323617E-02  0.296580E-02
  0.280940E-02  0.275826E-02  0.280940E-02  0.296580E-02  0.323617E-02  0.363398E-02
  0.417655E-02  0.488453E-02  0.578174E-02  0.689386E-02  0.824434E-02  0.984773E-02
  0.117025E-01  0.137853E-01  0.160469E-01  0.184095E-01  0.207659E-01  0.229837E-01
  0.249165E-01  0.264215E-01  0.273783E-01  0.277066E-01  0.273783E-01  0.264215E-01
  0.249165E-01  0.229837E-01  0.207659E-01  0.184095E-01  0.160469E-01  0.137853E-01
  0.117025E-01  0.955532E-02  0.808439E-02  0.682365E-02  0.576789E-02  0.490207E-02
  0.420736E-02  0.366477E-02  0.325636E-02  0.296580E-02  0.277971E-02  0.268891E-02
  0.268891E-02  0.277971E-02  0.296580E-02  0.325636E-02  0.366477E-02  0.420736E-02
  0.490207E-02  0.576789E-02  0.682365E-02  0.808439E-02  0.955532E-02  0.112255E-01
  0.130634E-01  0.150140E-01  0.169990E-01  0.189181E-01  0.206562E-01  0.220940E-01
  0.231230E-01  0.236600E-01  0.236600E-01  0.231230E-01  0.220940E-01  0.206562E-01
  0.189181E-01  0.169990E-01  0.150140E-01  0.130634E-01  0.112255E-01  0.955532E-02
  0.790852E-02  0.674772E-02  0.575898E-02  0.493489E-02  0.426297E-02  0.372901E-02
  0.331823E-02  0.301601E-02  0.280940E-02  0.268891E-02  0.264927E-02  0.268891E-02
  0.280940E-02  0.301601E-02  0.331823E-02  0.372901E-02  0.426297E-02  0.493489E-02
  0.575898E-02  0.674772E-02  0.790852E-02  0.923869E-02  0.107203E-01  0.123167E-01
  0.139713E-01  0.156087E-01  0.171392E-01  0.184657E-01  0.194946E-01  0.201472E-01
  0.203709E-01  0.201472E-01  0.194946E-01  0.184657E-01  0.171392E-01  0.156087E-01
  0.139713E-01  0.123167E-01  0.107203E-01  0.923869E-02  0.790852E-02  0.667868E-02
  0.576403E-02  0.498963E-02  0.434865E-02  0.383112E-02  0.342534E-02  0.311879E-02
  0.289958E-02  0.275826E-02  0.268891E-02  0.268891E-02  0.275826E-02  0.289958E-02
  0.311879E-02  0.342534E-02  0.383112E-02  0.434865E-02  0.498963E-02  0.576403E-02
  0.667868E-02  0.773443E-02  0.892219E-02  0.102192E-01  0.115863E-01  0.129681E-01
  0.142955E-01  0.154904E-01  0.164741E-01  0.171756E-01  0.175410E-01  0.175410E-01
  0.171756E-01  0.164741E-01  0.154904E-01  0.142955E-01  0.129681E-01  0.115863E-01
  0.102192E-01  0.892219E-02  0.773443E-02  0.667868E-02  0.579302E-02  0.507397E-02
  0.447058E-02  0.397652E-02  0.358268E-02  0.327860E-02  0.305387E-02  0.289958E-02
  0.280940E-02  0.277971E-02  0.280940E-02  0.289958E-02  0.305387E-02  0.327860E-02
  0.358268E-02  0.397652E-02  0.447058E-02  0.507397E-02  0.579302E-02  0.662971E-02
  0.757943E-02  0.862824E-02  0.975009E-02  0.109055E-01  0.120424E-01  0.130995E-01
  0.140115E-01  0.147163E-01  0.151622E-01  0.153148E-01  0.151622E-01  0.147163E-01
  0.140115E-01  0.130995E-01  0.120424E-01  0.109055E-01  0.975009E-02  0.862824E-02
  0.757943E-02  0.662971E-02  0.579302E-02  0.519619E-02  0.463575E-02  0.417145E-02
  0.379642E-02  0.350182E-02  0.327860E-02  0.311879E-02  0.301601E-02  0.296580E-02
  0.296580E-02  0.301601E-02  0.311879E-02  0.327860E-02  0.350182E-02  0.379642E-02
  0.417145E-02  0.463575E-02  0.519619E-02  0.585595E-02  0.661297E-02  0.745836E-02
  0.837460E-02  0.933392E-02  0.102980E-01  0.112196E-01  0.120460E-01  0.127241E-01
  0.132064E-01  0.134571E-01  0.134571E-01  0.132064E-01  0.127241E-01  0.120460E-01
  0.112196E-01  0.102980E-01  0.933392E-02  0.837460E-02  0.745836E-02  0.661297E-02
  0.585595E-02  0.519619E-02  0.485169E-02  0.442313E-02  0.407387E-02  0.379642E-02
  0.358268E-02  0.342534E-02  0.331823E-02  0.325636E-02  0.323617E-02  0.325636E-02
  0.331823E-02  0.342534E-02  0.358268E-02  0.379642E-02  0.407387E-02  0.442313E-02
  0.485169E-02  0.536439E-02  0.596162E-02  0.663810E-02  0.738181E-02  0.817299E-02
  0.898353E-02  0.977755E-02  0.105132E-01  0.111462E-01  0.116342E-01  0.119423E-01
  0.120477E-01  0.119423E-01  0.116342E-01  0.111462E-01  0.105132E-01  0.977755E-02
  0.898353E-02  0.817299E-02  0.738181E-02  0.663810E-02  0.596162E-02  0.536439E-02
  0.485169E-02  0.473907E-02  0.442313E-02  0.417145E-02  0.397652E-02  0.383112E-02
  0.372901E-02  0.366477E-02  0.363398E-02  0.363398E-02  0.366477E-02  0.372901E-02
  0.383112E-02  0.397652E-02  0.417145E-02  0.442313E-02  0.473907E-02  0.512546E-02
  0.558518E-02  0.611628E-02  0.671112E-02  0.735570E-02  0.802931E-02  0.870471E-02
  0.934907E-02  0.992596E-02  0.103987E-01  0.107344E-01  0.109088E-01  0.109088E-01
  0.107344E-01  0.103987E-01  0.992596E-02  0.934907E-02  0.870471E-02  0.802931E-02
  0.735570E-02  0.671112E-02  0.611628E-02  0.558518E-02  0.512546E-02  0.473907E-02
  0.485169E-02  0.463575E-02  0.447058E-02  0.434865E-02  0.426297E-02  0.420736E-02
  0.417655E-02  0.416675E-02  0.417655E-02  0.420736E-02  0.426297E-02  0.434865E-02
  0.447058E-02  0.463575E-02  0.485169E-02  0.512546E-02  0.546195E-02  0.586227E-02
  0.632273E-02  0.683422E-02  0.738181E-02  0.794486E-02  0.849757E-02  0.901037E-02
  0.945202E-02  0.979274E-02  0.100079E-01  0.100815E-01  0.100079E-01  0.979274E-02
  0.945202E-02  0.901037E-02  0.849757E-02  0.794486E-02  0.738181E-02  0.683422E-02
  0.632273E-02  0.586227E-02  0.546195E-02  0.512546E-02  0.485169E-02  0.519619E-02
  0.507397E-02  0.498963E-02  0.493489E-02  0.490207E-02  0.488453E-02  0.487716E-02
  0.487716E-02  0.488453E-02  0.490207E-02  0.493489E-02  0.498963E-02  0.507397E-02
  0.519619E-02  0.536439E-02  0.558518E-02  0.586227E-02  0.619545E-02  0.657996E-02
  0.700599E-02  0.745836E-02  0.791693E-02  0.835765E-02  0.875431E-02  0.908068E-02
  0.931329E-02  0.943437E-02  0.943437E-02  0.931329E-02  0.908068E-02  0.875431E-02
  0.835765E-02  0.791693E-02  0.745836E-02  0.700599E-02  0.657996E-02  0.619545E-02
  0.586227E-02  0.558518E-02  0.536439E-02  0.519619E-02  0.579302E-02  0.576403E-02
  0.575898E-02  0.576789E-02  0.578174E-02  0.579324E-02  0.579763E-02  0.579324E-02
  0.578174E-02  0.576789E-02  0.575898E-02  0.576403E-02  0.579302E-02  0.585595E-02
  0.596162E-02  0.611628E-02  0.632273E-02  0.657996E-02  0.688272E-02  0.722094E-02
  0.757943E-02  0.793873E-02  0.827676E-02  0.857080E-02  0.879944E-02  0.894473E-02
  0.899459E-02  0.894473E-02  0.879944E-02  0.857080E-02  0.827676E-02  0.793873E-02
  0.757943E-02  0.722094E-02  0.688272E-02  0.657996E-02  0.632273E-02  0.611628E-02
  0.596162E-02  0.585595E-02  0.579302E-02  0.667868E-02  0.674772E-02  0.682365E-02
  0.689386E-02  0.694743E-02  0.697635E-02  0.697635E-02  0.694743E-02  0.689386E-02
  0.682365E-02  0.674772E-02  0.667868E-02  0.662971E-02  0.661297E-02  0.663810E-02
  0.671112E-02  0.683422E-02  0.700599E-02  0.722094E-02  0.746879E-02  0.773443E-02
  0.799931E-02  0.824357E-02  0.844791E-02  0.859524E-02  0.867249E-02  0.867249E-02
  0.859524E-02  0.844791E-02  0.824357E-02  0.799931E-02  0.773443E-02  0.746879E-02
  0.722094E-02  0.700599E-02  0.683422E-02  0.671112E-02  0.663810E-02  0.661297E-02
  0.662971E-02  0.667868E-02  0.790852E-02  0.808439E-02  0.824434E-02  0.837211E-02
  0.845454E-02  0.848302E-02  0.845454E-02  0.837211E-02  0.824434E-02  0.808439E-02
  0.790852E-02  0.773443E-02  0.757943E-02  0.745836E-02  0.738181E-02  0.735570E-02
  0.738181E-02  0.745836E-02  0.757943E-02  0.773443E-02  0.790852E-02  0.808439E-02
  0.824434E-02  0.837211E-02  0.845454E-02  0.848302E-02  0.845454E-02  0.837211E-02
  0.824434E-02  0.808439E-02  0.790852E-02  0.773443E-02  0.757943E-02  0.745836E-02
  0.738181E-02  0.735570E-02  0.738181E-02  0.745836E-02  0.757943E-02  0.773443E-02
  0.790852E-02  0.955532E-02  0.984773E-02  0.100922E-01  0.102683E-01  0.103604E-01
  0.103604E-01  0.102683E-01  0.100922E-01  0.984773E-02  0.955532E-02  0.923869E-02
  0.892219E-02  0.862824E-02  0.837460E-02  0.817299E-02  0.802931E-02  0.794486E-02
  0.791693E-02  0.793873E-02  0.799931E-02  0.808439E-02  0.817790E-02  0.826403E-02
  0.832931E-02  0.836431E-02  0.836431E-02  0.832931E-02  0.826403E-02  0.817790E-02
  0.808439E-02  0.799931E-02  0.793873E-02  0.791693E-02  0.794486E-02  0.802931E-02
  0.817299E-02  0.837460E-02  0.862824E-02  0.892219E-02  0.923869E-02  0.955532E-02
  0.117025E-01  0.121178E-01  0.124406E-01  0.126455E-01  0.127157E-01  0.126455E-01
  0.124406E-01  0.121178E-01  0.117025E-01  0.112255E-01  0.107203E-01  0.102192E-01
  0.975009E-02  0.933392E-02  0.898353E-02  0.870471E-02  0.849757E-02  0.835765E-02
  0.827676E-02  0.824357E-02  0.824434E-02  0.826403E-02  0.828859E-02  0.830734E-02
  0.831421E-02  0.830734E-02  0.828859E-02  0.826403E-02  0.824434E-02  0.824357E-02
  0.827676E-02  0.835765E-02  0.849757E-02  0.870471E-02  0.898353E-02  0.933392E-02
  0.975009E-02  0.102192E-01  0.107203E-01  0.112255E-01  0.117025E-01  0.144373E-01
  0.149749E-01  0.153585E-01  0.155583E-01  0.155583E-01  0.153585E-01  0.149749E-01
  0.144373E-01  0.137853E-01  0.130634E-01  0.123167E-01  0.115863E-01  0.109055E-01
  0.102980E-01  0.977755E-02  0.934907E-02  0.901037E-02  0.875431E-02  0.857080E-02
  0.844791E-02  0.837211E-02  0.832931E-02  0.830734E-02  0.829815E-02  0.829815E-02
  0.830734E-02  0.832931E-02  0.837211E-02  0.844791E-02  0.857080E-02  0.875431E-02
  0.901037E-02  0.934907E-02  0.977755E-02  0.102980E-01  0.109055E-01  0.115863E-01
  0.123167E-01  0.130634E-01  0.137853E-01  0.144373E-01  0.178470E-01  0.184939E-01
  0.189039E-01  0.190444E-01  0.189039E-01  0.184939E-01  0.178470E-01  0.170118E-01
  0.160469E-01  0.150140E-01  0.139713E-01  0.129681E-01  0.120424E-01  0.112196E-01
  0.105132E-01  0.992596E-02  0.945202E-02  0.908068E-02  0.879944E-02  0.859524E-02
  0.845454E-02  0.836431E-02  0.831421E-02  0.829815E-02  0.831421E-02  0.836431E-02
  0.845454E-02  0.859524E-02  0.879944E-02  0.908068E-02  0.945202E-02  0.992596E-02
  0.105132E-01  0.112196E-01  0.120424E-01  0.129681E-01  0.139713E-01  0.150140E-01
  0.160469E-01  0.170118E-01  0.178470E-01  0.220076E-01  0.227299E-01  0.231063E-01
  0.231063E-01  0.227299E-01  0.220076E-01  0.209958E-01  0.197689E-01  0.184095E-01
  0.169990E-01  0.156087E-01  0.142955E-01  0.130995E-01  0.120460E-01  0.111462E-01
  0.103987E-01  0.979274E-02  0.931329E-02  0.894473E-02  0.867249E-02  0.848302E-02
  0.836431E-02  0.830734E-02  0.830734E-02  0.836431E-02  0.848302E-02  0.867249E-02
  0.894473E-02  0.931329E-02  0.979274E-02  0.103987E-01  0.111462E-01  0.120460E-01
  0.130995E-01  0.142955E-01  0.156087E-01  0.169990E-01  0.184095E-01  0.197689E-01
  0.209958E-01  0.220076E-01  0.269537E-01  0.276844E-01  0.279348E-01  0.276844E-01
  0.269537E-01  0.258010E-01  0.243140E-01  0.225987E-01  0.207659E-01  0.189181E-01
  0.171392E-01  0.154904E-01  0.140115E-01  0.127241E-01  0.116342E-01  0.107344E-01
  0.100079E-01  0.943437E-02  0.899459E-02  0.867249E-02  0.845454E-02  0.832931E-02
  0.828859E-02  0.832931E-02  0.845454E-02  0.867249E-02  0.899459E-02  0.943437E-02
  0.100079E-01  0.107344E-01  0.116342E-01  0.127241E-01  0.140115E-01  0.154904E-01
  0.171392E-01  0.189181E-01  0.207659E-01  0.225987E-01  0.243140E-01  0.258010E-01
  0.269537E-01  0.326350E-01  0.332681E-01  0.332681E-01  0.326350E-01  0.314191E-01
  0.297139E-01  0.276449E-01  0.253543E-01  0.229837E-01  0.206562E-01  0.184657E-01
  0.164741E-01  0.147163E-01  0.132064E-01  0.119423E-01  0.109088E-01  0.100815E-01
  0.943437E-02  0.894473E-02  0.859524E-02  0.837211E-02  0.826403E-02  0.826403E-02
  0.837211E-02  0.859524E-02  0.894473E-02  0.943437E-02  0.100815E-01  0.109088E-01
  0.119423E-01  0.132064E-01  0.147163E-01  0.164741E-01  0.184657E-01  0.206562E-01
  0.229837E-01  0.253543E-01  0.276449E-01  0.297139E-01  0.314191E-01  0.326350E-01
  0.388818E-01  0.392769E-01  0.388818E-01  0.377266E-01  0.358980E-01  0.335305E-01
  0.307916E-01  0.278629E-01  0.249165E-01  0.220940E-01  0.194946E-01  0.171756E-01
  0.151622E-01  0.134571E-01  0.120477E-01  0.109088E-01  0.100079E-01  0.931329E-02
  0.879944E-02  0.844791E-02  0.824434E-02  0.817790E-02  0.824434E-02  0.844791E-02
  0.879944E-02  0.931329E-02  0.100079E-01  0.109088E-01  0.120477E-01  0.134571E-01
  0.151622E-01  0.171756E-01  0.194946E-01  0.220940E-01  0.249165E-01  0.278629E-01
  0.307916E-01  0.335305E-01  0.358980E-01  0.377266E-01  0.388818E-01  0.453993E-01
  0.453993E-01  0.444640E-01  0.426591E-01  0.401117E-01  0.370004E-01  0.335376E-01
  0.299446E-01  0.264215E-01  0.231230E-01  0.201472E-01  0.175410E-01  0.153148E-01
  0.134571E-01  0.119423E-01  0.107344E-01  0.979274E-02  0.908068E-02  0.857080E-02
  0.824357E-02  0.808439E-02  0.808439E-02  0.824357E-02  0.857080E-02  0.908068E-02
  0.979274E-02  0.107344E-01  0.119423E-01  0.134571E-01  0.153148E-01  0.175410E-01
  0.201472E-01  0.231230E-01  0.264215E-01  0.299446E-01  0.335376E-01  0.370004E-01
  0.401117E-01  0.426591E-01  0.444640E-01  0.453993E-01  0.517947E-01  0.512508E-01
  0.496528E-01  0.471020E-01  0.437665E-01  0.398713E-01  0.356751E-01  0.314366E-01
  0.273783E-01  0.236600E-01  0.203709E-01  0.175410E-01  0.151622E-01  0.132064E-01
  0.116342E-01  0.103987E-01  0.945202E-02  0.875431E-02  0.827676E-02  0.799931E-02
  0.790852E-02  0.799931E-02  0.827676E-02  0.875431E-02  0.945202E-02  0.103987E-01
  0.116342E-01  0.132064E-01  0.151622E-01  0.175410E-01  0.203709E-01  0.236600E-01
  0.273783E-01  0.314366E-01  0.356751E-01  0.398713E-01  0.437665E-01  0.471020E-01
  0.496528E-01  0.512508E-01  0.517947E-01  0.576338E-01  0.564317E-01  0.540894E-01
  0.507399E-01  0.465927E-01  0.419220E-01  0.370327E-01  0.322157E-01  0.277066E-01
  0.236600E-01  0.201472E-01  0.171756E-01  0.147163E-01  0.127241E-01  0.111462E-01
  0.992596E-02  0.901037E-02  0.835765E-02  0.793873E-02  0.773443E-02  0.773443E-02
  0.793873E-02  0.835765E-02  0.901037E-02  0.992596E-02  0.111462E-01  0.127241E-01
  0.147163E-01  0.171756E-01  0.201472E-01  0.236600E-01  0.277066E-01  0.322157E-01
  0.370327E-01  0.419220E-01  0.465927E-01  0.507399E-01  0.540894E-01  0.564317E-01
  0.576338E-01  0.576338E-01  0.625173E-01  0.605922E-01  0.574703E-01  0.533135E-01
  0.483779E-01  0.429902E-01  0.374983E-01  0.322157E-01  0.273783E-01  0.231230E-01
  0.194946E-01  0.164741E-01  0.140115E-01  0.120460E-01  0.105132E-01  0.934907E-02
  0.849757E-02  0.791693E-02  0.757943E-02  0.746879E-02  0.757943E-02  0.791693E-02
  0.849757E-02  0.934907E-02  0.105132E-01  0.120460E-01  0.140115E-01  0.164741E-01
  0.194946E-01  0.231230E-01  0.273783E-01  0.322157E-01  0.374983E-01  0.429902E-01
  0.483779E-01  0.533135E-01  0.574703E-01  0.605922E-01  0.625173E-01  0.631664E-01
  0.625173E-01  0.661508E-01  0.634809E-01  0.595795E-01  0.546448E-01  0.489882E-01
  0.429902E-01  0.370327E-01  0.314366E-01  0.264215E-01  0.220940E-01  0.184657E-01
  0.154904E-01  0.130995E-01  0.112196E-01  0.977755E-02  0.870471E-02  0.794486E-02
  0.745836E-02  0.722094E-02  0.722094E-02  0.745836E-02  0.794486E-02  0.870471E-02
  0.977755E-02  0.112196E-01  0.130995E-01  0.154904E-01  0.184657E-01  0.220940E-01
  0.264215E-01  0.314366E-01  0.370327E-01  0.429902E-01  0.489882E-01  0.546448E-01
  0.595795E-01  0.634809E-01  0.661508E-01  0.674985E-01  0.674985E-01  0.661508E-01
  0.683705E-01  0.649545E-01  0.602953E-01  0.546448E-01  0.483779E-01  0.419220E-01
  0.356751E-01  0.299446E-01  0.249165E-01  0.206562E-01  0.171392E-01  0.142955E-01
  0.120424E-01  0.102980E-01  0.898353E-02  0.802931E-02  0.738181E-02  0.700599E-02
  0.688272E-02  0.700599E-02  0.738181E-02  0.802931E-02  0.898353E-02  0.102980E-01
  0.120424E-01  0.142955E-01  0.171392E-01  0.206562E-01  0.249165E-01  0.299446E-01
  0.356751E-01  0.419220E-01  0.483779E-01  0.546448E-01  0.602953E-01  0.649545E-01
  0.683705E-01  0.704309E-01  0.711164E-01  0.704309E-01  0.683705E-01  0.691144E-01
  0.649545E-01  0.595795E-01  0.533135E-01  0.465927E-01  0.398713E-01  0.335376E-01
  0.278629E-01  0.229837E-01  0.189181E-01  0.156087E-01  0.129681E-01  0.109055E-01
  0.933392E-02  0.817299E-02  0.735570E-02  0.683422E-02  0.657996E-02  0.657996E-02
  0.683422E-02  0.735570E-02  0.817299E-02  0.933392E-02  0.109055E-01  0.129681E-01
  0.156087E-01  0.189181E-01  0.229837E-01  0.278629E-01  0.335376E-01  0.398713E-01
  0.465927E-01  0.533135E-01  0.595795E-01  0.649545E-01  0.691144E-01  0.718981E-01
  0.732786E-01  0.732786E-01  0.718981E-01  0.691144E-01  0.683705E-01  0.634809E-01
  0.574703E-01  0.507399E-01  0.437665E-01  0.370004E-01  0.307916E-01  0.253543E-01
  0.207659E-01  0.169990E-01  0.139713E-01  0.115863E-01  0.975009E-02  0.837460E-02
  0.738181E-02  0.671112E-02  0.632273E-02  0.619545E-02  0.632273E-02  0.671112E-02
  0.738181E-02  0.837460E-02  0.975009E-02  0.115863E-01  0.139713E-01  0.169990E-01
  0.207659E-01  0.253543E-01  0.307916E-01  0.370004E-01  0.437665E-01  0.507399E-01
  0.574703E-01  0.634809E-01  0.683705E-01  0.718981E-01  0.739938E-01  0.746844E-01
  0.739938E-01  0.718981E-01  0.683705E-01  0.661508E-01  0.605922E-01  0.540894E-01
  0.471020E-01  0.401117E-01  0.335305E-01  0.276449E-01  0.225987E-01  0.184095E-01
  0.150140E-01  0.123167E-01  0.102192E-01  0.862824E-02  0.745836E-02  0.663810E-02
  0.611628E-02  0.586227E-02  0.586227E-02  0.611628E-02  0.663810E-02  0.745836E-02
  0.862824E-02  0.102192E-01  0.123167E-01  0.150140E-01  0.184095E-01  0.225987E-01
  0.276449E-01  0.335305E-01  0.401117E-01  0.471020E-01  0.540894E-01  0.605922E-01
  0.661508E-01  0.704309E-01  0.732786E-01  0.746844E-01  0.746844E-01  0.732786E-01
  0.704309E-01  0.661508E-01  0.625173E-01  0.564317E-01  0.496528E-01  0.426591E-01
  0.358980E-01  0.297139E-01  0.243140E-01  0.197689E-01  0.160469E-01  0.130634E-01
  0.107203E-01  0.892219E-02  0.757943E-02  0.661297E-02  0.596162E-02  0.558518E-02
  0.546195E-02  0.558518E-02  0.596162E-02  0.661297E-02  0.757943E-02  0.892219E-02
  0.107203E-01  0.130634E-01  0.160469E-01  0.197689E-01  0.243140E-01  0.297139E-01
  0.358980E-01  0.426591E-01  0.496528E-01  0.564317E-01  0.625173E-01  0.674985E-01
  0.711164E-01  0.732786E-01  0.739938E-01  0.732786E-01  0.711164E-01  0.674985E-01
  0.625173E-01  0.576338E-01  0.512508E-01  0.444640E-01  0.377266E-01  0.314191E-01
  0.258010E-01  0.209958E-01  0.170118E-01  0.137853E-01  0.112255E-01  0.923869E-02
  0.773443E-02  0.662971E-02  0.585595E-02  0.536439E-02  0.512546E-02  0.512546E-02
  0.536439E-02  0.585595E-02  0.662971E-02  0.773443E-02  0.923869E-02  0.112255E-01
  0.137853E-01  0.170118E-01  0.209958E-01  0.258010E-01  0.314191E-01  0.377266E-01
  0.444640E-01  0.512508E-01  0.576338E-01  0.631664E-01  0.674985E-01  0.704309E-01
  0.718981E-01  0.718981E-01  0.704309E-01  0.674985E-01  0.631664E-01  0.576338E-01
  0.517947E-01  0.453993E-01  0.388818E-01  0.326350E-01  0.269537E-01  0.220076E-01
  0.178470E-01  0.144373E-01  0.117025E-01  0.955532E-02  0.790852E-02  0.667868E-02
  0.579302E-02  0.519619E-02  0.485169E-02  0.473907E-02  0.485169E-02  0.519619E-02
  0.579302E-02  0.667868E-02  0.790852E-02  0.955532E-02  0.117025E-01  0.144373E-01
  0.178470E-01  0.220076E-01  0.269537E-01  0.326350E-01  0.388818E-01  0.453993E-01
  0.517947E-01  0.576338E-01  0.625173E-01  0.661508E-01  0.683705E-01  0.691144E-01
  0.683705E-01  0.661508E-01  0.625173E-01  0.576338E-01  0.517947E-01  0.453714E-01
  0.390877E-01  0.330090E-01  0.274205E-01  0.224947E-01  0.182967E-01  0.148127E-01
  0.119857E-01  0.974131E-02  0.799931E-02  0.667868E-02  0.570597E-02  0.502318E-02
  0.458974E-02  0.437965E-02  0.437965E-02  0.458974E-02  0.502318E-02  0.570597E-02
  0.667868E-02  0.799931E-02  0.974131E-02  0.119857E-01  0.148127E-01  0.182967E-01
  0.224947E-01  0.274205E-01  0.330090E-01  0.390877E-01  0.453714E-01  0.514858E-01
  0.570135E-01  0.615519E-01  0.647684E-01  0.664337E-01  0.664337E-01  0.647684E-01
  0.615519E-01  0.570135E-01  0.514858E-01  0.453714E-01  0.390877E-01  0.333544E-01
  0.279593E-01  0.231059E-01  0.188963E-01  0.153496E-01  0.124328E-01  0.100874E-01
  0.824357E-02  0.682649E-02  0.576403E-02  0.499581E-02  0.447748E-02  0.417890E-02
  0.408154E-02  0.417890E-02  0.447748E-02  0.499581E-02  0.576403E-02  0.682649E-02
  0.824357E-02  0.100874E-01  0.124328E-01  0.153496E-01  0.188963E-01  0.231059E-01
  0.279593E-01  0.333544E-01  0.390877E-01  0.448589E-01  0.503011E-01  0.550273E-01
  0.586834E-01  0.609927E-01  0.617819E-01  0.609927E-01  0.586834E-01  0.550273E-01
  0.503011E-01  0.448589E-01  0.390877E-01  0.330090E-01  0.279593E-01  0.233155E-01
  0.192089E-01  0.156899E-01  0.127520E-01  0.103566E-01  0.844791E-02  0.696078E-02
  0.582799E-02  0.498963E-02  0.439951E-02  0.402493E-02  0.384367E-02  0.384367E-02
  0.402493E-02  0.439951E-02  0.498963E-02  0.582799E-02  0.696078E-02  0.844791E-02
  0.103566E-01  0.127520E-01  0.156899E-01  0.192089E-01  0.233155E-01  0.279593E-01
  0.330090E-01  0.382436E-01  0.433637E-01  0.480248E-01  0.518822E-01  0.546367E-01
  0.560707E-01  0.560707E-01  0.546367E-01  0.518822E-01  0.480248E-01  0.433637E-01
  0.382436E-01  0.330090E-01  0.274205E-01  0.231059E-01  0.192089E-01  0.158065E-01
  0.129185E-01  0.105277E-01  0.859524E-02  0.706820E-02  0.588733E-02  0.499615E-02
  0.434865E-02  0.391111E-02  0.365935E-02  0.357738E-02  0.365935E-02  0.391111E-02
  0.434865E-02  0.499615E-02  0.588733E-02  0.706820E-02  0.859524E-02  0.105277E-01
  0.129185E-01  0.158065E-01  0.192089E-01  0.231059E-01  0.274205E-01  0.320026E-01
  0.366262E-01  0.410067E-01  0.448340E-01  0.478136E-01  0.497055E-01  0.503541E-01
  0.497055E-01  0.478136E-01  0.448340E-01  0.410067E-01  0.366262E-01  0.320026E-01
  0.274205E-01  0.224947E-01  0.188963E-01  0.156899E-01  0.129185E-01  0.105865E-01
  0.867249E-02  0.713765E-02  0.593285E-02  0.500756E-02  0.431811E-02  0.383112E-02
  0.352190E-02  0.337241E-02  0.337241E-02  0.352190E-02  0.383112E-02  0.431811E-02
  0.500756E-02  0.593285E-02  0.713765E-02  0.867249E-02  0.105865E-01  0.129185E-01
  0.156899E-01  0.188963E-01  0.224947E-01  0.263887E-01  0.304189E-01  0.343666E-01
  0.379727E-01  0.409702E-01  0.431199E-01  0.442425E-01  0.442425E-01  0.431199E-01
  0.409702E-01  0.379727E-01  0.343666E-01  0.304189E-01  0.263887E-01  0.224947E-01
  0.182967E-01  0.153496E-01  0.127520E-01  0.105277E-01  0.867249E-02  0.716169E-02
  0.595753E-02  0.501737E-02  0.430185E-02  0.377924E-02  0.342534E-02  0.322159E-02
  0.315524E-02  0.322159E-02  0.342534E-02  0.377924E-02  0.430185E-02  0.501737E-02
  0.595753E-02  0.716169E-02  0.867249E-02  0.105277E-01  0.127520E-01  0.153496E-01
  0.182967E-01  0.215320E-01  0.249472E-01  0.283834E-01  0.316384E-01  0.344873E-01
  0.367110E-01  0.381263E-01  0.386122E-01  0.381263E-01  0.367110E-01  0.344873E-01
  0.316384E-01  0.283834E-01  0.249472E-01  0.215320E-01  0.182967E-01  0.148127E-01
  0.124328E-01  0.103566E-01  0.859524E-02  0.713765E-02  0.595753E-02  0.502117E-02
  0.429508E-02  0.375052E-02  0.336450E-02  0.311879E-02  0.299975E-02  0.299975E-02
  0.311879E-02  0.336450E-02  0.375052E-02  0.429508E-02  0.502117E-02  0.595753E-02
  0.713765E-02  0.859524E-02  0.103566E-01  0.124328E-01  0.148127E-01  0.174570E-01
  0.202918E-01  0.232048E-01  0.260454E-01  0.286355E-01  0.307885E-01  0.323339E-01
  0.331418E-01  0.331418E-01  0.323339E-01  0.307885E-01  0.286355E-01  0.260454E-01
  0.232048E-01  0.202918E-01  0.174570E-01  0.148127E-01  0.119857E-01  0.100874E-01
  0.844791E-02  0.706820E-02  0.593285E-02  0.501737E-02  0.429508E-02  0.374139E-02
  0.333527E-02  0.305923E-02  0.289958E-02  0.284741E-02  0.289958E-02  0.305923E-02
  0.333527E-02  0.374139E-02  0.429508E-02  0.501737E-02  0.593285E-02  0.706820E-02
  0.844791E-02  0.100874E-01  0.119857E-01  0.141192E-01  0.164378E-01  0.188616E-01
  0.212807E-01  0.235593E-01  0.255469E-01  0.270961E-01  0.280818E-01  0.284202E-01
  0.280818E-01  0.270961E-01  0.255469E-01  0.235593E-01  0.212807E-01  0.188616E-01
  0.164378E-01  0.141192E-01  0.119857E-01  0.974131E-02  0.824357E-02  0.696078E-02
  0.588733E-02  0.500756E-02  0.430185E-02  0.375052E-02  0.333527E-02  0.303974E-02
  0.285053E-02  0.275826E-02  0.275826E-02  0.285053E-02  0.303974E-02  0.333527E-02
  0.375052E-02  0.430185E-02  0.500756E-02  0.588733E-02  0.696078E-02  0.824357E-02
  0.974131E-02  0.114431E-01  0.133168E-01  0.153064E-01  0.173318E-01  0.192907E-01
  0.210656E-01  0.225346E-01  0.235865E-01  0.241357E-01  0.241357E-01  0.235865E-01
  0.225346E-01  0.210656E-01  0.192907E-01  0.173318E-01  0.153064E-01  0.133168E-01
  0.114431E-01  0.974131E-02  0.799931E-02  0.682649E-02  0.582799E-02  0.499615E-02
  0.431811E-02  0.377924E-02  0.336450E-02  0.305923E-02  0.285053E-02  0.272889E-02
  0.268891E-02  0.272889E-02  0.285053E-02  0.305923E-02  0.336450E-02  0.377924E-02
  0.431811E-02  0.499615E-02  0.582799E-02  0.682649E-02  0.799931E-02  0.934379E-02
  0.108418E-01  0.124563E-01  0.141299E-01  0.157864E-01  0.173348E-01  0.186773E-01
  0.197188E-01  0.203796E-01  0.206061E-01  0.203796E-01  0.197188E-01  0.186773E-01
  0.173348E-01  0.157864E-01  0.141299E-01  0.124563E-01  0.108418E-01  0.934379E-02
  0.799931E-02  0.667868E-02  0.576403E-02  0.498963E-02  0.434865E-02  0.383112E-02
  0.342534E-02  0.311879E-02  0.289958E-02  0.275826E-02  0.268891E-02  0.268891E-02
  0.275826E-02  0.289958E-02  0.311879E-02  0.342534E-02  0.383112E-02  0.434865E-02
  0.498963E-02  0.576403E-02  0.667868E-02  0.773443E-02  0.892219E-02  0.102192E-01
  0.115863E-01  0.129681E-01  0.142955E-01  0.154904E-01  0.164741E-01  0.171756E-01
  0.175410E-01  0.175410E-01  0.171756E-01  0.164741E-01  0.154904E-01  0.142955E-01
  0.129681E-01  0.115863E-01  0.102192E-01  0.892219E-02  0.773443E-02  0.667868E-02
  0.570597E-02  0.499581E-02  0.439951E-02  0.391111E-02  0.352190E-02  0.322159E-02
  0.299975E-02  0.284741E-02  0.275826E-02  0.272889E-02  0.275826E-02  0.284741E-02
  0.299975E-02  0.322159E-02  0.352190E-02  0.391111E-02  0.439951E-02  0.499581E-02
  0.570597E-02  0.653180E-02  0.746879E-02  0.850324E-02  0.960958E-02  0.107489E-01
  0.118698E-01  0.129118E-01  0.138107E-01  0.145052E-01  0.149445E-01  0.150949E-01
  0.149445E-01  0.145052E-01  0.138107E-01  0.129118E-01  0.118698E-01  0.107489E-01
  0.960958E-02  0.850324E-02  0.746879E-02  0.653180E-02  0.570597E-02  0.502318E-02
  0.447748E-02  0.402493E-02  0.365935E-02  0.337241E-02  0.315524E-02  0.299975E-02
  0.289958E-02  0.285053E-02  0.285053E-02  0.289958E-02  0.299975E-02  0.315524E-02
  0.337241E-02  0.365935E-02  0.402493E-02  0.447748E-02  0.502318E-02  0.566477E-02
  0.640019E-02  0.722094E-02  0.811017E-02  0.904098E-02  0.997613E-02  0.108697E-01
  0.116705E-01  0.123274E-01  0.127945E-01  0.130374E-01  0.130374E-01  0.127945E-01
  0.123274E-01  0.116705E-01  0.108697E-01  0.997613E-02  0.904098E-02  0.811017E-02
  0.722094E-02  0.640019E-02  0.566477E-02  0.502318E-02  0.458974E-02  0.417890E-02
  0.384367E-02  0.357738E-02  0.337241E-02  0.322159E-02  0.311879E-02  0.305923E-02
  0.303974E-02  0.305923E-02  0.311879E-02  0.322159E-02  0.337241E-02  0.357738E-02
  0.384367E-02  0.417890E-02  0.458974E-02  0.508035E-02  0.565095E-02  0.629659E-02
  0.700599E-02  0.776033E-02  0.853268E-02  0.928862E-02  0.998833E-02  0.105899E-01
  0.110535E-01  0.113462E-01  0.114463E-01  0.113462E-01  0.110535E-01  0.105899E-01
  0.998833E-02  0.928862E-02  0.853268E-02  0.776033E-02  0.700599E-02  0.629659E-02
  0.565095E-02  0.508035E-02  0.458974E-02  0.437965E-02  0.408154E-02  0.384367E-02
  0.365935E-02  0.352190E-02  0.342534E-02  0.336450E-02  0.333527E-02  0.333527E-02
  0.336450E-02  0.342534E-02  0.352190E-02  0.365935E-02  0.384367E-02  0.408154E-02
  0.437965E-02  0.474335E-02  0.517513E-02  0.567322E-02  0.623062E-02  0.683422E-02
  0.746443E-02  0.809547E-02  0.869654E-02  0.923386E-02  0.967365E-02  0.998585E-02
  0.101480E-01  0.101480E-01  0.998585E-02  0.967365E-02  0.923386E-02  0.869654E-02
  0.809547E-02  0.746443E-02  0.683422E-02  0.623062E-02  0.567322E-02  0.517513E-02
  0.474335E-02  0.437965E-02  0.437965E-02  0.417890E-02  0.402493E-02  0.391111E-02
  0.383112E-02  0.377924E-02  0.375052E-02  0.374139E-02  0.375052E-02  0.377924E-02
  0.383112E-02  0.391111E-02  0.402493E-02  0.417890E-02  0.437965E-02  0.463331E-02
  0.494418E-02  0.531333E-02  0.573743E-02  0.620801E-02  0.671112E-02  0.722746E-02
  0.773329E-02  0.820161E-02  0.860419E-02  0.891429E-02  0.910994E-02  0.917681E-02
  0.910994E-02  0.891429E-02  0.860419E-02  0.820161E-02  0.773329E-02  0.722746E-02
  0.671112E-02  0.620801E-02  0.573743E-02  0.531333E-02  0.494418E-02  0.463331E-02
  0.437965E-02  0.458974E-02  0.447748E-02  0.439951E-02  0.434865E-02  0.431811E-02
  0.430185E-02  0.429508E-02  0.429508E-02  0.430185E-02  0.431811E-02  0.434865E-02
  0.439951E-02  0.447748E-02  0.458974E-02  0.474335E-02  0.494418E-02  0.519568E-02
  0.549772E-02  0.584580E-02  0.623062E-02  0.663810E-02  0.705002E-02  0.744496E-02
  0.779965E-02  0.809089E-02  0.829803E-02  0.840569E-02  0.840569E-02  0.829803E-02
  0.809089E-02  0.779965E-02  0.744496E-02  0.705002E-02  0.663810E-02  0.623062E-02
  0.584580E-02  0.549772E-02  0.519568E-02  0.494418E-02  0.474335E-02  0.458974E-02
  0.502318E-02  0.499581E-02  0.498963E-02  0.499615E-02  0.500756E-02  0.501737E-02
  0.502117E-02  0.501737E-02  0.500756E-02  0.499615E-02  0.498963E-02  0.499581E-02
  0.502318E-02  0.508035E-02  0.517513E-02  0.531333E-02  0.549772E-02  0.572729E-02
  0.599679E-02  0.629659E-02  0.661297E-02  0.692898E-02  0.722561E-02  0.748316E-02
  0.768303E-02  0.780979E-02  0.785323E-02  0.780979E-02  0.768303E-02  0.748316E-02
  0.722561E-02  0.692898E-02  0.661297E-02  0.629659E-02  0.599679E-02  0.572729E-02
  0.549772E-02  0.531333E-02  0.517513E-02  0.508035E-02  0.502318E-02  0.570597E-02
  0.576403E-02  0.582799E-02  0.588733E-02  0.593285E-02  0.595753E-02  0.595753E-02
  0.593285E-02  0.588733E-02  0.582799E-02  0.576403E-02  0.570597E-02  0.566477E-02
  0.565095E-02  0.567322E-02  0.573743E-02  0.584580E-02  0.599679E-02  0.618480E-02
  0.640019E-02  0.662971E-02  0.685770E-02  0.706753E-02  0.724288E-02  0.736922E-02
  0.743542E-02  0.743542E-02  0.736922E-02  0.724288E-02  0.706753E-02  0.685770E-02
  0.662971E-02  0.640019E-02  0.618480E-02  0.599679E-02  0.584580E-02  0.573743E-02
  0.567322E-02  0.565095E-02  0.566477E-02  0.570597E-02  0.667868E-02  0.682649E-02
  0.696078E-02  0.706820E-02  0.713765E-02  0.716169E-02  0.713765E-02  0.706820E-02
  0.696078E-02  0.682649E-02  0.667868E-02  0.653180E-02  0.640019E-02  0.629659E-02
  0.623062E-02  0.620801E-02  0.623062E-02  0.629659E-02  0.640019E-02  0.653180E-02
  0.667868E-02  0.682649E-02  0.696078E-02  0.706820E-02  0.713765E-02  0.716169E-02
  0.713765E-02  0.706820E-02  0.696078E-02  0.682649E-02  0.667868E-02  0.653180E-02
  0.640019E-02  0.629659E-02  0.623062E-02  0.620801E-02  0.623062E-02  0.629659E-02
  0.640019E-02  0.653180E-02  0.667868E-02  0.799931E-02  0.824357E-02  0.844791E-02
  0.859524E-02  0.867249E-02  0.867249E-02  0.859524E-02  0.844791E-02  0.824357E-02
  0.799931E-02  0.773443E-02  0.746879E-02  0.722094E-02  0.700599E-02  0.683422E-02
  0.671112E-02  0.663810E-02  0.661297E-02  0.662971E-02  0.667868E-02  0.674772E-02
  0.682365E-02  0.689386E-02  0.694743E-02  0.697635E-02  0.697635E-02  0.694743E-02
  0.689386E-02  0.682365E-02  0.674772E-02  0.667868E-02  0.662971E-02  0.661297E-02
  0.663810E-02  0.671112E-02  0.683422E-02  0.700599E-02  0.722094E-02  0.746879E-02
  0.773443E-02  0.799931E-02  0.974131E-02  0.100874E-01  0.103566E-01  0.105277E-01
  0.105865E-01  0.105277E-01  0.103566E-01  0.100874E-01  0.974131E-02  0.934379E-02
  0.892219E-02  0.850324E-02  0.811017E-02  0.776033E-02  0.746443E-02  0.722746E-02
  0.705002E-02  0.692898E-02  0.685770E-02  0.682649E-02  0.682365E-02  0.683691E-02
  0.685504E-02  0.686938E-02  0.687473E-02  0.686938E-02  0.685504E-02  0.683691E-02
  0.682365E-02  0.682649E-02  0.685770E-02  0.692898E-02  0.705002E-02  0.722746E-02
  0.746443E-02  0.776033E-02  0.811017E-02  0.850324E-02  0.892219E-02  0.934379E-02
  0.974131E-02  0.119857E-01  0.124328E-01  0.127520E-01  0.129185E-01  0.129185E-01
  0.127520E-01  0.124328E-01  0.119857E-01  0.114431E-01  0.108418E-01  0.102192E-01
  0.960958E-02  0.904098E-02  0.853268E-02  0.809547E-02  0.773329E-02  0.744496E-02
  0.722561E-02  0.706753E-02  0.696078E-02  0.689386E-02  0.685504E-02  0.683443E-02
  0.682557E-02  0.682557E-02  0.683443E-02  0.685504E-02  0.689386E-02  0.696078E-02
  0.706753E-02  0.722561E-02  0.744496E-02  0.773329E-02  0.809547E-02  0.853268E-02
  0.904098E-02  0.960958E-02  0.102192E-01  0.108418E-01  0.114431E-01  0.119857E-01
  0.148127E-01  0.153496E-01  0.156899E-01  0.158065E-01  0.156899E-01  0.153496E-01
  0.148127E-01  0.141192E-01  0.133168E-01  0.124563E-01  0.115863E-01  0.107489E-01
  0.997613E-02  0.928862E-02  0.869654E-02  0.820161E-02  0.779965E-02  0.748316E-02
  0.724288E-02  0.706820E-02  0.694743E-02  0.686938E-02  0.682557E-02  0.681141E-02
  0.682557E-02  0.686938E-02  0.694743E-02  0.706820E-02  0.724288E-02  0.748316E-02
  0.779965E-02  0.820161E-02  0.869654E-02  0.928862E-02  0.997613E-02  0.107489E-01
  0.115863E-01  0.124563E-01  0.133168E-01  0.141192E-01  0.148127E-01  0.182967E-01
  0.188963E-01  0.192089E-01  0.192089E-01  0.188963E-01  0.182967E-01  0.174570E-01
  0.164378E-01  0.153064E-01  0.141299E-01  0.129681E-01  0.118698E-01  0.108697E-01
  0.998833E-02  0.923386E-02  0.860419E-02  0.809089E-02  0.768303E-02  0.736922E-02
  0.713765E-02  0.697635E-02  0.687473E-02  0.682557E-02  0.682557E-02  0.687473E-02
  0.697635E-02  0.713765E-02  0.736922E-02  0.768303E-02  0.809089E-02  0.860419E-02
  0.923386E-02  0.998833E-02  0.108697E-01  0.118698E-01  0.129681E-01  0.141299E-01
  0.153064E-01  0.164378E-01  0.174570E-01  0.182967E-01  0.224947E-01  0.231059E-01
  0.233155E-01  0.231059E-01  0.224947E-01  0.215320E-01  0.202918E-01  0.188616E-01
  0.173318E-01  0.157864E-01  0.142955E-01  0.129118E-01  0.116705E-01  0.105899E-01
  0.967365E-02  0.891429E-02  0.829803E-02  0.780979E-02  0.743542E-02  0.716169E-02
  0.697635E-02  0.686938E-02  0.683443E-02  0.686938E-02  0.697635E-02  0.716169E-02
  0.743542E-02  0.780979E-02  0.829803E-02  0.891429E-02  0.967365E-02  0.105899E-01
  0.116705E-01  0.129118E-01  0.142955E-01  0.157864E-01  0.173318E-01  0.188616E-01
  0.202918E-01  0.215320E-01  0.224947E-01  0.274205E-01  0.279593E-01  0.279593E-01
  0.274205E-01  0.263887E-01  0.249472E-01  0.232048E-01  0.212807E-01  0.192907E-01
  0.173348E-01  0.154904E-01  0.138107E-01  0.123274E-01  0.110535E-01  0.998585E-02
  0.910994E-02  0.840569E-02  0.785323E-02  0.743542E-02  0.713765E-02  0.694743E-02
  0.685504E-02  0.685504E-02  0.694743E-02  0.713765E-02  0.743542E-02  0.785323E-02
  0.840569E-02  0.910994E-02  0.998585E-02  0.110535E-01  0.123274E-01  0.138107E-01
  0.154904E-01  0.173348E-01  0.192907E-01  0.212807E-01  0.232048E-01  0.249472E-01
  0.263887E-01  0.274205E-01  0.330090E-01  0.333544E-01  0.330090E-01  0.320026E-01
  0.304189E-01  0.283834E-01  0.260454E-01  0.235593E-01  0.210656E-01  0.186773E-01
  0.164741E-01  0.145052E-01  0.127945E-01  0.113462E-01  0.101480E-01  0.917681E-02
  0.840569E-02  0.780979E-02  0.736922E-02  0.706820E-02  0.689386E-02  0.683691E-02
  0.689386E-02  0.706820E-02  0.736922E-02  0.780979E-02  0.840569E-02  0.917681E-02
  0.101480E-01  0.113462E-01  0.127945E-01  0.145052E-01  0.164741E-01  0.186773E-01
  0.210656E-01  0.235593E-01  0.260454E-01  0.283834E-01  0.304189E-01  0.320026E-01
  0.330090E-01  0.390877E-01  0.390877E-01  0.382436E-01  0.366262E-01  0.343666E-01
  0.316384E-01  0.286355E-01  0.255469E-01  0.225346E-01  0.197188E-01  0.171756E-01
  0.149445E-01  0.130374E-01  0.114463E-01  0.101480E-01  0.910994E-02  0.829803E-02
  0.768303E-02  0.724288E-02  0.696078E-02  0.682365E-02  0.682365E-02  0.696078E-02
  0.724288E-02  0.768303E-02  0.829803E-02  0.910994E-02  0.101480E-01  0.114463E-01
  0.130374E-01  0.149445E-01  0.171756E-01  0.197188E-01  0.225346E-01  0.255469E-01
  0.286355E-01  0.316384E-01  0.343666E-01  0.366262E-01  0.382436E-01  0.390877E-01
  0.453714E-01  0.448589E-01  0.433637E-01  0.410067E-01  0.379727E-01  0.344873E-01
  0.307885E-01  0.270961E-01  0.235865E-01  0.203796E-01  0.175410E-01  0.150949E-01
  0.130374E-01  0.113462E-01  0.998585E-02  0.891429E-02  0.809089E-02  0.748316E-02
  0.706753E-02  0.682649E-02  0.674772E-02  0.682649E-02  0.706753E-02  0.748316E-02
  0.809089E-02  0.891429E-02  0.998585E-02  0.113462E-01  0.130374E-01  0.150949E-01
  0.175410E-01  0.203796E-01  0.235865E-01  0.270961E-01  0.307885E-01  0.344873E-01
  0.379727E-01  0.410067E-01  0.433637E-01  0.448589E-01  0.453714E-01  0.514858E-01
  0.503011E-01  0.480248E-01  0.448340E-01  0.409702E-01  0.367110E-01  0.323339E-01
  0.280818E-01  0.241357E-01  0.206061E-01  0.175410E-01  0.149445E-01  0.127945E-01
  0.110535E-01  0.967365E-02  0.860419E-02  0.779965E-02  0.722561E-02  0.685770E-02
  0.667868E-02  0.667868E-02  0.685770E-02  0.722561E-02  0.779965E-02  0.860419E-02
  0.967365E-02  0.110535E-01  0.127945E-01  0.149445E-01  0.175410E-01  0.206061E-01
  0.241357E-01  0.280818E-01  0.323339E-01  0.367110E-01  0.409702E-01  0.448340E-01
  0.480248E-01  0.503011E-01  0.514858E-01  0.514858E-01  0.570135E-01  0.550273E-01
  0.518822E-01  0.478136E-01  0.431199E-01  0.381263E-01  0.331418E-01  0.284202E-01
  0.241357E-01  0.203796E-01  0.171756E-01  0.145052E-01  0.123274E-01  0.105899E-01
  0.923386E-02  0.820161E-02  0.744496E-02  0.692898E-02  0.662971E-02  0.653180E-02
  0.662971E-02  0.692898E-02  0.744496E-02  0.820161E-02  0.923386E-02  0.105899E-01
  0.123274E-01  0.145052E-01  0.171756E-01  0.203796E-01  0.241357E-01  0.284202E-01
  0.331418E-01  0.381263E-01  0.431199E-01  0.478136E-01  0.518822E-01  0.550273E-01
  0.570135E-01  0.576924E-01  0.570135E-01  0.615519E-01  0.586834E-01  0.546367E-01
  0.497055E-01  0.442425E-01  0.386122E-01  0.331418E-01  0.280818E-01  0.235865E-01
  0.197188E-01  0.164741E-01  0.138107E-01  0.116705E-01  0.998833E-02  0.869654E-02
  0.773329E-02  0.705002E-02  0.661297E-02  0.640019E-02  0.640019E-02  0.661297E-02
  0.705002E-02  0.773329E-02  0.869654E-02  0.998833E-02  0.116705E-01  0.138107E-01
  0.164741E-01  0.197188E-01  0.235865E-01  0.280818E-01  0.331418E-01  0.386122E-01
  0.442425E-01  0.497055E-01  0.546367E-01  0.586834E-01  0.615519E-01  0.630377E-01
  0.630377E-01  0.615519E-01  0.647684E-01  0.609927E-01  0.560707E-01  0.503541E-01
  0.442425E-01  0.381263E-01  0.323339E-01  0.270961E-01  0.225346E-01  0.186773E-01
  0.154904E-01  0.129118E-01  0.108697E-01  0.928862E-02  0.809547E-02  0.722746E-02
  0.663810E-02  0.629659E-02  0.618480E-02  0.629659E-02  0.663810E-02  0.722746E-02
  0.809547E-02  0.928862E-02  0.108697E-01  0.129118E-01  0.154904E-01  0.186773E-01
  0.225346E-01  0.270961E-01  0.323339E-01  0.381263E-01  0.442425E-01  0.503541E-01
  0.560707E-01  0.609927E-01  0.647684E-01  0.671365E-01  0.679426E-01  0.671365E-01
  0.647684E-01  0.664337E-01  0.617819E-01  0.560707E-01  0.497055E-01  0.431199E-01
  0.367110E-01  0.307885E-01  0.255469E-01  0.210656E-01  0.173348E-01  0.142955E-01
  0.118698E-01  0.997613E-02  0.853268E-02  0.746443E-02  0.671112E-02  0.623062E-02
  0.599679E-02  0.599679E-02  0.623062E-02  0.671112E-02  0.746443E-02  0.853268E-02
  0.997613E-02  0.118698E-01  0.142955E-01  0.173348E-01  0.210656E-01  0.255469E-01
  0.307885E-01  0.367110E-01  0.431199E-01  0.497055E-01  0.560707E-01  0.617819E-01
  0.664337E-01  0.697057E-01  0.713906E-01  0.713906E-01  0.697057E-01  0.664337E-01
  0.664337E-01  0.609927E-01  0.546367E-01  0.478136E-01  0.409702E-01  0.344873E-01
  0.286355E-01  0.235593E-01  0.192907E-01  0.157864E-01  0.129681E-01  0.107489E-01
  0.904098E-02  0.776033E-02  0.683422E-02  0.620801E-02  0.584580E-02  0.572729E-02
  0.584580E-02  0.620801E-02  0.683422E-02  0.776033E-02  0.904098E-02  0.107489E-01
  0.129681E-01  0.157864E-01  0.192907E-01  0.235593E-01  0.286355E-01  0.344873E-01
  0.409702E-01  0.478136E-01  0.546367E-01  0.609927E-01  0.664337E-01  0.705799E-01
  0.731649E-01  0.740416E-01  0.731649E-01  0.705799E-01  0.664337E-01  0.647684E-01
  0.586834E-01  0.518822E-01  0.448340E-01  0.379727E-01  0.316384E-01  0.260454E-01
  0.212807E-01  0.173318E-01  0.141299E-01  0.115863E-01  0.960958E-02  0.811017E-02
  0.700599E-02  0.623062E-02  0.573743E-02  0.549772E-02  0.549772E-02  0.573743E-02
  0.623062E-02  0.700599E-02  0.811017E-02  0.960958E-02  0.115863E-01  0.141299E-01
  0.173318E-01  0.212807E-01  0.260454E-01  0.316384E-01  0.379727E-01  0.448340E-01
  0.518822E-01  0.586834E-01  0.647684E-01  0.697057E-01  0.731649E-01  0.749405E-01
  0.749405E-01  0.731649E-01  0.697057E-01  0.647684E-01  0.615519E-01  0.550273E-01
  0.480248E-01  0.410067E-01  0.343666E-01  0.283834E-01  0.232048E-01  0.188616E-01
  0.153064E-01  0.124563E-01  0.102192E-01  0.850324E-02  0.722094E-02  0.629659E-02
  0.567322E-02  0.531333E-02  0.519568E-02  0.531333E-02  0.567322E-02  0.629659E-02
  0.722094E-02  0.850324E-02  0.102192E-01  0.124563E-01  0.153064E-01  0.188616E-01
  0.232048E-01  0.283834E-01  0.343666E-01  0.410067E-01  0.480248E-01  0.550273E-01
  0.615519E-01  0.671365E-01  0.713906E-01  0.740416E-01  0.749405E-01  0.740416E-01
  0.713906E-01  0.671365E-01  0.615519E-01  0.570135E-01  0.503011E-01  0.433637E-01
  0.366262E-01  0.304189E-01  0.249472E-01  0.202918E-01  0.164378E-01  0.133168E-01
  0.108418E-01  0.892219E-02  0.746879E-02  0.640019E-02  0.565095E-02  0.517513E-02
  0.494418E-02  0.494418E-02  0.517513E-02  0.565095E-02  0.640019E-02  0.746879E-02
  0.892219E-02  0.108418E-01  0.133168E-01  0.164378E-01  0.202918E-01  0.249472E-01
  0.304189E-01  0.366262E-01  0.433637E-01  0.503011E-01  0.570135E-01  0.630377E-01
  0.679426E-01  0.713906E-01  0.731649E-01  0.731649E-01  0.713906E-01  0.679426E-01
  0.630377E-01  0.570135E-01  0.514858E-01  0.448589E-01  0.382436E-01  0.320026E-01
  0.263887E-01  0.215320E-01  0.174570E-01  0.141192E-01  0.114431E-01  0.934379E-02
  0.773443E-02  0.653180E-02  0.566477E-02  0.508035E-02  0.474335E-02  0.463331E-02
  0.474335E-02  0.508035E-02  0.566477E-02  0.653180E-02  0.773443E-02  0.934379E-02
  0.114431E-01  0.141192E-01  0.174570E-01  0.215320E-01  0.263887E-01  0.320026E-01
  0.382436E-01  0.448589E-01  0.514858E-01  0.576924E-01  0.630377E-01  0.671365E-01
  0.697057E-01  0.705799E-01  0.697057E-01  0.671365E-01  0.630377E-01  0.576924E-01
  0.514858E-01  0.453714E-01  0.390877E-01  0.330090E-01  0.274205E-01  0.224947E-01
  0.182967E-01  0.148127E-01  0.119857E-01  0.974131E-02  0.799931E-02  0.667868E-02
  0.570597E-02  0.502318E-02  0.458974E-02  0.437965E-02  0.437965E-02  0.458974E-02
  0.502318E-02  0.570597E-02  0.667868E-02  0.799931E-02  0.974131E-02  0.119857E-01
  0.148127E-01  0.182967E-01  0.224947E-01  0.274205E-01  0.330090E-01  0.390877E-01
  0.453714E-01  0.514858E-01  0.570135E-01  0.615519E-01  0.647684E-01  0.664337E-01
  0.664337E-01  0.647684E-01  0.615519E-01  0.570135E-01  0.514858E-01  0.453714E-01
  0.393736E-01  0.335312E-01  0.280717E-01  0.231829E-01  0.189531E-01  0.153943E-01
  0.124707E-01  0.101223E-01  0.827676E-02  0.685770E-02  0.579302E-02  0.502318E-02
  0.450419E-02  0.420554E-02  0.410821E-02  0.420554E-02  0.450419E-02  0.502318E-02
  0.579302E-02  0.685770E-02  0.827676E-02  0.101223E-01  0.124707E-01  0.153943E-01
  0.189531E-01  0.231829E-01  0.280717E-01  0.335312E-01  0.393736E-01  0.453087E-01
  0.509650E-01  0.559322E-01  0.598153E-01  0.622884E-01  0.631375E-01  0.622884E-01
  0.598153E-01  0.559322E-01  0.509650E-01  0.453087E-01  0.393736E-01  0.335312E-01
  0.283657E-01  0.236364E-01  0.194655E-01  0.158974E-01  0.129226E-01  0.104999E-01
  0.857080E-02  0.706753E-02  0.592187E-02  0.507397E-02  0.447748E-02  0.409906E-02
  0.391595E-02  0.391595E-02  0.409906E-02  0.447748E-02  0.507397E-02  0.592187E-02
  0.706753E-02  0.857080E-02  0.104999E-01  0.129226E-01  0.158974E-01  0.194655E-01
  0.236364E-01  0.283657E-01  0.335312E-01  0.389192E-01  0.442298E-01  0.491053E-01
  0.531738E-01  0.560998E-01  0.576306E-01  0.576306E-01  0.560998E-01  0.531738E-01
  0.491053E-01  0.442298E-01  0.389192E-01  0.335312E-01  0.280717E-01  0.236364E-01
  0.196412E-01  0.161595E-01  0.132088E-01  0.107695E-01  0.879944E-02  0.724288E-02
  0.603886E-02  0.513030E-02  0.447058E-02  0.402493E-02  0.376838E-02  0.368479E-02
  0.376838E-02  0.402493E-02  0.447058E-02  0.513030E-02  0.603886E-02  0.724288E-02
  0.879944E-02  0.107695E-01  0.132088E-01  0.161595E-01  0.196412E-01  0.236364E-01
  0.280717E-01  0.328004E-01  0.375965E-01  0.421678E-01  0.461868E-01  0.493337E-01
  0.513409E-01  0.520307E-01  0.513409E-01  0.493337E-01  0.461868E-01  0.421678E-01
  0.375965E-01  0.328004E-01  0.280717E-01  0.231829E-01  0.194655E-01  0.161595E-01
  0.133068E-01  0.109100E-01  0.894473E-02  0.736922E-02  0.613237E-02  0.518272E-02
  0.447568E-02  0.397652E-02  0.365935E-02  0.350580E-02  0.350580E-02  0.365935E-02
  0.397652E-02  0.447568E-02  0.518272E-02  0.613237E-02  0.736922E-02  0.894473E-02
  0.109100E-01  0.133068E-01  0.161595E-01  0.194655E-01  0.231829E-01  0.272156E-01
  0.314030E-01  0.355210E-01  0.392993E-01  0.424537E-01  0.447242E-01  0.459130E-01
  0.459130E-01  0.447242E-01  0.424537E-01  0.392993E-01  0.355210E-01  0.314030E-01
  0.272156E-01  0.231829E-01  0.189531E-01  0.158974E-01  0.132088E-01  0.109100E-01
  0.899459E-02  0.743542E-02  0.619278E-02  0.522294E-02  0.448550E-02  0.394730E-02
  0.358268E-02  0.337241E-02  0.330383E-02  0.337241E-02  0.358268E-02  0.394730E-02
  0.448550E-02  0.522294E-02  0.619278E-02  0.743542E-02  0.899459E-02  0.109100E-01
  0.132088E-01  0.158974E-01  0.189531E-01  0.223142E-01  0.258699E-01  0.294568E-01
  0.328645E-01  0.358563E-01  0.381981E-01  0.396920E-01  0.402055E-01  0.396920E-01
  0.381981E-01  0.358563E-01  0.328645E-01  0.294568E-01  0.258699E-01  0.223142E-01
  0.189531E-01  0.153943E-01  0.129226E-01  0.107695E-01  0.894473E-02  0.743542E-02
  0.621367E-02  0.524472E-02  0.449404E-02  0.393153E-02  0.353276E-02  0.327860E-02
  0.315524E-02  0.315524E-02  0.327860E-02  0.353276E-02  0.393153E-02  0.449404E-02
  0.524472E-02  0.621367E-02  0.743542E-02  0.894473E-02  0.107695E-01  0.129226E-01
  0.153943E-01  0.181454E-01  0.211002E-01  0.241423E-01  0.271147E-01  0.298307E-01
  0.320930E-01  0.337198E-01  0.345712E-01  0.345712E-01  0.337198E-01  0.320930E-01
  0.298307E-01  0.271147E-01  0.241423E-01  0.211002E-01  0.181454E-01  0.153943E-01
  0.124707E-01  0.104999E-01  0.879944E-02  0.736922E-02  0.619278E-02  0.524472E-02
  0.449734E-02  0.392483E-02  0.350493E-02  0.321928E-02  0.305387E-02  0.299975E-02
  0.305387E-02  0.321928E-02  0.350493E-02  0.392483E-02  0.449734E-02  0.524472E-02
  0.619278E-02  0.736922E-02  0.879944E-02  0.104999E-01  0.124707E-01  0.146890E-01
  0.171035E-01  0.196318E-01  0.221590E-01  0.245431E-01  0.266260E-01  0.282516E-01
  0.292871E-01  0.296428E-01  0.292871E-01  0.282516E-01  0.266260E-01  0.245431E-01
  0.221590E-01  0.196318E-01  0.171035E-01  0.146890E-01  0.124707E-01  0.101223E-01
  0.857080E-02  0.724288E-02  0.613237E-02  0.522294E-02  0.449404E-02  0.392483E-02
  0.349603E-02  0.319066E-02  0.299501E-02  0.289958E-02  0.289958E-02  0.299501E-02
  0.319066E-02  0.349603E-02  0.392483E-02  0.449404E-02  0.522294E-02  0.613237E-02
  0.724288E-02  0.857080E-02  0.101223E-01  0.118868E-01  0.138319E-01  0.159000E-01
  0.180079E-01  0.200490E-01  0.219006E-01  0.234348E-01  0.245344E-01  0.251089E-01
  0.251089E-01  0.245344E-01  0.234348E-01  0.219006E-01  0.200490E-01  0.180079E-01
  0.159000E-01  0.138319E-01  0.118868E-01  0.101223E-01  0.827676E-02  0.706753E-02
  0.603886E-02  0.518272E-02  0.448550E-02  0.393153E-02  0.350493E-02  0.319066E-02
  0.297573E-02  0.285053E-02  0.280940E-02  0.285053E-02  0.297573E-02  0.319066E-02
  0.350493E-02  0.393153E-02  0.448550E-02  0.518272E-02  0.603886E-02  0.706753E-02
  0.827676E-02  0.966398E-02  0.112108E-01  0.128792E-01  0.146102E-01  0.163248E-01
  0.179289E-01  0.193208E-01  0.204015E-01  0.210876E-01  0.213229E-01  0.210876E-01
  0.204015E-01  0.193208E-01  0.179289E-01  0.163248E-01  0.146102E-01  0.128792E-01
  0.112108E-01  0.966398E-02  0.827676E-02  0.685770E-02  0.592187E-02  0.513030E-02
  0.447568E-02  0.394730E-02  0.353276E-02  0.321928E-02  0.299501E-02  0.285053E-02
  0.277971E-02  0.277971E-02  0.285053E-02  0.299501E-02  0.321928E-02  0.353276E-02
  0.394730E-02  0.447568E-02  0.513030E-02  0.592187E-02  0.685770E-02  0.793873E-02
  0.915565E-02  0.104851E-01  0.118869E-01  0.133044E-01  0.146665E-01  0.158934E-01
  0.169039E-01  0.176249E-01  0.180005E-01  0.180005E-01  0.176249E-01  0.169039E-01
  0.158934E-01  0.146665E-01  0.133044E-01  0.118869E-01  0.104851E-01  0.915565E-02
  0.793873E-02  0.685770E-02  0.579302E-02  0.507397E-02  0.447058E-02  0.397652E-02
  0.358268E-02  0.327860E-02  0.305387E-02  0.289958E-02  0.280940E-02  0.277971E-02
  0.280940E-02  0.289958E-02  0.305387E-02  0.327860E-02  0.358268E-02  0.397652E-02
  0.447058E-02  0.507397E-02  0.579302E-02  0.662971E-02  0.757943E-02  0.862824E-02
  0.975009E-02  0.109055E-01  0.120424E-01  0.130995E-01  0.140115E-01  0.147163E-01
  0.151622E-01  0.153148E-01  0.151622E-01  0.147163E-01  0.140115E-01  0.130995E-01
  0.120424E-01  0.109055E-01  0.975009E-02  0.862824E-02  0.757943E-02  0.662971E-02
  0.579302E-02  0.502318E-02  0.447748E-02  0.402493E-02  0.365935E-02  0.337241E-02
  0.315524E-02  0.299975E-02  0.289958E-02  0.285053E-02  0.285053E-02  0.289958E-02
  0.299975E-02  0.315524E-02  0.337241E-02  0.365935E-02  0.402493E-02  0.447748E-02
  0.502318E-02  0.566477E-02  0.640019E-02  0.722094E-02  0.811017E-02  0.904098E-02
  0.997613E-02  0.108697E-01  0.116705E-01  0.123274E-01  0.127945E-01  0.130374E-01
  0.130374E-01  0.127945E-01  0.123274E-01  0.116705E-01  0.108697E-01  0.997613E-02
  0.904098E-02  0.811017E-02  0.722094E-02  0.640019E-02  0.566477E-02  0.502318E-02
  0.450419E-02  0.409906E-02  0.376838E-02  0.350580E-02  0.330383E-02  0.315524E-02
  0.305387E-02  0.299501E-02  0.297573E-02  0.299501E-02  0.305387E-02  0.315524E-02
  0.330383E-02  0.350580E-02  0.376838E-02  0.409906E-02  0.450419E-02  0.498763E-02
  0.554944E-02  0.618480E-02  0.688272E-02  0.762478E-02  0.838449E-02  0.912794E-02
  0.981594E-02  0.104073E-01  0.108631E-01  0.111510E-01  0.112494E-01  0.111510E-01
  0.108631E-01  0.104073E-01  0.981594E-02  0.912794E-02  0.838449E-02  0.762478E-02
  0.688272E-02  0.618480E-02  0.554944E-02  0.498763E-02  0.450419E-02  0.420554E-02
  0.391595E-02  0.368479E-02  0.350580E-02  0.337241E-02  0.327860E-02  0.321928E-02
  0.319066E-02  0.319066E-02  0.321928E-02  0.327860E-02  0.337241E-02  0.350580E-02
  0.368479E-02  0.391595E-02  0.420554E-02  0.455833E-02  0.497644E-02  0.545812E-02
  0.599679E-02  0.657996E-02  0.718874E-02  0.779810E-02  0.837818E-02  0.889648E-02
  0.932061E-02  0.962176E-02  0.977818E-02  0.977818E-02  0.962176E-02  0.932061E-02
  0.889648E-02  0.837818E-02  0.779810E-02  0.718874E-02  0.657996E-02  0.599679E-02
  0.545812E-02  0.497644E-02  0.455833E-02  0.420554E-02  0.410821E-02  0.391595E-02
  0.376838E-02  0.365935E-02  0.358268E-02  0.353276E-02  0.350493E-02  0.349603E-02
  0.350493E-02  0.353276E-02  0.358268E-02  0.365935E-02  0.376838E-02  0.391595E-02
  0.410821E-02  0.435055E-02  0.464661E-02  0.499728E-02  0.539960E-02  0.584580E-02
  0.632273E-02  0.681200E-02  0.729089E-02  0.773381E-02  0.811422E-02  0.840714E-02
  0.859196E-02  0.865514E-02  0.859196E-02  0.840714E-02  0.811422E-02  0.773381E-02
  0.729089E-02  0.681200E-02  0.632273E-02  0.584580E-02  0.539960E-02  0.499728E-02
  0.464661E-02  0.435055E-02  0.410821E-02  0.420554E-02  0.409906E-02  0.402493E-02
  0.397652E-02  0.394730E-02  0.393153E-02  0.392483E-02  0.392483E-02  0.393153E-02
  0.394730E-02  0.397652E-02  0.402493E-02  0.409906E-02  0.420554E-02  0.435055E-02
  0.453908E-02  0.477407E-02  0.505551E-02  0.537946E-02  0.573743E-02  0.611628E-02
  0.649892E-02  0.686535E-02  0.719398E-02  0.746345E-02  0.765492E-02  0.775437E-02
  0.775437E-02  0.765492E-02  0.746345E-02  0.719398E-02  0.686535E-02  0.649892E-02
  0.611628E-02  0.573743E-02  0.537946E-02  0.505551E-02  0.477407E-02  0.453908E-02
  0.435055E-02  0.420554E-02  0.450419E-02  0.447748E-02  0.447058E-02  0.447568E-02
  0.448550E-02  0.449404E-02  0.449734E-02  0.449404E-02  0.448550E-02  0.447568E-02
  0.447058E-02  0.447748E-02  0.450419E-02  0.455833E-02  0.464661E-02  0.477407E-02
  0.494323E-02  0.515332E-02  0.539960E-02  0.567322E-02  0.596162E-02  0.624935E-02
  0.651908E-02  0.675291E-02  0.693399E-02  0.704860E-02  0.708783E-02  0.704860E-02
  0.693399E-02  0.675291E-02  0.651908E-02  0.624935E-02  0.596162E-02  0.567322E-02
  0.539960E-02  0.515332E-02  0.494323E-02  0.477407E-02  0.464661E-02  0.455833E-02
  0.450419E-02  0.502318E-02  0.507397E-02  0.513030E-02  0.518272E-02  0.522294E-02
  0.524472E-02  0.524472E-02  0.522294E-02  0.518272E-02  0.513030E-02  0.507397E-02
  0.502318E-02  0.498763E-02  0.497644E-02  0.499728E-02  0.505551E-02  0.515332E-02
  0.528928E-02  0.545812E-02  0.565095E-02  0.585595E-02  0.605933E-02  0.624628E-02
  0.640224E-02  0.651433E-02  0.657294E-02  0.657294E-02  0.651433E-02  0.640224E-02
  0.624628E-02  0.605933E-02  0.585595E-02  0.565095E-02  0.545812E-02  0.528928E-02
  0.515332E-02  0.505551E-02  0.499728E-02  0.497644E-02  0.498763E-02  0.502318E-02
  0.579302E-02  0.592187E-02  0.603886E-02  0.613237E-02  0.619278E-02  0.621367E-02
  0.619278E-02  0.613237E-02  0.603886E-02  0.592187E-02  0.579302E-02  0.566477E-02
  0.554944E-02  0.545812E-02  0.539960E-02  0.537946E-02  0.539960E-02  0.545812E-02
  0.554944E-02  0.566477E-02  0.579302E-02  0.592187E-02  0.603886E-02  0.613237E-02
  0.619278E-02  0.621367E-02  0.619278E-02  0.613237E-02  0.603886E-02  0.592187E-02
  0.579302E-02  0.566477E-02  0.554944E-02  0.545812E-02  0.539960E-02  0.537946E-02
  0.539960E-02  0.545812E-02  0.554944E-02  0.566477E-02  0.579302E-02  0.685770E-02
  0.706753E-02  0.724288E-02  0.736922E-02  0.743542E-02  0.743542E-02  0.736922E-02
  0.724288E-02  0.706753E-02  0.685770E-02  0.662971E-02  0.640019E-02  0.618480E-02
  0.599679E-02  0.584580E-02  0.573743E-02  0.567322E-02  0.565095E-02  0.566477E-02
  0.570597E-02  0.576403E-02  0.582799E-02  0.588733E-02  0.593285E-02  0.595753E-02
  0.595753E-02  0.593285E-02  0.588733E-02  0.582799E-02  0.576403E-02  0.570597E-02
  0.566477E-02  0.565095E-02  0.567322E-02  0.573743E-02  0.584580E-02  0.599679E-02
  0.618480E-02  0.640019E-02  0.662971E-02  0.685770E-02  0.827676E-02  0.857080E-02
  0.879944E-02  0.894473E-02  0.899459E-02  0.894473E-02  0.879944E-02  0.857080E-02
  0.827676E-02  0.793873E-02  0.757943E-02  0.722094E-02  0.688272E-02  0.657996E-02
  0.632273E-02  0.611628E-02  0.596162E-02  0.585595E-02  0.579302E-02  0.576403E-02
  0.575898E-02  0.576789E-02  0.578174E-02  0.579324E-02  0.579763E-02  0.579324E-02
  0.578174E-02  0.576789E-02  0.575898E-02  0.576403E-02  0.579302E-02  0.585595E-02
  0.596162E-02  0.611628E-02  0.632273E-02  0.657996E-02  0.688272E-02  0.722094E-02
  0.757943E-02  0.793873E-02  0.827676E-02  0.101223E-01  0.104999E-01  0.107695E-01
  0.109100E-01  0.109100E-01  0.107695E-01  0.104999E-01  0.101223E-01  0.966398E-02
  0.915565E-02  0.862824E-02  0.811017E-02  0.762478E-02  0.718874E-02  0.681200E-02
  0.649892E-02  0.624935E-02  0.605933E-02  0.592187E-02  0.582799E-02  0.576789E-02
  0.573219E-02  0.571299E-02  0.570477E-02  0.570477E-02  0.571299E-02  0.573219E-02
  0.576789E-02  0.582799E-02  0.592187E-02  0.605933E-02  0.624935E-02  0.649892E-02
  0.681200E-02  0.718874E-02  0.762478E-02  0.811017E-02  0.862824E-02  0.915565E-02
  0.966398E-02  0.101223E-01  0.124707E-01  0.129226E-01  0.132088E-01  0.133068E-01
  0.132088E-01  0.129226E-01  0.124707E-01  0.118868E-01  0.112108E-01  0.104851E-01
  0.975009E-02  0.904098E-02  0.838449E-02  0.779810E-02  0.729089E-02  0.686535E-02
  0.651908E-02  0.624628E-02  0.603886E-02  0.588733E-02  0.578174E-02  0.571299E-02
  0.567428E-02  0.566177E-02  0.567428E-02  0.571299E-02  0.578174E-02  0.588733E-02
  0.603886E-02  0.624628E-02  0.651908E-02  0.686535E-02  0.729089E-02  0.779810E-02
  0.838449E-02  0.904098E-02  0.975009E-02  0.104851E-01  0.112108E-01  0.118868E-01
  0.124707E-01  0.153943E-01  0.158974E-01  0.161595E-01  0.161595E-01  0.158974E-01
  0.153943E-01  0.146890E-01  0.138319E-01  0.128792E-01  0.118869E-01  0.109055E-01
  0.997613E-02  0.912794E-02  0.837818E-02  0.773381E-02  0.719398E-02  0.675291E-02
  0.640224E-02  0.613237E-02  0.593285E-02  0.579324E-02  0.570477E-02  0.566177E-02
  0.566177E-02  0.570477E-02  0.579324E-02  0.593285E-02  0.613237E-02  0.640224E-02
  0.675291E-02  0.719398E-02  0.773381E-02  0.837818E-02  0.912794E-02  0.997613E-02
  0.109055E-01  0.118869E-01  0.128792E-01  0.138319E-01  0.146890E-01  0.153943E-01
  0.189531E-01  0.194655E-01  0.196412E-01  0.194655E-01  0.189531E-01  0.181454E-01
  0.171035E-01  0.159000E-01  0.146102E-01  0.133044E-01  0.120424E-01  0.108697E-01
  0.981594E-02  0.889648E-02  0.811422E-02  0.746345E-02  0.693399E-02  0.651433E-02
  0.619278E-02  0.595753E-02  0.579763E-02  0.570477E-02  0.567428E-02  0.570477E-02
  0.579763E-02  0.595753E-02  0.619278E-02  0.651433E-02  0.693399E-02  0.746345E-02
  0.811422E-02  0.889648E-02  0.981594E-02  0.108697E-01  0.120424E-01  0.133044E-01
  0.146102E-01  0.159000E-01  0.171035E-01  0.181454E-01  0.189531E-01  0.231829E-01
  0.236364E-01  0.236364E-01  0.231829E-01  0.223142E-01  0.211002E-01  0.196318E-01
  0.180079E-01  0.163248E-01  0.146665E-01  0.130995E-01  0.116705E-01  0.104073E-01
  0.932061E-02  0.840714E-02  0.765492E-02  0.704860E-02  0.657294E-02  0.621367E-02
  0.595753E-02  0.579324E-02  0.571299E-02  0.571299E-02  0.579324E-02  0.595753E-02
  0.621367E-02  0.657294E-02  0.704860E-02  0.765492E-02  0.840714E-02  0.932061E-02
  0.104073E-01  0.116705E-01  0.130995E-01  0.146665E-01  0.163248E-01  0.180079E-01
  0.196318E-01  0.211002E-01  0.223142E-01  0.231829E-01  0.280717E-01  0.283657E-01
  0.280717E-01  0.272156E-01  0.258699E-01  0.241423E-01  0.221590E-01  0.200490E-01
  0.179289E-01  0.158934E-01  0.140115E-01  0.123274E-01  0.108631E-01  0.962176E-02
  0.859196E-02  0.775437E-02  0.708783E-02  0.657294E-02  0.619278E-02  0.593285E-02
  0.578174E-02  0.573219E-02  0.578174E-02  0.593285E-02  0.619278E-02  0.657294E-02
  0.708783E-02  0.775437E-02  0.859196E-02  0.962176E-02  0.108631E-01  0.123274E-01
  0.140115E-01  0.158934E-01  0.179289E-01  0.200490E-01  0.221590E-01  0.241423E-01
  0.258699E-01  0.272156E-01  0.280717E-01  0.335312E-01  0.335312E-01  0.328004E-01
  0.314030E-01  0.294568E-01  0.271147E-01  0.245431E-01  0.219006E-01  0.193208E-01
  0.169039E-01  0.147163E-01  0.127945E-01  0.111510E-01  0.977818E-02  0.865514E-02
  0.775437E-02  0.704860E-02  0.651433E-02  0.613237E-02  0.588733E-02  0.576789E-02
  0.576789E-02  0.588733E-02  0.613237E-02  0.651433E-02  0.704860E-02  0.775437E-02
  0.865514E-02  0.977818E-02  0.111510E-01  0.127945E-01  0.147163E-01  0.169039E-01
  0.193208E-01  0.219006E-01  0.245431E-01  0.271147E-01  0.294568E-01  0.314030E-01
  0.328004E-01  0.335312E-01  0.393736E-01  0.389192E-01  0.375965E-01  0.355210E-01
  0.328645E-01  0.298307E-01  0.266260E-01  0.234348E-01  0.204015E-01  0.176249E-01
  0.151622E-01  0.130374E-01  0.112494E-01  0.977818E-02  0.859196E-02  0.765492E-02
  0.693399E-02  0.640224E-02  0.603886E-02  0.582799E-02  0.575898E-02  0.582799E-02
  0.603886E-02  0.640224E-02  0.693399E-02  0.765492E-02  0.859196E-02  0.977818E-02
  0.112494E-01  0.130374E-01  0.151622E-01  0.176249E-01  0.204015E-01  0.234348E-01
  0.266260E-01  0.298307E-01  0.328645E-01  0.355210E-01  0.375965E-01  0.389192E-01
  0.393736E-01  0.453087E-01  0.442298E-01  0.421678E-01  0.392993E-01  0.358563E-01
  0.320930E-01  0.282516E-01  0.245344E-01  0.210876E-01  0.180005E-01  0.153148E-01
  0.130374E-01  0.111510E-01  0.962176E-02  0.840714E-02  0.746345E-02  0.675291E-02
  0.624628E-02  0.592187E-02  0.576403E-02  0.576403E-02  0.592187E-02  0.624628E-02
  0.675291E-02  0.746345E-02  0.840714E-02  0.962176E-02  0.111510E-01  0.130374E-01
  0.153148E-01  0.180005E-01  0.210876E-01  0.245344E-01  0.282516E-01  0.320930E-01
  0.358563E-01  0.392993E-01  0.421678E-01  0.442298E-01  0.453087E-01  0.453087E-01
  0.509650E-01  0.491053E-01  0.461868E-01  0.424537E-01  0.381981E-01  0.337198E-01
  0.292871E-01  0.251089E-01  0.213229E-01  0.180005E-01  0.151622E-01  0.127945E-01
  0.108631E-01  0.932061E-02  0.811422E-02  0.719398E-02  0.651908E-02  0.605933E-02
  0.579302E-02  0.570597E-02  0.579302E-02  0.605933E-02  0.651908E-02  0.719398E-02
  0.811422E-02  0.932061E-02  0.108631E-01  0.127945E-01  0.151622E-01  0.180005E-01
  0.213229E-01  0.251089E-01  0.292871E-01  0.337198E-01  0.381981E-01  0.424537E-01
  0.461868E-01  0.491053E-01  0.509650E-01  0.516038E-01  0.509650E-01  0.559322E-01
  0.531738E-01  0.493337E-01  0.447242E-01  0.396920E-01  0.345712E-01  0.296428E-01
  0.251089E-01  0.210876E-01  0.176249E-01  0.147163E-01  0.123274E-01  0.104073E-01
  0.889648E-02  0.773381E-02  0.686535E-02  0.624935E-02  0.585595E-02  0.566477E-02
  0.566477E-02  0.585595E-02  0.624935E-02  0.686535E-02  0.773381E-02  0.889648E-02
  0.104073E-01  0.123274E-01  0.147163E-01  0.176249E-01  0.210876E-01  0.251089E-01
  0.296428E-01  0.345712E-01  0.396920E-01  0.447242E-01  0.493337E-01  0.531738E-01
  0.559322E-01  0.573742E-01  0.573742E-01  0.559322E-01  0.598153E-01  0.560998E-01
  0.513409E-01  0.459130E-01  0.402055E-01  0.345712E-01  0.292871E-01  0.245344E-01
  0.204015E-01  0.169039E-01  0.140115E-01  0.116705E-01  0.981594E-02  0.837818E-02
  0.729089E-02  0.649892E-02  0.596162E-02  0.565095E-02  0.554944E-02  0.565095E-02
  0.596162E-02  0.649892E-02  0.729089E-02  0.837818E-02  0.981594E-02  0.116705E-01
  0.140115E-01  0.169039E-01  0.204015E-01  0.245344E-01  0.292871E-01  0.345712E-01
  0.402055E-01  0.459130E-01  0.513409E-01  0.560998E-01  0.598153E-01  0.621793E-01
  0.629905E-01  0.621793E-01  0.598153E-01  0.622884E-01  0.576306E-01  0.520307E-01
  0.459130E-01  0.396920E-01  0.337198E-01  0.282516E-01  0.234348E-01  0.193208E-01
  0.158934E-01  0.130995E-01  0.108697E-01  0.912794E-02  0.779810E-02  0.681200E-02
  0.611628E-02  0.567322E-02  0.545812E-02  0.545812E-02  0.567322E-02  0.611628E-02
  0.681200E-02  0.779810E-02  0.912794E-02  0.108697E-01  0.130995E-01  0.158934E-01
  0.193208E-01  0.234348E-01  0.282516E-01  0.337198E-01  0.396920E-01  0.459130E-01
  0.520307E-01  0.576306E-01  0.622884E-01  0.656277E-01  0.673706E-01  0.673706E-01
  0.656277E-01  0.622884E-01  0.631375E-01  0.576306E-01  0.513409E-01  0.447242E-01
  0.381981E-01  0.320930E-01  0.266260E-01  0.219006E-01  0.179289E-01  0.146665E-01
  0.120424E-01  0.997613E-02  0.838449E-02  0.718874E-02  0.632273E-02  0.573743E-02
  0.539960E-02  0.528928E-02  0.539960E-02  0.573743E-02  0.632273E-02  0.718874E-02
  0.838449E-02  0.997613E-02  0.120424E-01  0.146665E-01  0.179289E-01  0.219006E-01
  0.266260E-01  0.320930E-01  0.381981E-01  0.447242E-01  0.513409E-01  0.576306E-01
  0.631375E-01  0.674289E-01  0.701543E-01  0.710885E-01  0.701543E-01  0.674289E-01
  0.631375E-01  0.622884E-01  0.560998E-01  0.493337E-01  0.424537E-01  0.358563E-01
  0.298307E-01  0.245431E-01  0.200490E-01  0.163248E-01  0.133044E-01  0.109055E-01
  0.904098E-02  0.762478E-02  0.657996E-02  0.584580E-02  0.537946E-02  0.515332E-02
  0.515332E-02  0.537946E-02  0.584580E-02  0.657996E-02  0.762478E-02  0.904098E-02
  0.109055E-01  0.133044E-01  0.163248E-01  0.200490E-01  0.245431E-01  0.298307E-01
  0.358563E-01  0.424537E-01  0.493337E-01  0.560998E-01  0.622884E-01  0.674289E-01
  0.711089E-01  0.730275E-01  0.730275E-01  0.711089E-01  0.674289E-01  0.622884E-01
  0.598153E-01  0.531738E-01  0.461868E-01  0.392993E-01  0.328645E-01  0.271147E-01
  0.221590E-01  0.180079E-01  0.146102E-01  0.118869E-01  0.975009E-02  0.811017E-02
  0.688272E-02  0.599679E-02  0.539960E-02  0.505551E-02  0.494323E-02  0.505551E-02
  0.539960E-02  0.599679E-02  0.688272E-02  0.811017E-02  0.975009E-02  0.118869E-01
  0.146102E-01  0.180079E-01  0.221590E-01  0.271147E-01  0.328645E-01  0.392993E-01
  0.461868E-01  0.531738E-01  0.598153E-01  0.656277E-01  0.701543E-01  0.730275E-01
  0.740120E-01  0.730275E-01  0.701543E-01  0.656277E-01  0.598153E-01  0.559322E-01
  0.491053E-01  0.421678E-01  0.355210E-01  0.294568E-01  0.241423E-01  0.196318E-01
  0.159000E-01  0.128792E-01  0.104851E-01  0.862824E-02  0.722094E-02  0.618480E-02
  0.545812E-02  0.499728E-02  0.477407E-02  0.477407E-02  0.499728E-02  0.545812E-02
  0.618480E-02  0.722094E-02  0.862824E-02  0.104851E-01  0.128792E-01  0.159000E-01
  0.196318E-01  0.241423E-01  0.294568E-01  0.355210E-01  0.421678E-01  0.491053E-01
  0.559322E-01  0.621793E-01  0.673706E-01  0.710885E-01  0.730275E-01  0.730275E-01
  0.710885E-01  0.673706E-01  0.621793E-01  0.559322E-01  0.509650E-01  0.442298E-01
  0.375965E-01  0.314030E-01  0.258699E-01  0.211002E-01  0.171035E-01  0.138319E-01
  0.112108E-01  0.915565E-02  0.757943E-02  0.640019E-02  0.554944E-02  0.497644E-02
  0.464661E-02  0.453908E-02  0.464661E-02  0.497644E-02  0.554944E-02  0.640019E-02
  0.757943E-02  0.915565E-02  0.112108E-01  0.138319E-01  0.171035E-01  0.211002E-01
  0.258699E-01  0.314030E-01  0.375965E-01  0.442298E-01  0.509650E-01  0.573742E-01
  0.629905E-01  0.673706E-01  0.701543E-01  0.711089E-01  0.701543E-01  0.673706E-01
  0.629905E-01  0.573742E-01  0.509650E-01  0.453087E-01  0.389192E-01  0.328004E-01
  0.272156E-01  0.223142E-01  0.181454E-01  0.146890E-01  0.118868E-01  0.966398E-02
  0.793873E-02  0.662971E-02  0.566477E-02  0.498763E-02  0.455833E-02  0.435055E-02
  0.435055E-02  0.455833E-02  0.498763E-02  0.566477E-02  0.662971E-02  0.793873E-02
  0.966398E-02  0.118868E-01  0.146890E-01  0.181454E-01  0.223142E-01  0.272156E-01
  0.328004E-01  0.389192E-01  0.453087E-01  0.516038E-01  0.573742E-01  0.621793E-01
  0.656277E-01  0.674289E-01  0.674289E-01  0.656277E-01  0.621793E-01  0.573742E-01
  0.516038E-01  0.453087E-01  0.393736E-01  0.335312E-01  0.280717E-01  0.231829E-01
  0.189531E-01  0.153943E-01  0.124707E-01  0.101223E-01  0.827676E-02  0.685770E-02
  0.579302E-02  0.502318E-02  0.450419E-02  0.420554E-02  0.410821E-02  0.420554E-02
  0.450419E-02  0.502318E-02  0.579302E-02  0.685770E-02  0.827676E-02  0.101223E-01
  0.124707E-01  0.153943E-01  0.189531E-01  0.231829E-01  0.280717E-01  0.335312E-01
  0.393736E-01  0.453087E-01  0.509650E-01  0.559322E-01  0.598153E-01  0.622884E-01
  0.631375E-01  0.622884E-01  0.598153E-01  0.559322E-01  0.509650E-01  0.453087E-01
  0.393736E-01  0.342586E-01  0.289549E-01  0.241118E-01  0.198482E-01  0.162071E-01
  0.131774E-01  0.107145E-01  0.875431E-02  0.722561E-02  0.605933E-02  0.519619E-02
  0.458974E-02  0.420554E-02  0.401976E-02  0.401976E-02  0.420554E-02  0.458974E-02
  0.519619E-02  0.605933E-02  0.722561E-02  0.875431E-02  0.107145E-01  0.131774E-01
  0.162071E-01  0.198482E-01  0.241118E-01  0.289549E-01  0.342586E-01  0.398125E-01
  0.453153E-01  0.503972E-01  0.546633E-01  0.577470E-01  0.593659E-01  0.593659E-01
  0.577470E-01  0.546633E-01  0.503972E-01  0.453153E-01  0.398125E-01  0.342586E-01
  0.289549E-01  0.243623E-01  0.202337E-01  0.166430E-01  0.136066E-01  0.111017E-01
  0.908068E-02  0.748316E-02  0.624628E-02  0.531282E-02  0.463575E-02  0.417890E-02
  0.391595E-02  0.383024E-02  0.391595E-02  0.417890E-02  0.463575E-02  0.531282E-02
  0.624628E-02  0.748316E-02  0.908068E-02  0.111017E-01  0.136066E-01  0.166430E-01
  0.202337E-01  0.243623E-01  0.289549E-01  0.338641E-01  0.388609E-01  0.436442E-01
  0.478695E-01  0.511925E-01  0.533193E-01  0.540516E-01  0.533193E-01  0.511925E-01
  0.478695E-01  0.436442E-01  0.388609E-01  0.338641E-01  0.289549E-01  0.241118E-01
  0.202337E-01  0.167923E-01  0.138300E-01  0.113467E-01  0.931329E-02  0.768303E-02
  0.640224E-02  0.541874E-02  0.468726E-02  0.417145E-02  0.384367E-02  0.368479E-02
  0.368479E-02  0.384367E-02  0.417145E-02  0.468726E-02  0.541874E-02  0.640224E-02
  0.768303E-02  0.931329E-02  0.113467E-01  0.138300E-01  0.167923E-01  0.202337E-01
  0.241118E-01  0.283278E-01  0.327161E-01  0.370445E-01  0.410296E-01  0.443682E-01
  0.467787E-01  0.480433E-01  0.480433E-01  0.467787E-01  0.443682E-01  0.410296E-01
  0.370445E-01  0.327161E-01  0.283278E-01  0.241118E-01  0.198482E-01  0.166430E-01
  0.138300E-01  0.114306E-01  0.943437E-02  0.780979E-02  0.651433E-02  0.550322E-02
  0.473525E-02  0.417557E-02  0.379642E-02  0.357738E-02  0.350580E-02  0.357738E-02
  0.379642E-02  0.417557E-02  0.473525E-02  0.550322E-02  0.651433E-02  0.780979E-02
  0.943437E-02  0.114306E-01  0.138300E-01  0.166430E-01  0.198482E-01  0.233819E-01
  0.271283E-01  0.309158E-01  0.345230E-01  0.376980E-01  0.401892E-01  0.417815E-01
  0.423293E-01  0.417815E-01  0.401892E-01  0.376980E-01  0.345230E-01  0.309158E-01
  0.271283E-01  0.233819E-01  0.198482E-01  0.162071E-01  0.136066E-01  0.113467E-01
  0.943437E-02  0.785323E-02  0.657294E-02  0.555763E-02  0.477193E-02  0.418416E-02
  0.376770E-02  0.350182E-02  0.337241E-02  0.337241E-02  0.350182E-02  0.376770E-02
  0.418416E-02  0.477193E-02  0.555763E-02  0.657294E-02  0.785323E-02  0.943437E-02
  0.113467E-01  0.136066E-01  0.162071E-01  0.191089E-01  0.222333E-01  0.254568E-01
  0.286129E-01  0.315026E-01  0.339140E-01  0.356507E-01  0.365607E-01  0.365607E-01
  0.356507E-01  0.339140E-01  0.315026E-01  0.286129E-01  0.254568E-01  0.222333E-01
  0.191089E-01  0.162071E-01  0.131774E-01  0.111017E-01  0.931329E-02  0.780979E-02
  0.657294E-02  0.557639E-02  0.479170E-02  0.419164E-02  0.375193E-02  0.345248E-02
  0.327860E-02  0.322159E-02  0.327860E-02  0.345248E-02  0.375193E-02  0.419164E-02
  0.479170E-02  0.557639E-02  0.657294E-02  0.780979E-02  0.931329E-02  0.111017E-01
  0.131774E-01  0.155190E-01  0.180743E-01  0.207564E-01  0.234433E-01  0.259829E-01
  0.282053E-01  0.299422E-01  0.310496E-01  0.314302E-01  0.310496E-01  0.299422E-01
  0.282053E-01  0.259829E-01  0.234433E-01  0.207564E-01  0.180743E-01  0.155190E-01
  0.131774E-01  0.107145E-01  0.908068E-02  0.768303E-02  0.651433E-02  0.555763E-02
  0.479170E-02  0.419451E-02  0.374508E-02  0.342485E-02  0.321928E-02  0.311879E-02
  0.311879E-02  0.321928E-02  0.342485E-02  0.374508E-02  0.419451E-02  0.479170E-02
  0.555763E-02  0.651433E-02  0.768303E-02  0.908068E-02  0.107145E-01  0.125751E-01
  0.146302E-01  0.168205E-01  0.190581E-01  0.212293E-01  0.232023E-01  0.248396E-01
  0.260143E-01  0.266284E-01  0.266284E-01  0.260143E-01  0.248396E-01  0.232023E-01
  0.212293E-01  0.190581E-01  0.168205E-01  0.146302E-01  0.125751E-01  0.107145E-01
  0.875431E-02  0.748316E-02  0.640224E-02  0.550322E-02  0.477193E-02  0.419164E-02
  0.374508E-02  0.341598E-02  0.319066E-02  0.305923E-02  0.301601E-02  0.305923E-02
  0.319066E-02  0.341598E-02  0.374508E-02  0.419164E-02  0.477193E-02  0.550322E-02
  0.640224E-02  0.748316E-02  0.875431E-02  0.102135E-01  0.118424E-01  0.136023E-01
  0.154318E-01  0.172475E-01  0.189493E-01  0.204283E-01  0.215780E-01  0.223085E-01
  0.225592E-01  0.223085E-01  0.215780E-01  0.204283E-01  0.189493E-01  0.172475E-01
  0.154318E-01  0.136023E-01  0.118424E-01  0.102135E-01  0.875431E-02  0.722561E-02
  0.624628E-02  0.541874E-02  0.473525E-02  0.418416E-02  0.375193E-02  0.342485E-02
  0.319066E-02  0.303974E-02  0.296580E-02  0.296580E-02  0.303974E-02  0.319066E-02
  0.342485E-02  0.375193E-02  0.418416E-02  0.473525E-02  0.541874E-02  0.624628E-02
  0.722561E-02  0.835765E-02  0.963287E-02  0.110272E-01  0.124993E-01  0.139899E-01
  0.154243E-01  0.167181E-01  0.177851E-01  0.185470E-01  0.189441E-01  0.189441E-01
  0.185470E-01  0.177851E-01  0.167181E-01  0.154243E-01  0.139899E-01  0.124993E-01
  0.110272E-01  0.963287E-02  0.835765E-02  0.722561E-02  0.605933E-02  0.531282E-02
  0.468726E-02  0.417557E-02  0.376770E-02  0.345248E-02  0.321928E-02  0.305923E-02
  0.296580E-02  0.293510E-02  0.296580E-02  0.305923E-02  0.321928E-02  0.345248E-02
  0.376770E-02  0.417557E-02  0.468726E-02  0.531282E-02  0.605933E-02  0.692898E-02
  0.791693E-02  0.900858E-02  0.101769E-01  0.113810E-01  0.125668E-01  0.136703E-01
  0.146233E-01  0.153602E-01  0.158266E-01  0.159863E-01  0.158266E-01  0.153602E-01
  0.146233E-01  0.136703E-01  0.125668E-01  0.113810E-01  0.101769E-01  0.900858E-02
  0.791693E-02  0.692898E-02  0.605933E-02  0.519619E-02  0.463575E-02  0.417145E-02
  0.379642E-02  0.350182E-02  0.327860E-02  0.311879E-02  0.301601E-02  0.296580E-02
  0.296580E-02  0.301601E-02  0.311879E-02  0.327860E-02  0.350182E-02  0.379642E-02
  0.417145E-02  0.463575E-02  0.519619E-02  0.585595E-02  0.661297E-02  0.745836E-02
  0.837460E-02  0.933392E-02  0.102980E-01  0.112196E-01  0.120460E-01  0.127241E-01
  0.132064E-01  0.134571E-01  0.134571E-01  0.132064E-01  0.127241E-01  0.120460E-01
  0.112196E-01  0.102980E-01  0.933392E-02  0.837460E-02  0.745836E-02  0.661297E-02
  0.585595E-02  0.519619E-02  0.458974E-02  0.417890E-02  0.384367E-02  0.357738E-02
  0.337241E-02  0.322159E-02  0.311879E-02  0.305923E-02  0.303974E-02  0.305923E-02
  0.311879E-02  0.322159E-02  0.337241E-02  0.357738E-02  0.384367E-02  0.417890E-02
  0.458974E-02  0.508035E-02  0.565095E-02  0.629659E-02  0.700599E-02  0.776033E-02
  0.853268E-02  0.928862E-02  0.998833E-02  0.105899E-01  0.110535E-01  0.113462E-01
  0.114463E-01  0.113462E-01  0.110535E-01  0.105899E-01  0.998833E-02  0.928862E-02
  0.853268E-02  0.776033E-02  0.700599E-02  0.629659E-02  0.565095E-02  0.508035E-02
  0.458974E-02  0.420554E-02  0.391595E-02  0.368479E-02  0.350580E-02  0.337241E-02
  0.327860E-02  0.321928E-02  0.319066E-02  0.319066E-02  0.321928E-02  0.327860E-02
  0.337241E-02  0.350580E-02  0.368479E-02  0.391595E-02  0.420554E-02  0.455833E-02
  0.497644E-02  0.545812E-02  0.599679E-02  0.657996E-02  0.718874E-02  0.779810E-02
  0.837818E-02  0.889648E-02  0.932061E-02  0.962176E-02  0.977818E-02  0.977818E-02
  0.962176E-02  0.932061E-02  0.889648E-02  0.837818E-02  0.779810E-02  0.718874E-02
  0.657996E-02  0.599679E-02  0.545812E-02  0.497644E-02  0.455833E-02  0.420554E-02
  0.401976E-02  0.383024E-02  0.368479E-02  0.357738E-02  0.350182E-02  0.345248E-02
  0.342485E-02  0.341598E-02  0.342485E-02  0.345248E-02  0.350182E-02  0.357738E-02
  0.368479E-02  0.383024E-02  0.401976E-02  0.425846E-02  0.454971E-02  0.489426E-02
  0.528928E-02  0.572729E-02  0.619545E-02  0.667571E-02  0.714569E-02  0.758025E-02
  0.795343E-02  0.824080E-02  0.842217E-02  0.848419E-02  0.842217E-02  0.824080E-02
  0.795343E-02  0.758025E-02  0.714569E-02  0.667571E-02  0.619545E-02  0.572729E-02
  0.528928E-02  0.489426E-02  0.454971E-02  0.425846E-02  0.401976E-02  0.401976E-02
  0.391595E-02  0.384367E-02  0.379642E-02  0.376770E-02  0.375193E-02  0.374508E-02
  0.374508E-02  0.375193E-02  0.376770E-02  0.379642E-02  0.384367E-02  0.391595E-02
  0.401976E-02  0.416083E-02  0.434356E-02  0.457049E-02  0.484159E-02  0.515332E-02
  0.549772E-02  0.586227E-02  0.623045E-02  0.658288E-02  0.689880E-02  0.715777E-02
  0.734177E-02  0.743736E-02  0.743736E-02  0.734177E-02  0.715777E-02  0.689880E-02
  0.658288E-02  0.623045E-02  0.586227E-02  0.549772E-02  0.515332E-02  0.484159E-02
  0.457049E-02  0.434356E-02  0.416083E-02  0.401976E-02  0.420554E-02  0.417890E-02
  0.417145E-02  0.417557E-02  0.418416E-02  0.419164E-02  0.419451E-02  0.419164E-02
  0.418416E-02  0.417557E-02  0.417145E-02  0.417890E-02  0.420554E-02  0.425846E-02
  0.434356E-02  0.446510E-02  0.462526E-02  0.482345E-02  0.505551E-02  0.531333E-02
  0.558518E-02  0.585644E-02  0.611065E-02  0.633084E-02  0.650120E-02  0.660894E-02
  0.664581E-02  0.660894E-02  0.650120E-02  0.633084E-02  0.611065E-02  0.585644E-02
  0.558518E-02  0.531333E-02  0.505551E-02  0.482345E-02  0.462526E-02  0.446510E-02
  0.434356E-02  0.425846E-02  0.420554E-02  0.458974E-02  0.463575E-02  0.468726E-02
  0.473525E-02  0.477193E-02  0.479170E-02  0.479170E-02  0.477193E-02  0.473525E-02
  0.468726E-02  0.463575E-02  0.458974E-02  0.455833E-02  0.454971E-02  0.457049E-02
  0.462526E-02  0.471603E-02  0.484159E-02  0.499728E-02  0.517513E-02  0.536439E-02
  0.555230E-02  0.572503E-02  0.586892E-02  0.597210E-02  0.602594E-02  0.602594E-02
  0.597210E-02  0.586892E-02  0.572503E-02  0.555230E-02  0.536439E-02  0.517513E-02
  0.499728E-02  0.484159E-02  0.471603E-02  0.462526E-02  0.457049E-02  0.454971E-02
  0.455833E-02  0.458974E-02  0.519619E-02  0.531282E-02  0.541874E-02  0.550322E-02
  0.555763E-02  0.557639E-02  0.555763E-02  0.550322E-02  0.541874E-02  0.531282E-02
  0.519619E-02  0.508035E-02  0.497644E-02  0.489426E-02  0.484159E-02  0.482345E-02
  0.484159E-02  0.489426E-02  0.497644E-02  0.508035E-02  0.519619E-02  0.531282E-02
  0.541874E-02  0.550322E-02  0.555763E-02  0.557639E-02  0.555763E-02  0.550322E-02
  0.541874E-02  0.531282E-02  0.519619E-02  0.508035E-02  0.497644E-02  0.489426E-02
  0.484159E-02  0.482345E-02  0.484159E-02  0.489426E-02  0.497644E-02  0.508035E-02
  0.519619E-02  0.605933E-02  0.624628E-02  0.640224E-02  0.651433E-02  0.657294E-02
  0.657294E-02  0.651433E-02  0.640224E-02  0.624628E-02  0.605933E-02  0.585595E-02
  0.565095E-02  0.545812E-02  0.528928E-02  0.515332E-02  0.505551E-02  0.499728E-02
  0.497644E-02  0.498763E-02  0.502318E-02  0.507397E-02  0.513030E-02  0.518272E-02
  0.522294E-02  0.524472E-02  0.524472E-02  0.522294E-02  0.518272E-02  0.513030E-02
  0.507397E-02  0.502318E-02  0.498763E-02  0.497644E-02  0.499728E-02  0.505551E-02
  0.515332E-02  0.528928E-02  0.545812E-02  0.565095E-02  0.585595E-02  0.605933E-02
  0.722561E-02  0.748316E-02  0.768303E-02  0.780979E-02  0.785323E-02  0.780979E-02
  0.768303E-02  0.748316E-02  0.722561E-02  0.692898E-02  0.661297E-02  0.629659E-02
  0.599679E-02  0.572729E-02  0.549772E-02  0.531333E-02  0.517513E-02  0.508035E-02
  0.502318E-02  0.499581E-02  0.498963E-02  0.499615E-02  0.500756E-02  0.501737E-02
  0.502117E-02  0.501737E-02  0.500756E-02  0.499615E-02  0.498963E-02  0.499581E-02
  0.502318E-02  0.508035E-02  0.517513E-02  0.531333E-02  0.549772E-02  0.572729E-02
  0.599679E-02  0.629659E-02  0.661297E-02  0.692898E-02  0.722561E-02  0.875431E-02
  0.908068E-02  0.931329E-02  0.943437E-02  0.943437E-02  0.931329E-02  0.908068E-02
  0.875431E-02  0.835765E-02  0.791693E-02  0.745836E-02  0.700599E-02  0.657996E-02
  0.619545E-02  0.586227E-02  0.558518E-02  0.536439E-02  0.519619E-02  0.507397E-02
  0.498963E-02  0.493489E-02  0.490207E-02  0.488453E-02  0.487716E-02  0.487716E-02
  0.488453E-02  0.490207E-02  0.493489E-02  0.498963E-02  0.507397E-02  0.519619E-02
  0.536439E-02  0.558518E-02  0.586227E-02  0.619545E-02  0.657996E-02  0.700599E-02
  0.745836E-02  0.791693E-02  0.835765E-02  0.875431E-02  0.107145E-01  0.111017E-01
  0.113467E-01  0.114306E-01  0.113467E-01  0.111017E-01  0.107145E-01  0.102135E-01
  0.963287E-02  0.900858E-02  0.837460E-02  0.776033E-02  0.718874E-02  0.667571E-02
  0.623045E-02  0.585644E-02  0.555230E-02  0.531282E-02  0.513030E-02  0.499615E-02
  0.490207E-02  0.484078E-02  0.480651E-02  0.479552E-02  0.480651E-02  0.484078E-02
  0.490207E-02  0.499615E-02  0.513030E-02  0.531282E-02  0.555230E-02  0.585644E-02
  0.623045E-02  0.667571E-02  0.718874E-02  0.776033E-02  0.837460E-02  0.900858E-02
  0.963287E-02  0.102135E-01  0.107145E-01  0.131774E-01  0.136066E-01  0.138300E-01
  0.138300E-01  0.136066E-01  0.131774E-01  0.125751E-01  0.118424E-01  0.110272E-01
  0.101769E-01  0.933392E-02  0.853268E-02  0.779810E-02  0.714569E-02  0.658288E-02
  0.611065E-02  0.572503E-02  0.541874E-02  0.518272E-02  0.500756E-02  0.488453E-02
  0.480651E-02  0.476869E-02  0.476869E-02  0.480651E-02  0.488453E-02  0.500756E-02
  0.518272E-02  0.541874E-02  0.572503E-02  0.611065E-02  0.658288E-02  0.714569E-02
  0.779810E-02  0.853268E-02  0.933392E-02  0.101769E-01  0.110272E-01  0.118424E-01
  0.125751E-01  0.131774E-01  0.162071E-01  0.166430E-01  0.167923E-01  0.166430E-01
  0.162071E-01  0.155190E-01  0.146302E-01  0.136023E-01  0.124993E-01  0.113810E-01
  0.102980E-01  0.928862E-02  0.837818E-02  0.758025E-02  0.689880E-02  0.633084E-02
  0.586892E-02  0.550322E-02  0.522294E-02  0.501737E-02  0.487716E-02  0.479552E-02
  0.476869E-02  0.479552E-02  0.487716E-02  0.501737E-02  0.522294E-02  0.550322E-02
  0.586892E-02  0.633084E-02  0.689880E-02  0.758025E-02  0.837818E-02  0.928862E-02
  0.102980E-01  0.113810E-01  0.124993E-01  0.136023E-01  0.146302E-01  0.155190E-01
  0.162071E-01  0.198482E-01  0.202337E-01  0.202337E-01  0.198482E-01  0.191089E-01
  0.180743E-01  0.168205E-01  0.154318E-01  0.139899E-01  0.125668E-01  0.112196E-01
  0.998833E-02  0.889648E-02  0.795343E-02  0.715777E-02  0.650120E-02  0.597210E-02
  0.555763E-02  0.524472E-02  0.502117E-02  0.487716E-02  0.480651E-02  0.480651E-02
  0.487716E-02  0.502117E-02  0.524472E-02  0.555763E-02  0.597210E-02  0.650120E-02
  0.715777E-02  0.795343E-02  0.889648E-02  0.998833E-02  0.112196E-01  0.125668E-01
  0.139899E-01  0.154318E-01  0.168205E-01  0.180743E-01  0.191089E-01  0.198482E-01
  0.241118E-01  0.243623E-01  0.241118E-01  0.233819E-01  0.222333E-01  0.207564E-01
  0.190581E-01  0.172475E-01  0.154243E-01  0.136703E-01  0.120460E-01  0.105899E-01
  0.932061E-02  0.824080E-02  0.734177E-02  0.660894E-02  0.602594E-02  0.557639E-02
  0.524472E-02  0.501737E-02  0.488453E-02  0.484078E-02  0.488453E-02  0.501737E-02
  0.524472E-02  0.557639E-02  0.602594E-02  0.660894E-02  0.734177E-02  0.824080E-02
  0.932061E-02  0.105899E-01  0.120460E-01  0.136703E-01  0.154243E-01  0.172475E-01
  0.190581E-01  0.207564E-01  0.222333E-01  0.233819E-01  0.241118E-01  0.289549E-01
  0.289549E-01  0.283278E-01  0.271283E-01  0.254568E-01  0.234433E-01  0.212293E-01
  0.189493E-01  0.167181E-01  0.146233E-01  0.127241E-01  0.110535E-01  0.962176E-02
  0.842217E-02  0.743736E-02  0.664581E-02  0.602594E-02  0.555763E-02  0.522294E-02
  0.500756E-02  0.490207E-02  0.490207E-02  0.500756E-02  0.522294E-02  0.555763E-02
  0.602594E-02  0.664581E-02  0.743736E-02  0.842217E-02  0.962176E-02  0.110535E-01
  0.127241E-01  0.146233E-01  0.167181E-01  0.189493E-01  0.212293E-01  0.234433E-01
  0.254568E-01  0.271283E-01  0.283278E-01  0.289549E-01  0.342586E-01  0.338641E-01
  0.327161E-01  0.309158E-01  0.286129E-01  0.259829E-01  0.232023E-01  0.204283E-01
  0.177851E-01  0.153602E-01  0.132064E-01  0.113462E-01  0.977818E-02  0.848419E-02
  0.743736E-02  0.660894E-02  0.597210E-02  0.550322E-02  0.518272E-02  0.499615E-02
  0.493489E-02  0.499615E-02  0.518272E-02  0.550322E-02  0.597210E-02  0.660894E-02
  0.743736E-02  0.848419E-02  0.977818E-02  0.113462E-01  0.132064E-01  0.153602E-01
  0.177851E-01  0.204283E-01  0.232023E-01  0.259829E-01  0.286129E-01  0.309158E-01
  0.327161E-01  0.338641E-01  0.342586E-01  0.398125E-01  0.388609E-01  0.370445E-01
  0.345230E-01  0.315026E-01  0.282053E-01  0.248396E-01  0.215780E-01  0.185470E-01
  0.158266E-01  0.134571E-01  0.114463E-01  0.977818E-02  0.842217E-02  0.734177E-02
  0.650120E-02  0.586892E-02  0.541874E-02  0.513030E-02  0.498963E-02  0.498963E-02
  0.513030E-02  0.541874E-02  0.586892E-02  0.650120E-02  0.734177E-02  0.842217E-02
  0.977818E-02  0.114463E-01  0.134571E-01  0.158266E-01  0.185470E-01  0.215780E-01
  0.248396E-01  0.282053E-01  0.315026E-01  0.345230E-01  0.370445E-01  0.388609E-01
  0.398125E-01  0.398125E-01  0.453153E-01  0.436442E-01  0.410296E-01  0.376980E-01
  0.339140E-01  0.299422E-01  0.260143E-01  0.223085E-01  0.189441E-01  0.159863E-01
  0.134571E-01  0.113462E-01  0.962176E-02  0.824080E-02  0.715777E-02  0.633084E-02
  0.572503E-02  0.531282E-02  0.507397E-02  0.499581E-02  0.507397E-02  0.531282E-02
  0.572503E-02  0.633084E-02  0.715777E-02  0.824080E-02  0.962176E-02  0.113462E-01
  0.134571E-01  0.159863E-01  0.189441E-01  0.223085E-01  0.260143E-01  0.299422E-01
  0.339140E-01  0.376980E-01  0.410296E-01  0.436442E-01  0.453153E-01  0.458903E-01
  0.453153E-01  0.503972E-01  0.478695E-01  0.443682E-01  0.401892E-01  0.356507E-01
  0.310496E-01  0.266284E-01  0.225592E-01  0.189441E-01  0.158266E-01  0.132064E-01
  0.110535E-01  0.932061E-02  0.795343E-02  0.689880E-02  0.611065E-02  0.555230E-02
  0.519619E-02  0.502318E-02  0.502318E-02  0.519619E-02  0.555230E-02  0.611065E-02
  0.689880E-02  0.795343E-02  0.932061E-02  0.110535E-01  0.132064E-01  0.158266E-01
  0.189441E-01  0.225592E-01  0.266284E-01  0.310496E-01  0.356507E-01  0.401892E-01
  0.443682E-01  0.478695E-01  0.503972E-01  0.517233E-01  0.517233E-01  0.503972E-01
  0.546633E-01  0.511925E-01  0.467787E-01  0.417815E-01  0.365607E-01  0.314302E-01
  0.266284E-01  0.223085E-01  0.185470E-01  0.153602E-01  0.127241E-01  0.105899E-01
  0.889648E-02  0.758025E-02  0.658288E-02  0.585644E-02  0.536439E-02  0.508035E-02
  0.498763E-02  0.508035E-02  0.536439E-02  0.585644E-02  0.658288E-02  0.758025E-02
  0.889648E-02  0.105899E-01  0.127241E-01  0.153602E-01  0.185470E-01  0.223085E-01
  0.266284E-01  0.314302E-01  0.365607E-01  0.417815E-01  0.467787E-01  0.511925E-01
  0.546633E-01  0.568840E-01  0.576485E-01  0.568840E-01  0.546633E-01  0.577470E-01
  0.533193E-01  0.480433E-01  0.423293E-01  0.365607E-01  0.310496E-01  0.260143E-01
  0.215780E-01  0.177851E-01  0.146233E-01  0.120460E-01  0.998833E-02  0.837818E-02
  0.714569E-02  0.623045E-02  0.558518E-02  0.517513E-02  0.497644E-02  0.497644E-02
  0.517513E-02  0.558518E-02  0.623045E-02  0.714569E-02  0.837818E-02  0.998833E-02
  0.120460E-01  0.146233E-01  0.177851E-01  0.215780E-01  0.260143E-01  0.310496E-01
  0.365607E-01  0.423293E-01  0.480433E-01  0.533193E-01  0.577470E-01  0.609465E-01
  0.626256E-01  0.626256E-01  0.609465E-01  0.577470E-01  0.593659E-01  0.540516E-01
  0.480433E-01  0.417815E-01  0.356507E-01  0.299422E-01  0.248396E-01  0.204283E-01
  0.167181E-01  0.136703E-01  0.112196E-01  0.928862E-02  0.779810E-02  0.667571E-02
  0.586227E-02  0.531333E-02  0.499728E-02  0.489426E-02  0.499728E-02  0.531333E-02
  0.586227E-02  0.667571E-02  0.779810E-02  0.928862E-02  0.112196E-01  0.136703E-01
  0.167181E-01  0.204283E-01  0.248396E-01  0.299422E-01  0.356507E-01  0.417815E-01
  0.480433E-01  0.540516E-01  0.593659E-01  0.635478E-01  0.662244E-01  0.671459E-01
  0.662244E-01  0.635478E-01  0.593659E-01  0.593659E-01  0.533193E-01  0.467787E-01
  0.401892E-01  0.339140E-01  0.282053E-01  0.232023E-01  0.189493E-01  0.154243E-01
  0.125668E-01  0.102980E-01  0.853268E-02  0.718874E-02  0.619545E-02  0.549772E-02
  0.505551E-02  0.484159E-02  0.484159E-02  0.505551E-02  0.549772E-02  0.619545E-02
  0.718874E-02  0.853268E-02  0.102980E-01  0.125668E-01  0.154243E-01  0.189493E-01
  0.232023E-01  0.282053E-01  0.339140E-01  0.401892E-01  0.467787E-01  0.533193E-01
  0.593659E-01  0.644436E-01  0.681139E-01  0.700402E-01  0.700402E-01  0.681139E-01
  0.644436E-01  0.593659E-01  0.577470E-01  0.511925E-01  0.443682E-01  0.376980E-01
  0.315026E-01  0.259829E-01  0.212293E-01  0.172475E-01  0.139899E-01  0.113810E-01
  0.933392E-02  0.776033E-02  0.657996E-02  0.572729E-02  0.515332E-02  0.482345E-02
  0.471603E-02  0.482345E-02  0.515332E-02  0.572729E-02  0.657996E-02  0.776033E-02
  0.933392E-02  0.113810E-01  0.139899E-01  0.172475E-01  0.212293E-01  0.259829E-01
  0.315026E-01  0.376980E-01  0.443682E-01  0.511925E-01  0.577470E-01  0.635478E-01
  0.681139E-01  0.710369E-01  0.720433E-01  0.710369E-01  0.681139E-01  0.635478E-01
  0.577470E-01  0.546633E-01  0.478695E-01  0.410296E-01  0.345230E-01  0.286129E-01
  0.234433E-01  0.190581E-01  0.154318E-01  0.124993E-01  0.101769E-01  0.837460E-02
  0.700599E-02  0.599679E-02  0.528928E-02  0.484159E-02  0.462526E-02  0.462526E-02
  0.484159E-02  0.528928E-02  0.599679E-02  0.700599E-02  0.837460E-02  0.101769E-01
  0.124993E-01  0.154318E-01  0.190581E-01  0.234433E-01  0.286129E-01  0.345230E-01
  0.410296E-01  0.478695E-01  0.546633E-01  0.609465E-01  0.662244E-01  0.700402E-01
  0.720433E-01  0.720433E-01  0.700402E-01  0.662244E-01  0.609465E-01  0.546633E-01
  0.503972E-01  0.436442E-01  0.370445E-01  0.309158E-01  0.254568E-01  0.207564E-01
  0.168205E-01  0.136023E-01  0.110272E-01  0.900858E-02  0.745836E-02  0.629659E-02
  0.545812E-02  0.489426E-02  0.457049E-02  0.446510E-02  0.457049E-02  0.489426E-02
  0.545812E-02  0.629659E-02  0.745836E-02  0.900858E-02  0.110272E-01  0.136023E-01
  0.168205E-01  0.207564E-01  0.254568E-01  0.309158E-01  0.370445E-01  0.436442E-01
  0.503972E-01  0.568840E-01  0.626256E-01  0.671459E-01  0.700402E-01  0.710369E-01
  0.700402E-01  0.671459E-01  0.626256E-01  0.568840E-01  0.503972E-01  0.453153E-01
  0.388609E-01  0.327161E-01  0.271283E-01  0.222333E-01  0.180743E-01  0.146302E-01
  0.118424E-01  0.963287E-02  0.791693E-02  0.661297E-02  0.565095E-02  0.497644E-02
  0.454971E-02  0.434356E-02  0.434356E-02  0.454971E-02  0.497644E-02  0.565095E-02
  0.661297E-02  0.791693E-02  0.963287E-02  0.118424E-01  0.146302E-01  0.180743E-01
  0.222333E-01  0.271283E-01  0.327161E-01  0.388609E-01  0.453153E-01  0.517233E-01
  0.576485E-01  0.626256E-01  0.662244E-01  0.681139E-01  0.681139E-01  0.662244E-01
  0.626256E-01  0.576485E-01  0.517233E-01  0.453153E-01  0.398125E-01  0.338641E-01
  0.283278E-01  0.233819E-01  0.191089E-01  0.155190E-01  0.125751E-01  0.102135E-01
  0.835765E-02  0.692898E-02  0.585595E-02  0.508035E-02  0.455833E-02  0.425846E-02
  0.416083E-02  0.425846E-02  0.455833E-02  0.508035E-02  0.585595E-02  0.692898E-02
  0.835765E-02  0.102135E-01  0.125751E-01  0.155190E-01  0.191089E-01  0.233819E-01
  0.283278E-01  0.338641E-01  0.398125E-01  0.458903E-01  0.517233E-01  0.568840E-01
  0.609465E-01  0.635478E-01  0.644436E-01  0.635478E-01  0.609465E-01  0.568840E-01
  0.517233E-01  0.458903E-01  0.398125E-01  0.342586E-01  0.289549E-01  0.241118E-01
  0.198482E-01  0.162071E-01  0.131774E-01  0.107145E-01  0.875431E-02  0.722561E-02
  0.605933E-02  0.519619E-02  0.458974E-02  0.420554E-02  0.401976E-02  0.401976E-02
  0.420554E-02  0.458974E-02  0.519619E-02  0.605933E-02  0.722561E-02  0.875431E-02
  0.107145E-01  0.131774E-01  0.162071E-01  0.198482E-01  0.241118E-01  0.289549E-01
  0.342586E-01  0.398125E-01  0.453153E-01  0.503972E-01  0.546633E-01  0.577470E-01
  0.593659E-01  0.593659E-01  0.577470E-01  0.546633E-01  0.503972E-01  0.453153E-01
  0.398125E-01  0.342586E-01  0.301182E-01  0.253260E-01  0.210236E-01  0.172879E-01
  0.141361E-01  0.115421E-01  0.945202E-02  0.779965E-02  0.651908E-02  0.555230E-02
  0.485169E-02  0.437965E-02  0.410821E-02  0.401976E-02  0.410821E-02  0.437965E-02
  0.485169E-02  0.555230E-02  0.651908E-02  0.779965E-02  0.945202E-02  0.115421E-01
  0.141361E-01  0.172879E-01  0.210236E-01  0.253260E-01  0.301182E-01  0.352485E-01
  0.404823E-01  0.455075E-01  0.499613E-01  0.534751E-01  0.557295E-01  0.565067E-01
  0.557295E-01  0.534751E-01  0.499613E-01  0.455075E-01  0.404823E-01  0.352485E-01
  0.301182E-01  0.253260E-01  0.212403E-01  0.176214E-01  0.145141E-01  0.119162E-01
  0.979274E-02  0.809089E-02  0.675291E-02  0.572503E-02  0.496110E-02  0.442313E-02
  0.408154E-02  0.391595E-02  0.391595E-02  0.408154E-02  0.442313E-02  0.496110E-02
  0.572503E-02  0.675291E-02  0.809089E-02  0.979274E-02  0.119162E-01  0.145141E-01
  0.176214E-01  0.212403E-01  0.253260E-01  0.297746E-01  0.344129E-01  0.389978E-01
  0.432298E-01  0.467849E-01  0.493576E-01  0.507095E-01  0.507095E-01  0.493576E-01
  0.467849E-01  0.432298E-01  0.389978E-01  0.344129E-01  0.297746E-01  0.253260E-01
  0.210236E-01  0.176214E-01  0.146435E-01  0.121106E-01  0.100079E-01  0.829803E-02
  0.693399E-02  0.586892E-02  0.506048E-02  0.447212E-02  0.407387E-02  0.384367E-02
  0.376838E-02  0.384367E-02  0.407387E-02  0.447212E-02  0.506048E-02  0.586892E-02
  0.693399E-02  0.829803E-02  0.100079E-01  0.121106E-01  0.146435E-01  0.176214E-01
  0.210236E-01  0.247824E-01  0.287745E-01  0.328175E-01  0.366755E-01  0.400785E-01
  0.427539E-01  0.444665E-01  0.450563E-01  0.444665E-01  0.427539E-01  0.400785E-01
  0.366755E-01  0.328175E-01  0.287745E-01  0.247824E-01  0.210236E-01  0.172879E-01
  0.145141E-01  0.121106E-01  0.100815E-01  0.840569E-02  0.704860E-02  0.597210E-02
  0.513959E-02  0.451774E-02  0.407759E-02  0.379642E-02  0.365935E-02  0.365935E-02
  0.379642E-02  0.407759E-02  0.451774E-02  0.513959E-02  0.597210E-02  0.704860E-02
  0.840569E-02  0.100815E-01  0.121106E-01  0.145141E-01  0.172879E-01  0.203918E-01
  0.237415E-01  0.272043E-01  0.306010E-01  0.337161E-01  0.363200E-01  0.381979E-01
  0.391826E-01  0.391826E-01  0.381979E-01  0.363200E-01  0.337161E-01  0.306010E-01
  0.272043E-01  0.237415E-01  0.203918E-01  0.172879E-01  0.141361E-01  0.119162E-01
  0.100079E-01  0.840569E-02  0.708783E-02  0.602594E-02  0.519038E-02  0.455246E-02
  0.408568E-02  0.376770E-02  0.358268E-02  0.352190E-02  0.358268E-02  0.376770E-02
  0.408568E-02  0.455246E-02  0.519038E-02  0.602594E-02  0.708783E-02  0.840569E-02
  0.100079E-01  0.119162E-01  0.141361E-01  0.166476E-01  0.193962E-01  0.222887E-01
  0.251927E-01  0.279424E-01  0.303524E-01  0.322382E-01  0.334415E-01  0.338553E-01
  0.334415E-01  0.322382E-01  0.303524E-01  0.279424E-01  0.251927E-01  0.222887E-01
  0.193962E-01  0.166476E-01  0.141361E-01  0.115421E-01  0.979274E-02  0.829803E-02
  0.704860E-02  0.602594E-02  0.520786E-02  0.457110E-02  0.409270E-02  0.375193E-02
  0.353276E-02  0.342534E-02  0.342534E-02  0.353276E-02  0.375193E-02  0.409270E-02
  0.457110E-02  0.520786E-02  0.602594E-02  0.704860E-02  0.829803E-02  0.979274E-02
  0.115421E-01  0.135387E-01  0.157502E-01  0.181140E-01  0.205354E-01  0.228904E-01
  0.250345E-01  0.268160E-01  0.280954E-01  0.287646E-01  0.287646E-01  0.280954E-01
  0.268160E-01  0.250345E-01  0.228904E-01  0.205354E-01  0.181140E-01  0.157502E-01
  0.135387E-01  0.115421E-01  0.945202E-02  0.809089E-02  0.693399E-02  0.597210E-02
  0.519038E-02  0.457110E-02  0.409540E-02  0.374508E-02  0.350493E-02  0.336450E-02
  0.331823E-02  0.336450E-02  0.350493E-02  0.374508E-02  0.409540E-02  0.457110E-02
  0.519038E-02  0.597210E-02  0.693399E-02  0.809089E-02  0.945202E-02  0.110163E-01
  0.127660E-01  0.146613E-01  0.166370E-01  0.186032E-01  0.204504E-01  0.220586E-01
  0.233103E-01  0.241062E-01  0.243794E-01  0.241062E-01  0.233103E-01  0.220586E-01
  0.204504E-01  0.186032E-01  0.166370E-01  0.146613E-01  0.127660E-01  0.110163E-01
  0.945202E-02  0.779965E-02  0.675291E-02  0.586892E-02  0.513959E-02  0.455246E-02
  0.409270E-02  0.374508E-02  0.349603E-02  0.333527E-02  0.325636E-02  0.325636E-02
  0.333527E-02  0.349603E-02  0.374508E-02  0.409270E-02  0.455246E-02  0.513959E-02
  0.586892E-02  0.675291E-02  0.779965E-02  0.901037E-02  0.103757E-01  0.118711E-01
  0.134535E-01  0.150598E-01  0.166093E-01  0.180100E-01  0.191670E-01  0.199941E-01
  0.204255E-01  0.204255E-01  0.199941E-01  0.191670E-01  0.180100E-01  0.166093E-01
  0.150598E-01  0.134535E-01  0.118711E-01  0.103757E-01  0.901037E-02  0.779965E-02
  0.651908E-02  0.572503E-02  0.506048E-02  0.451774E-02  0.408568E-02  0.375193E-02
  0.350493E-02  0.333527E-02  0.323617E-02  0.320359E-02  0.323617E-02  0.333527E-02
  0.350493E-02  0.375193E-02  0.408568E-02  0.451774E-02  0.506048E-02  0.572503E-02
  0.651908E-02  0.744496E-02  0.849757E-02  0.966180E-02  0.109095E-01  0.121978E-01
  0.134690E-01  0.146544E-01  0.156798E-01  0.164739E-01  0.169768E-01  0.171491E-01
  0.169768E-01  0.164739E-01  0.156798E-01  0.146544E-01  0.134690E-01  0.121978E-01
  0.109095E-01  0.966180E-02  0.849757E-02  0.744496E-02  0.651908E-02  0.555230E-02
  0.496110E-02  0.447212E-02  0.407759E-02  0.376770E-02  0.353276E-02  0.336450E-02
  0.325636E-02  0.320359E-02  0.320359E-02  0.325636E-02  0.336450E-02  0.353276E-02
  0.376770E-02  0.407759E-02  0.447212E-02  0.496110E-02  0.555230E-02  0.624935E-02
  0.705002E-02  0.794486E-02  0.891540E-02  0.993257E-02  0.109561E-01  0.119360E-01
  0.128159E-01  0.135388E-01  0.140532E-01  0.143208E-01  0.143208E-01  0.140532E-01
  0.135388E-01  0.128159E-01  0.119360E-01  0.109561E-01  0.993257E-02  0.891540E-02
  0.794486E-02  0.705002E-02  0.624935E-02  0.555230E-02  0.485169E-02  0.442313E-02
  0.407387E-02  0.379642E-02  0.358268E-02  0.342534E-02  0.331823E-02  0.325636E-02
  0.323617E-02  0.325636E-02  0.331823E-02  0.342534E-02  0.358268E-02  0.379642E-02
  0.407387E-02  0.442313E-02  0.485169E-02  0.536439E-02  0.596162E-02  0.663810E-02
  0.738181E-02  0.817299E-02  0.898353E-02  0.977755E-02  0.105132E-01  0.111462E-01
  0.116342E-01  0.119423E-01  0.120477E-01  0.119423E-01  0.116342E-01  0.111462E-01
  0.105132E-01  0.977755E-02  0.898353E-02  0.817299E-02  0.738181E-02  0.663810E-02
  0.596162E-02  0.536439E-02  0.485169E-02  0.437965E-02  0.408154E-02  0.384367E-02
  0.365935E-02  0.352190E-02  0.342534E-02  0.336450E-02  0.333527E-02  0.333527E-02
  0.336450E-02  0.342534E-02  0.352190E-02  0.365935E-02  0.384367E-02  0.408154E-02
  0.437965E-02  0.474335E-02  0.517513E-02  0.567322E-02  0.623062E-02  0.683422E-02
  0.746443E-02  0.809547E-02  0.869654E-02  0.923386E-02  0.967365E-02  0.998585E-02
  0.101480E-01  0.101480E-01  0.998585E-02  0.967365E-02  0.923386E-02  0.869654E-02
  0.809547E-02  0.746443E-02  0.683422E-02  0.623062E-02  0.567322E-02  0.517513E-02
  0.474335E-02  0.437965E-02  0.410821E-02  0.391595E-02  0.376838E-02  0.365935E-02
  0.358268E-02  0.353276E-02  0.350493E-02  0.349603E-02  0.350493E-02  0.353276E-02
  0.358268E-02  0.365935E-02  0.376838E-02  0.391595E-02  0.410821E-02  0.435055E-02
  0.464661E-02  0.499728E-02  0.539960E-02  0.584580E-02  0.632273E-02  0.681200E-02
  0.729089E-02  0.773381E-02  0.811422E-02  0.840714E-02  0.859196E-02  0.865514E-02
  0.859196E-02  0.840714E-02  0.811422E-02  0.773381E-02  0.729089E-02  0.681200E-02
  0.632273E-02  0.584580E-02  0.539960E-02  0.499728E-02  0.464661E-02  0.435055E-02
  0.410821E-02  0.401976E-02  0.391595E-02  0.384367E-02  0.379642E-02  0.376770E-02
  0.375193E-02  0.374508E-02  0.374508E-02  0.375193E-02  0.376770E-02  0.379642E-02
  0.384367E-02  0.391595E-02  0.401976E-02  0.416083E-02  0.434356E-02  0.457049E-02
  0.484159E-02  0.515332E-02  0.549772E-02  0.586227E-02  0.623045E-02  0.658288E-02
  0.689880E-02  0.715777E-02  0.734177E-02  0.743736E-02  0.743736E-02  0.734177E-02
  0.715777E-02  0.689880E-02  0.658288E-02  0.623045E-02  0.586227E-02  0.549772E-02
  0.515332E-02  0.484159E-02  0.457049E-02  0.434356E-02  0.416083E-02  0.401976E-02
  0.410821E-02  0.408154E-02  0.407387E-02  0.407759E-02  0.408568E-02  0.409270E-02
  0.409540E-02  0.409270E-02  0.408568E-02  0.407759E-02  0.407387E-02  0.408154E-02
  0.410821E-02  0.416083E-02  0.424500E-02  0.436467E-02  0.452187E-02  0.471603E-02
  0.494323E-02  0.519568E-02  0.546195E-02  0.572769E-02  0.597671E-02  0.619237E-02
  0.635920E-02  0.646470E-02  0.650080E-02  0.646470E-02  0.635920E-02  0.619237E-02
  0.597671E-02  0.572769E-02  0.546195E-02  0.519568E-02  0.494323E-02  0.471603E-02
  0.452187E-02  0.436467E-02  0.424500E-02  0.416083E-02  0.410821E-02  0.437965E-02
  0.442313E-02  0.447212E-02  0.451774E-02  0.455246E-02  0.457110E-02  0.457110E-02
  0.455246E-02  0.451774E-02  0.447212E-02  0.442313E-02  0.437965E-02  0.435055E-02
  0.434356E-02  0.436467E-02  0.441795E-02  0.450516E-02  0.462526E-02  0.477407E-02
  0.494418E-02  0.512546E-02  0.530563E-02  0.547127E-02  0.560915E-02  0.570792E-02
  0.575941E-02  0.575941E-02  0.570792E-02  0.560915E-02  0.547127E-02  0.530563E-02
  0.512546E-02  0.494418E-02  0.477407E-02  0.462526E-02  0.450516E-02  0.441795E-02
  0.436467E-02  0.434356E-02  0.435055E-02  0.437965E-02  0.485169E-02  0.496110E-02
  0.506048E-02  0.513959E-02  0.519038E-02  0.520786E-02  0.519038E-02  0.513959E-02
  0.506048E-02  0.496110E-02  0.485169E-02  0.474335E-02  0.464661E-02  0.457049E-02
  0.452187E-02  0.450516E-02  0.452187E-02  0.457049E-02  0.464661E-02  0.474335E-02
  0.485169E-02  0.496110E-02  0.506048E-02  0.513959E-02  0.519038E-02  0.520786E-02
  0.519038E-02  0.513959E-02  0.506048E-02  0.496110E-02  0.485169E-02  0.474335E-02
  0.464661E-02  0.457049E-02  0.452187E-02  0.450516E-02  0.452187E-02  0.457049E-02
  0.464661E-02  0.474335E-02  0.485169E-02  0.555230E-02  0.572503E-02  0.586892E-02
  0.597210E-02  0.602594E-02  0.602594E-02  0.597210E-02  0.586892E-02  0.572503E-02
  0.555230E-02  0.536439E-02  0.517513E-02  0.499728E-02  0.484159E-02  0.471603E-02
  0.462526E-02  0.457049E-02  0.454971E-02  0.455833E-02  0.458974E-02  0.463575E-02
  0.468726E-02  0.473525E-02  0.477193E-02  0.479170E-02  0.479170E-02  0.477193E-02
  0.473525E-02  0.468726E-02  0.463575E-02  0.458974E-02  0.455833E-02  0.454971E-02
  0.457049E-02  0.462526E-02  0.471603E-02  0.484159E-02  0.499728E-02  0.517513E-02
  0.536439E-02  0.555230E-02  0.651908E-02  0.675291E-02  0.693399E-02  0.704860E-02
  0.708783E-02  0.704860E-02  0.693399E-02  0.675291E-02  0.651908E-02  0.624935E-02
  0.596162E-02  0.567322E-02  0.539960E-02  0.515332E-02  0.494323E-02  0.477407E-02
  0.464661E-02  0.455833E-02  0.450419E-02  0.447748E-02  0.447058E-02  0.447568E-02
  0.448550E-02  0.449404E-02  0.449734E-02  0.449404E-02  0.448550E-02  0.447568E-02
  0.447058E-02  0.447748E-02  0.450419E-02  0.455833E-02  0.464661E-02  0.477407E-02
  0.494323E-02  0.515332E-02  0.539960E-02  0.567322E-02  0.596162E-02  0.624935E-02
  0.651908E-02  0.779965E-02  0.809089E-02  0.829803E-02  0.840569E-02  0.840569E-02
  0.829803E-02  0.809089E-02  0.779965E-02  0.744496E-02  0.705002E-02  0.663810E-02
  0.623062E-02  0.584580E-02  0.549772E-02  0.519568E-02  0.494418E-02  0.474335E-02
  0.458974E-02  0.447748E-02  0.439951E-02  0.434865E-02  0.431811E-02  0.430185E-02
  0.429508E-02  0.429508E-02  0.430185E-02  0.431811E-02  0.434865E-02  0.439951E-02
  0.447748E-02  0.458974E-02  0.474335E-02  0.494418E-02  0.519568E-02  0.549772E-02
  0.584580E-02  0.623062E-02  0.663810E-02  0.705002E-02  0.744496E-02  0.779965E-02
  0.945202E-02  0.979274E-02  0.100079E-01  0.100815E-01  0.100079E-01  0.979274E-02
  0.945202E-02  0.901037E-02  0.849757E-02  0.794486E-02  0.738181E-02  0.683422E-02
  0.632273E-02  0.586227E-02  0.546195E-02  0.512546E-02  0.485169E-02  0.463575E-02
  0.447058E-02  0.434865E-02  0.426297E-02  0.420736E-02  0.417655E-02  0.416675E-02
  0.417655E-02  0.420736E-02  0.426297E-02  0.434865E-02  0.447058E-02  0.463575E-02
  0.485169E-02  0.512546E-02  0.546195E-02  0.586227E-02  0.632273E-02  0.683422E-02
  0.738181E-02  0.794486E-02  0.849757E-02  0.901037E-02  0.945202E-02  0.115421E-01
  0.119162E-01  0.121106E-01  0.121106E-01  0.119162E-01  0.115421E-01  0.110163E-01
  0.103757E-01  0.966180E-02  0.891540E-02  0.817299E-02  0.746443E-02  0.681200E-02
  0.623045E-02  0.572769E-02  0.530563E-02  0.496110E-02  0.468726E-02  0.447568E-02
  0.431811E-02  0.420736E-02  0.413745E-02  0.410378E-02  0.410378E-02  0.413745E-02
  0.420736E-02  0.431811E-02  0.447568E-02  0.468726E-02  0.496110E-02  0.530563E-02
  0.572769E-02  0.623045E-02  0.681200E-02  0.746443E-02  0.817299E-02  0.891540E-02
  0.966180E-02  0.103757E-01  0.110163E-01  0.115421E-01  0.141361E-01  0.145141E-01
  0.146435E-01  0.145141E-01  0.141361E-01  0.135387E-01  0.127660E-01  0.118711E-01
  0.109095E-01  0.993257E-02  0.898353E-02  0.809547E-02  0.729089E-02  0.658288E-02
  0.597671E-02  0.547127E-02  0.506048E-02  0.473525E-02  0.448550E-02  0.430185E-02
  0.417655E-02  0.410378E-02  0.407994E-02  0.410378E-02  0.417655E-02  0.430185E-02
  0.448550E-02  0.473525E-02  0.506048E-02  0.547127E-02  0.597671E-02  0.658288E-02
  0.729089E-02  0.809547E-02  0.898353E-02  0.993257E-02  0.109095E-01  0.118711E-01
  0.127660E-01  0.135387E-01  0.141361E-01  0.172879E-01  0.176214E-01  0.176214E-01
  0.172879E-01  0.166476E-01  0.157502E-01  0.146613E-01  0.134535E-01  0.121978E-01
  0.109561E-01  0.977755E-02  0.869654E-02  0.773381E-02  0.689880E-02  0.619237E-02
  0.560915E-02  0.513959E-02  0.477193E-02  0.449404E-02  0.429508E-02  0.416675E-02
  0.410378E-02  0.410378E-02  0.416675E-02  0.429508E-02  0.449404E-02  0.477193E-02
  0.513959E-02  0.560915E-02  0.619237E-02  0.689880E-02  0.773381E-02  0.869654E-02
  0.977755E-02  0.109561E-01  0.121978E-01  0.134535E-01  0.146613E-01  0.157502E-01
  0.166476E-01  0.172879E-01  0.210236E-01  0.212403E-01  0.210236E-01  0.203918E-01
  0.193962E-01  0.181140E-01  0.166370E-01  0.150598E-01  0.134690E-01  0.119360E-01
  0.105132E-01  0.923386E-02  0.811422E-02  0.715777E-02  0.635920E-02  0.570792E-02
  0.519038E-02  0.479170E-02  0.449734E-02  0.429508E-02  0.417655E-02  0.413745E-02
  0.417655E-02  0.429508E-02  0.449734E-02  0.479170E-02  0.519038E-02  0.570792E-02
  0.635920E-02  0.715777E-02  0.811422E-02  0.923386E-02  0.105132E-01  0.119360E-01
  0.134690E-01  0.150598E-01  0.166370E-01  0.181140E-01  0.193962E-01  0.203918E-01
  0.210236E-01  0.253260E-01  0.253260E-01  0.247824E-01  0.237415E-01  0.222887E-01
  0.205354E-01  0.186032E-01  0.166093E-01  0.146544E-01  0.128159E-01  0.111462E-01
  0.967365E-02  0.840714E-02  0.734177E-02  0.646470E-02  0.575941E-02  0.520786E-02
  0.479170E-02  0.449404E-02  0.430185E-02  0.420736E-02  0.420736E-02  0.430185E-02
  0.449404E-02  0.479170E-02  0.520786E-02  0.575941E-02  0.646470E-02  0.734177E-02
  0.840714E-02  0.967365E-02  0.111462E-01  0.128159E-01  0.146544E-01  0.166093E-01
  0.186032E-01  0.205354E-01  0.222887E-01  0.237415E-01  0.247824E-01  0.253260E-01
  0.301182E-01  0.297746E-01  0.287745E-01  0.272043E-01  0.251927E-01  0.228904E-01
  0.204504E-01  0.180100E-01  0.156798E-01  0.135388E-01  0.116342E-01  0.998585E-02
  0.859196E-02  0.743736E-02  0.650080E-02  0.575941E-02  0.519038E-02  0.477193E-02
  0.448550E-02  0.431811E-02  0.426297E-02  0.431811E-02  0.448550E-02  0.477193E-02
  0.519038E-02  0.575941E-02  0.650080E-02  0.743736E-02  0.859196E-02  0.998585E-02
  0.116342E-01  0.135388E-01  0.156798E-01  0.180100E-01  0.204504E-01  0.228904E-01
  0.251927E-01  0.272043E-01  0.287745E-01  0.297746E-01  0.301182E-01  0.352485E-01
  0.344129E-01  0.328175E-01  0.306010E-01  0.279424E-01  0.250345E-01  0.220586E-01
  0.191670E-01  0.164739E-01  0.140532E-01  0.119423E-01  0.101480E-01  0.865514E-02
  0.743736E-02  0.646470E-02  0.570792E-02  0.513959E-02  0.473525E-02  0.447568E-02
  0.434865E-02  0.434865E-02  0.447568E-02  0.473525E-02  0.513959E-02  0.570792E-02
  0.646470E-02  0.743736E-02  0.865514E-02  0.101480E-01  0.119423E-01  0.140532E-01
  0.164739E-01  0.191670E-01  0.220586E-01  0.250345E-01  0.279424E-01  0.306010E-01
  0.328175E-01  0.344129E-01  0.352485E-01  0.352485E-01  0.404823E-01  0.389978E-01
  0.366755E-01  0.337161E-01  0.303524E-01  0.268160E-01  0.233103E-01  0.199941E-01
  0.169768E-01  0.143208E-01  0.120477E-01  0.101480E-01  0.859196E-02  0.734177E-02
  0.635920E-02  0.560915E-02  0.506048E-02  0.468726E-02  0.447058E-02  0.439951E-02
  0.447058E-02  0.468726E-02  0.506048E-02  0.560915E-02  0.635920E-02  0.734177E-02
  0.859196E-02  0.101480E-01  0.120477E-01  0.143208E-01  0.169768E-01  0.199941E-01
  0.233103E-01  0.268160E-01  0.303524E-01  0.337161E-01  0.366755E-01  0.389978E-01
  0.404823E-01  0.409932E-01  0.404823E-01  0.455075E-01  0.432298E-01  0.400785E-01
  0.363200E-01  0.322382E-01  0.280954E-01  0.241062E-01  0.204255E-01  0.171491E-01
  0.143208E-01  0.119423E-01  0.998585E-02  0.840714E-02  0.715777E-02  0.619237E-02
  0.547127E-02  0.496110E-02  0.463575E-02  0.447748E-02  0.447748E-02  0.463575E-02
  0.496110E-02  0.547127E-02  0.619237E-02  0.715777E-02  0.840714E-02  0.998585E-02
  0.119423E-01  0.143208E-01  0.171491E-01  0.204255E-01  0.241062E-01  0.280954E-01
  0.322382E-01  0.363200E-01  0.400785E-01  0.432298E-01  0.455075E-01  0.467034E-01
  0.467034E-01  0.455075E-01  0.499613E-01  0.467849E-01  0.427539E-01  0.381979E-01
  0.334415E-01  0.287646E-01  0.243794E-01  0.204255E-01  0.169768E-01  0.140532E-01
  0.116342E-01  0.967365E-02  0.811422E-02  0.689880E-02  0.597671E-02  0.530563E-02
  0.485169E-02  0.458974E-02  0.450419E-02  0.458974E-02  0.485169E-02  0.530563E-02
  0.597671E-02  0.689880E-02  0.811422E-02  0.967365E-02  0.116342E-01  0.140532E-01
  0.169768E-01  0.204255E-01  0.243794E-01  0.287646E-01  0.334415E-01  0.381979E-01
  0.427539E-01  0.467849E-01  0.499613E-01  0.519974E-01  0.526991E-01  0.519974E-01
  0.499613E-01  0.534751E-01  0.493576E-01  0.444665E-01  0.391826E-01  0.338553E-01
  0.287646E-01  0.241062E-01  0.199941E-01  0.164739E-01  0.135388E-01  0.111462E-01
  0.923386E-02  0.773381E-02  0.658288E-02  0.572769E-02  0.512546E-02  0.474335E-02
  0.455833E-02  0.455833E-02  0.474335E-02  0.512546E-02  0.572769E-02  0.658288E-02
  0.773381E-02  0.923386E-02  0.111462E-01  0.135388E-01  0.164739E-01  0.199941E-01
  0.241062E-01  0.287646E-01  0.338553E-01  0.391826E-01  0.444665E-01  0.493576E-01
  0.534751E-01  0.564591E-01  0.580283E-01  0.580283E-01  0.564591E-01  0.534751E-01
  0.557295E-01  0.507095E-01  0.450563E-01  0.391826E-01  0.334415E-01  0.280954E-01
  0.233103E-01  0.191670E-01  0.156798E-01  0.128159E-01  0.105132E-01  0.869654E-02
  0.729089E-02  0.623045E-02  0.546195E-02  0.494418E-02  0.464661E-02  0.454971E-02
  0.464661E-02  0.494418E-02  0.546195E-02  0.623045E-02  0.729089E-02  0.869654E-02
  0.105132E-01  0.128159E-01  0.156798E-01  0.191670E-01  0.233103E-01  0.280954E-01
  0.334415E-01  0.391826E-01  0.450563E-01  0.507095E-01  0.557295E-01  0.596951E-01
  0.622413E-01  0.631194E-01  0.622413E-01  0.596951E-01  0.557295E-01  0.565067E-01
  0.507095E-01  0.444665E-01  0.381979E-01  0.322382E-01  0.268160E-01  0.220586E-01
  0.180100E-01  0.146544E-01  0.119360E-01  0.977755E-02  0.809547E-02  0.681200E-02
  0.586227E-02  0.519568E-02  0.477407E-02  0.457049E-02  0.457049E-02  0.477407E-02
  0.519568E-02  0.586227E-02  0.681200E-02  0.809547E-02  0.977755E-02  0.119360E-01
  0.146544E-01  0.180100E-01  0.220586E-01  0.268160E-01  0.322382E-01  0.381979E-01
  0.444665E-01  0.507095E-01  0.565067E-01  0.613978E-01  0.649479E-01  0.668165E-01
  0.668165E-01  0.649479E-01  0.613978E-01  0.565067E-01  0.557295E-01  0.493576E-01
  0.427539E-01  0.363200E-01  0.303524E-01  0.250345E-01  0.204504E-01  0.166093E-01
  0.134690E-01  0.109561E-01  0.898353E-02  0.746443E-02  0.632273E-02  0.549772E-02
  0.494323E-02  0.462526E-02  0.452187E-02  0.462526E-02  0.494323E-02  0.549772E-02
  0.632273E-02  0.746443E-02  0.898353E-02  0.109561E-01  0.134690E-01  0.166093E-01
  0.204504E-01  0.250345E-01  0.303524E-01  0.363200E-01  0.427539E-01  0.493576E-01
  0.557295E-01  0.613978E-01  0.658816E-01  0.687631E-01  0.697574E-01  0.687631E-01
  0.658816E-01  0.613978E-01  0.557295E-01  0.534751E-01  0.467849E-01  0.400785E-01
  0.337161E-01  0.279424E-01  0.228904E-01  0.186032E-01  0.150598E-01  0.121978E-01
  0.993257E-02  0.817299E-02  0.683422E-02  0.584580E-02  0.515332E-02  0.471603E-02
  0.450516E-02  0.450516E-02  0.471603E-02  0.515332E-02  0.584580E-02  0.683422E-02
  0.817299E-02  0.993257E-02  0.121978E-01  0.150598E-01  0.186032E-01  0.228904E-01
  0.279424E-01  0.337161E-01  0.400785E-01  0.467849E-01  0.534751E-01  0.596951E-01
  0.649479E-01  0.687631E-01  0.707722E-01  0.707722E-01  0.687631E-01  0.649479E-01
  0.596951E-01  0.534751E-01  0.499613E-01  0.432298E-01  0.366755E-01  0.306010E-01
  0.251927E-01  0.205354E-01  0.166370E-01  0.134535E-01  0.109095E-01  0.891540E-02
  0.738181E-02  0.623062E-02  0.539960E-02  0.484159E-02  0.452187E-02  0.441795E-02
  0.452187E-02  0.484159E-02  0.539960E-02  0.623062E-02  0.738181E-02  0.891540E-02
  0.109095E-01  0.134535E-01  0.166370E-01  0.205354E-01  0.251927E-01  0.306010E-01
  0.366755E-01  0.432298E-01  0.499613E-01  0.564591E-01  0.622413E-01  0.668165E-01
  0.697574E-01  0.707722E-01  0.697574E-01  0.668165E-01  0.622413E-01  0.564591E-01
  0.499613E-01  0.455075E-01  0.389978E-01  0.328175E-01  0.272043E-01  0.222887E-01
  0.181140E-01  0.146613E-01  0.118711E-01  0.966180E-02  0.794486E-02  0.663810E-02
  0.567322E-02  0.499728E-02  0.457049E-02  0.436467E-02  0.436467E-02  0.457049E-02
  0.499728E-02  0.567322E-02  0.663810E-02  0.794486E-02  0.966180E-02  0.118711E-01
  0.146613E-01  0.181140E-01  0.222887E-01  0.272043E-01  0.328175E-01  0.389978E-01
  0.455075E-01  0.519974E-01  0.580283E-01  0.631194E-01  0.668165E-01  0.687631E-01
  0.687631E-01  0.668165E-01  0.631194E-01  0.580283E-01  0.519974E-01  0.455075E-01
  0.404823E-01  0.344129E-01  0.287745E-01  0.237415E-01  0.193962E-01  0.157502E-01
  0.127660E-01  0.103757E-01  0.849757E-02  0.705002E-02  0.596162E-02  0.517513E-02
  0.464661E-02  0.434356E-02  0.424500E-02  0.434356E-02  0.464661E-02  0.517513E-02
  0.596162E-02  0.705002E-02  0.849757E-02  0.103757E-01  0.127660E-01  0.157502E-01
  0.193962E-01  0.237415E-01  0.287745E-01  0.344129E-01  0.404823E-01  0.467034E-01
  0.526991E-01  0.580283E-01  0.622413E-01  0.649479E-01  0.658816E-01  0.649479E-01
  0.622413E-01  0.580283E-01  0.526991E-01  0.467034E-01  0.404823E-01  0.352485E-01
  0.297746E-01  0.247824E-01  0.203918E-01  0.166476E-01  0.135387E-01  0.110163E-01
  0.901037E-02  0.744496E-02  0.624935E-02  0.536439E-02  0.474335E-02  0.435055E-02
  0.416083E-02  0.416083E-02  0.435055E-02  0.474335E-02  0.536439E-02  0.624935E-02
  0.744496E-02  0.901037E-02  0.110163E-01  0.135387E-01  0.166476E-01  0.203918E-01
  0.247824E-01  0.297746E-01  0.352485E-01  0.409932E-01  0.467034E-01  0.519974E-01
  0.564591E-01  0.596951E-01  0.613978E-01  0.613978E-01  0.596951E-01  0.564591E-01
  0.519974E-01  0.467034E-01  0.409932E-01  0.352485E-01  0.301182E-01  0.253260E-01
  0.210236E-01  0.172879E-01  0.141361E-01  0.115421E-01  0.945202E-02  0.779965E-02
  0.651908E-02  0.555230E-02  0.485169E-02  0.437965E-02  0.410821E-02  0.401976E-02
  0.410821E-02  0.437965E-02  0.485169E-02  0.555230E-02  0.651908E-02  0.779965E-02
  0.945202E-02  0.115421E-01  0.141361E-01  0.172879E-01  0.210236E-01  0.253260E-01
  0.301182E-01  0.352485E-01  0.404823E-01  0.455075E-01  0.499613E-01  0.534751E-01
  0.557295E-01  0.565067E-01  0.557295E-01  0.534751E-01  0.499613E-01  0.455075E-01
  0.404823E-01  0.352485E-01  0.301182E-01  0.268656E-01  0.225217E-01  0.186802E-01
  0.153877E-01  0.126403E-01  0.103987E-01  0.860419E-02  0.719398E-02  0.611065E-02
  0.530563E-02  0.473907E-02  0.437965E-02  0.420554E-02  0.420554E-02  0.437965E-02
  0.473907E-02  0.530563E-02  0.611065E-02  0.719398E-02  0.860419E-02  0.103987E-01
  0.126403E-01  0.153877E-01  0.186802E-01  0.225217E-01  0.268656E-01  0.316026E-01
  0.365502E-01  0.414506E-01  0.459832E-01  0.497979E-01  0.525627E-01  0.540169E-01
  0.540169E-01  0.525627E-01  0.497979E-01  0.459832E-01  0.414506E-01  0.365502E-01
  0.316026E-01  0.268656E-01  0.225217E-01  0.188712E-01  0.156824E-01  0.129762E-01
  0.107344E-01  0.891429E-02  0.746345E-02  0.633084E-02  0.547127E-02  0.484601E-02
  0.442313E-02  0.417890E-02  0.409906E-02  0.417890E-02  0.442313E-02  0.484601E-02
  0.547127E-02  0.633084E-02  0.746345E-02  0.891429E-02  0.107344E-01  0.129762E-01
  0.156824E-01  0.188712E-01  0.225217E-01  0.265620E-01  0.308608E-01  0.352229E-01
  0.393940E-01  0.430802E-01  0.459832E-01  0.478436E-01  0.484847E-01  0.478436E-01
  0.459832E-01  0.430802E-01  0.393940E-01  0.352229E-01  0.308608E-01  0.265620E-01
  0.225217E-01  0.186802E-01  0.156824E-01  0.130911E-01  0.109088E-01  0.910994E-02
  0.765492E-02  0.650120E-02  0.560915E-02  0.494315E-02  0.447212E-02  0.417145E-02
  0.402493E-02  0.402493E-02  0.417145E-02  0.447212E-02  0.494315E-02  0.560915E-02
  0.650120E-02  0.765492E-02  0.910994E-02  0.109088E-01  0.130911E-01  0.156824E-01
  0.186802E-01  0.220422E-01  0.256776E-01  0.294434E-01  0.331447E-01  0.365460E-01
  0.393940E-01  0.414506E-01  0.425299E-01  0.425299E-01  0.414506E-01  0.393940E-01
  0.365460E-01  0.331447E-01  0.294434E-01  0.256776E-01  0.220422E-01  0.186802E-01
  0.153877E-01  0.129762E-01  0.109088E-01  0.917681E-02  0.775437E-02  0.660894E-02
  0.570792E-02  0.502040E-02  0.451774E-02  0.417557E-02  0.397652E-02  0.391111E-02
  0.397652E-02  0.417557E-02  0.451774E-02  0.502040E-02  0.570792E-02  0.660894E-02
  0.775437E-02  0.917681E-02  0.109088E-01  0.129762E-01  0.153877E-01  0.181228E-01
  0.211233E-01  0.242878E-01  0.274716E-01  0.304924E-01  0.331447E-01  0.352229E-01
  0.365502E-01  0.370068E-01  0.365502E-01  0.352229E-01  0.331447E-01  0.304924E-01
  0.274716E-01  0.242878E-01  0.211233E-01  0.181228E-01  0.153877E-01  0.126403E-01
  0.107344E-01  0.910994E-02  0.775437E-02  0.664581E-02  0.575941E-02  0.506994E-02
  0.455246E-02  0.418416E-02  0.394730E-02  0.383112E-02  0.383112E-02  0.394730E-02
  0.418416E-02  0.455246E-02  0.506994E-02  0.575941E-02  0.664581E-02  0.775437E-02
  0.910994E-02  0.107344E-01  0.126403E-01  0.148213E-01  0.172436E-01  0.198391E-01
  0.225043E-01  0.251021E-01  0.274716E-01  0.294434E-01  0.308608E-01  0.316026E-01
  0.316026E-01  0.308608E-01  0.294434E-01  0.274716E-01  0.251021E-01  0.225043E-01
  0.198391E-01  0.172436E-01  0.148213E-01  0.126403E-01  0.103987E-01  0.891429E-02
  0.765492E-02  0.660894E-02  0.575941E-02  0.508697E-02  0.457110E-02  0.419164E-02
  0.393153E-02  0.377924E-02  0.372901E-02  0.377924E-02  0.393153E-02  0.419164E-02
  0.457110E-02  0.508697E-02  0.575941E-02  0.660894E-02  0.765492E-02  0.891429E-02
  0.103987E-01  0.121087E-01  0.140265E-01  0.161097E-01  0.182869E-01  0.204592E-01
  0.225043E-01  0.242878E-01  0.256776E-01  0.265620E-01  0.268656E-01  0.265620E-01
  0.256776E-01  0.242878E-01  0.225043E-01  0.204592E-01  0.182869E-01  0.161097E-01
  0.140265E-01  0.121087E-01  0.103987E-01  0.860419E-02  0.746345E-02  0.650120E-02
  0.570792E-02  0.506994E-02  0.457110E-02  0.419451E-02  0.392483E-02  0.375052E-02
  0.366477E-02  0.366477E-02  0.375052E-02  0.392483E-02  0.419451E-02  0.457110E-02
  0.506994E-02  0.570792E-02  0.650120E-02  0.746345E-02  0.860419E-02  0.992596E-02
  0.114199E-01  0.130606E-01  0.148014E-01  0.165733E-01  0.182869E-01  0.198391E-01
  0.211233E-01  0.220422E-01  0.225217E-01  0.225217E-01  0.220422E-01  0.211233E-01
  0.198391E-01  0.182869E-01  0.165733E-01  0.148014E-01  0.130606E-01  0.114199E-01
  0.992596E-02  0.860419E-02  0.719398E-02  0.633084E-02  0.560915E-02  0.502040E-02
  0.455246E-02  0.419164E-02  0.392483E-02  0.374139E-02  0.363398E-02  0.359859E-02
  0.363398E-02  0.374139E-02  0.392483E-02  0.419164E-02  0.455246E-02  0.502040E-02
  0.560915E-02  0.633084E-02  0.719398E-02  0.820161E-02  0.934907E-02  0.106209E-01
  0.119873E-01  0.134019E-01  0.148014E-01  0.161097E-01  0.172436E-01  0.181228E-01
  0.186802E-01  0.188712E-01  0.186802E-01  0.181228E-01  0.172436E-01  0.161097E-01
  0.148014E-01  0.134019E-01  0.119873E-01  0.106209E-01  0.934907E-02  0.820161E-02
  0.719398E-02  0.611065E-02  0.547127E-02  0.494315E-02  0.451774E-02  0.418416E-02
  0.393153E-02  0.375052E-02  0.363398E-02  0.357699E-02  0.357699E-02  0.363398E-02
  0.375052E-02  0.393153E-02  0.418416E-02  0.451774E-02  0.494315E-02  0.547127E-02
  0.611065E-02  0.686535E-02  0.773329E-02  0.870471E-02  0.976028E-02  0.108690E-01
  0.119873E-01  0.130606E-01  0.140265E-01  0.148213E-01  0.153877E-01  0.156824E-01
  0.156824E-01  0.153877E-01  0.148213E-01  0.140265E-01  0.130606E-01  0.119873E-01
  0.108690E-01  0.976028E-02  0.870471E-02  0.773329E-02  0.686535E-02  0.611065E-02
  0.530563E-02  0.484601E-02  0.447212E-02  0.417557E-02  0.394730E-02  0.377924E-02
  0.366477E-02  0.359859E-02  0.357699E-02  0.359859E-02  0.366477E-02  0.377924E-02
  0.394730E-02  0.417557E-02  0.447212E-02  0.484601E-02  0.530563E-02  0.585644E-02
  0.649892E-02  0.722746E-02  0.802931E-02  0.888355E-02  0.976028E-02  0.106209E-01
  0.114199E-01  0.121087E-01  0.126403E-01  0.129762E-01  0.130911E-01  0.129762E-01
  0.126403E-01  0.121087E-01  0.114199E-01  0.106209E-01  0.976028E-02  0.888355E-02
  0.802931E-02  0.722746E-02  0.649892E-02  0.585644E-02  0.530563E-02  0.473907E-02
  0.442313E-02  0.417145E-02  0.397652E-02  0.383112E-02  0.372901E-02  0.366477E-02
  0.363398E-02  0.363398E-02  0.366477E-02  0.372901E-02  0.383112E-02  0.397652E-02
  0.417145E-02  0.442313E-02  0.473907E-02  0.512546E-02  0.558518E-02  0.611628E-02
  0.671112E-02  0.735570E-02  0.802931E-02  0.870471E-02  0.934907E-02  0.992596E-02
  0.103987E-01  0.107344E-01  0.109088E-01  0.109088E-01  0.107344E-01  0.103987E-01
  0.992596E-02  0.934907E-02  0.870471E-02  0.802931E-02  0.735570E-02  0.671112E-02
  0.611628E-02  0.558518E-02  0.512546E-02  0.473907E-02  0.437965E-02  0.417890E-02
  0.402493E-02  0.391111E-02  0.383112E-02  0.377924E-02  0.375052E-02  0.374139E-02
  0.375052E-02  0.377924E-02  0.383112E-02  0.391111E-02  0.402493E-02  0.417890E-02
  0.437965E-02  0.463331E-02  0.494418E-02  0.531333E-02  0.573743E-02  0.620801E-02
  0.671112E-02  0.722746E-02  0.773329E-02  0.820161E-02  0.860419E-02  0.891429E-02
  0.910994E-02  0.917681E-02  0.910994E-02  0.891429E-02  0.860419E-02  0.820161E-02
  0.773329E-02  0.722746E-02  0.671112E-02  0.620801E-02  0.573743E-02  0.531333E-02
  0.494418E-02  0.463331E-02  0.437965E-02  0.420554E-02  0.409906E-02  0.402493E-02
  0.397652E-02  0.394730E-02  0.393153E-02  0.392483E-02  0.392483E-02  0.393153E-02
  0.394730E-02  0.397652E-02  0.402493E-02  0.409906E-02  0.420554E-02  0.435055E-02
  0.453908E-02  0.477407E-02  0.505551E-02  0.537946E-02  0.573743E-02  0.611628E-02
  0.649892E-02  0.686535E-02  0.719398E-02  0.746345E-02  0.765492E-02  0.775437E-02
  0.775437E-02  0.765492E-02  0.746345E-02  0.719398E-02  0.686535E-02  0.649892E-02
  0.611628E-02  0.573743E-02  0.537946E-02  0.505551E-02  0.477407E-02  0.453908E-02
  0.435055E-02  0.420554E-02  0.420554E-02  0.417890E-02  0.417145E-02  0.417557E-02
  0.418416E-02  0.419164E-02  0.419451E-02  0.419164E-02  0.418416E-02  0.417557E-02
  0.417145E-02  0.417890E-02  0.420554E-02  0.425846E-02  0.434356E-02  0.446510E-02
  0.462526E-02  0.482345E-02  0.505551E-02  0.531333E-02  0.558518E-02  0.585644E-02
  0.611065E-02  0.633084E-02  0.650120E-02  0.660894E-02  0.664581E-02  0.660894E-02
  0.650120E-02  0.633084E-02  0.611065E-02  0.585644E-02  0.558518E-02  0.531333E-02
  0.505551E-02  0.482345E-02  0.462526E-02  0.446510E-02  0.434356E-02  0.425846E-02
  0.420554E-02  0.437965E-02  0.442313E-02  0.447212E-02  0.451774E-02  0.455246E-02
  0.457110E-02  0.457110E-02  0.455246E-02  0.451774E-02  0.447212E-02  0.442313E-02
  0.437965E-02  0.435055E-02  0.434356E-02  0.436467E-02  0.441795E-02  0.450516E-02
  0.462526E-02  0.477407E-02  0.494418E-02  0.512546E-02  0.530563E-02  0.547127E-02
  0.560915E-02  0.570792E-02  0.575941E-02  0.575941E-02  0.570792E-02  0.560915E-02
  0.547127E-02  0.530563E-02  0.512546E-02  0.494418E-02  0.477407E-02  0.462526E-02
  0.450516E-02  0.441795E-02  0.436467E-02  0.434356E-02  0.435055E-02  0.437965E-02
  0.473907E-02  0.484601E-02  0.494315E-02  0.502040E-02  0.506994E-02  0.508697E-02
  0.506994E-02  0.502040E-02  0.494315E-02  0.484601E-02  0.473907E-02  0.463331E-02
  0.453908E-02  0.446510E-02  0.441795E-02  0.440176E-02  0.441795E-02  0.446510E-02
  0.453908E-02  0.463331E-02  0.473907E-02  0.484601E-02  0.494315E-02  0.502040E-02
  0.506994E-02  0.508697E-02  0.506994E-02  0.502040E-02  0.494315E-02  0.484601E-02
  0.473907E-02  0.463331E-02  0.453908E-02  0.446510E-02  0.441795E-02  0.440176E-02
  0.441795E-02  0.446510E-02  0.453908E-02  0.463331E-02  0.473907E-02  0.530563E-02
  0.547127E-02  0.560915E-02  0.570792E-02  0.575941E-02  0.575941E-02  0.570792E-02
  0.560915E-02  0.547127E-02  0.530563E-02  0.512546E-02  0.494418E-02  0.477407E-02
  0.462526E-02  0.450516E-02  0.441795E-02  0.436467E-02  0.434356E-02  0.435055E-02
  0.437965E-02  0.442313E-02  0.447212E-02  0.451774E-02  0.455246E-02  0.457110E-02
  0.457110E-02  0.455246E-02  0.451774E-02  0.447212E-02  0.442313E-02  0.437965E-02
  0.435055E-02  0.434356E-02  0.436467E-02  0.441795E-02  0.450516E-02  0.462526E-02
  0.477407E-02  0.494418E-02  0.512546E-02  0.530563E-02  0.611065E-02  0.633084E-02
  0.650120E-02  0.660894E-02  0.664581E-02  0.660894E-02  0.650120E-02  0.633084E-02
  0.611065E-02  0.585644E-02  0.558518E-02  0.531333E-02  0.505551E-02  0.482345E-02
  0.462526E-02  0.446510E-02  0.434356E-02  0.425846E-02  0.420554E-02  0.417890E-02
  0.417145E-02  0.417557E-02  0.418416E-02  0.419164E-02  0.419451E-02  0.419164E-02
  0.418416E-02  0.417557E-02  0.417145E-02  0.417890E-02  0.420554E-02  0.425846E-02
  0.434356E-02  0.446510E-02  0.462526E-02  0.482345E-02  0.505551E-02  0.531333E-02
  0.558518E-02  0.585644E-02  0.611065E-02  0.719398E-02  0.746345E-02  0.765492E-02
  0.775437E-02  0.775437E-02  0.765492E-02  0.746345E-02  0.719398E-02  0.686535E-02
  0.649892E-02  0.611628E-02  0.573743E-02  0.537946E-02  0.505551E-02  0.477407E-02
  0.453908E-02  0.435055E-02  0.420554E-02  0.409906E-02  0.402493E-02  0.397652E-02
  0.394730E-02  0.393153E-02  0.392483E-02  0.392483E-02  0.393153E-02  0.394730E-02
  0.397652E-02  0.402493E-02  0.409906E-02  0.420554E-02  0.435055E-02  0.453908E-02
  0.477407E-02  0.505551E-02  0.537946E-02  0.573743E-02  0.611628E-02  0.649892E-02
  0.686535E-02  0.719398E-02  0.860419E-02  0.891429E-02  0.910994E-02  0.917681E-02
  0.910994E-02  0.891429E-02  0.860419E-02  0.820161E-02  0.773329E-02  0.722746E-02
  0.671112E-02  0.620801E-02  0.573743E-02  0.531333E-02  0.494418E-02  0.463331E-02
  0.437965E-02  0.417890E-02  0.402493E-02  0.391111E-02  0.383112E-02  0.377924E-02
  0.375052E-02  0.374139E-02  0.375052E-02  0.377924E-02  0.383112E-02  0.391111E-02
  0.402493E-02  0.417890E-02  0.437965E-02  0.463331E-02  0.494418E-02  0.531333E-02
  0.573743E-02  0.620801E-02  0.671112E-02  0.722746E-02  0.773329E-02  0.820161E-02
  0.860419E-02  0.103987E-01  0.107344E-01  0.109088E-01  0.109088E-01  0.107344E-01
  0.103987E-01  0.992596E-02  0.934907E-02  0.870471E-02  0.802931E-02  0.735570E-02
  0.671112E-02  0.611628E-02  0.558518E-02  0.512546E-02  0.473907E-02  0.442313E-02
  0.417145E-02  0.397652E-02  0.383112E-02  0.372901E-02  0.366477E-02  0.363398E-02
  0.363398E-02  0.366477E-02  0.372901E-02  0.383112E-02  0.397652E-02  0.417145E-02
  0.442313E-02  0.473907E-02  0.512546E-02  0.558518E-02  0.611628E-02  0.671112E-02
  0.735570E-02  0.802931E-02  0.870471E-02  0.934907E-02  0.992596E-02  0.103987E-01
  0.126403E-01  0.129762E-01  0.130911E-01  0.129762E-01  0.126403E-01  0.121087E-01
  0.114199E-01  0.106209E-01  0.976028E-02  0.888355E-02  0.802931E-02  0.722746E-02
  0.649892E-02  0.585644E-02  0.530563E-02  0.484601E-02  0.447212E-02  0.417557E-02
  0.394730E-02  0.377924E-02  0.366477E-02  0.359859E-02  0.357699E-02  0.359859E-02
  0.366477E-02  0.377924E-02  0.394730E-02  0.417557E-02  0.447212E-02  0.484601E-02
  0.530563E-02  0.585644E-02  0.649892E-02  0.722746E-02  0.802931E-02  0.888355E-02
  0.976028E-02  0.106209E-01  0.114199E-01  0.121087E-01  0.126403E-01  0.153877E-01
  0.156824E-01  0.156824E-01  0.153877E-01  0.148213E-01  0.140265E-01  0.130606E-01
  0.119873E-01  0.108690E-01  0.976028E-02  0.870471E-02  0.773329E-02  0.686535E-02
  0.611065E-02  0.547127E-02  0.494315E-02  0.451774E-02  0.418416E-02  0.393153E-02
  0.375052E-02  0.363398E-02  0.357699E-02  0.357699E-02  0.363398E-02  0.375052E-02
  0.393153E-02  0.418416E-02  0.451774E-02  0.494315E-02  0.547127E-02  0.611065E-02
  0.686535E-02  0.773329E-02  0.870471E-02  0.976028E-02  0.108690E-01  0.119873E-01
  0.130606E-01  0.140265E-01  0.148213E-01  0.153877E-01  0.186802E-01  0.188712E-01
  0.186802E-01  0.181228E-01  0.172436E-01  0.161097E-01  0.148014E-01  0.134019E-01
  0.119873E-01  0.106209E-01  0.934907E-02  0.820161E-02  0.719398E-02  0.633084E-02
  0.560915E-02  0.502040E-02  0.455246E-02  0.419164E-02  0.392483E-02  0.374139E-02
  0.363398E-02  0.359859E-02  0.363398E-02  0.374139E-02  0.392483E-02  0.419164E-02
  0.455246E-02  0.502040E-02  0.560915E-02  0.633084E-02  0.719398E-02  0.820161E-02
  0.934907E-02  0.106209E-01  0.119873E-01  0.134019E-01  0.148014E-01  0.161097E-01
  0.172436E-01  0.181228E-01  0.186802E-01  0.225217E-01  0.225217E-01  0.220422E-01
  0.211233E-01  0.198391E-01  0.182869E-01  0.165733E-01  0.148014E-01  0.130606E-01
  0.114199E-01  0.992596E-02  0.860419E-02  0.746345E-02  0.650120E-02  0.570792E-02
  0.506994E-02  0.457110E-02  0.419451E-02  0.392483E-02  0.375052E-02  0.366477E-02
  0.366477E-02  0.375052E-02  0.392483E-02  0.419451E-02  0.457110E-02  0.506994E-02
  0.570792E-02  0.650120E-02  0.746345E-02  0.860419E-02  0.992596E-02  0.114199E-01
  0.130606E-01  0.148014E-01  0.165733E-01  0.182869E-01  0.198391E-01  0.211233E-01
  0.220422E-01  0.225217E-01  0.268656E-01  0.265620E-01  0.256776E-01  0.242878E-01
  0.225043E-01  0.204592E-01  0.182869E-01  0.161097E-01  0.140265E-01  0.121087E-01
  0.103987E-01  0.891429E-02  0.765492E-02  0.660894E-02  0.575941E-02  0.508697E-02
  0.457110E-02  0.419164E-02  0.393153E-02  0.377924E-02  0.372901E-02  0.377924E-02
  0.393153E-02  0.419164E-02  0.457110E-02  0.508697E-02  0.575941E-02  0.660894E-02
  0.765492E-02  0.891429E-02  0.103987E-01  0.121087E-01  0.140265E-01  0.161097E-01
  0.182869E-01  0.204592E-01  0.225043E-01  0.242878E-01  0.256776E-01  0.265620E-01
  0.268656E-01  0.316026E-01  0.308608E-01  0.294434E-01  0.274716E-01  0.251021E-01
  0.225043E-01  0.198391E-01  0.172436E-01  0.148213E-01  0.126403E-01  0.107344E-01
  0.910994E-02  0.775437E-02  0.664581E-02  0.575941E-02  0.506994E-02  0.455246E-02
  0.418416E-02  0.394730E-02  0.383112E-02  0.383112E-02  0.394730E-02  0.418416E-02
  0.455246E-02  0.506994E-02  0.575941E-02  0.664581E-02  0.775437E-02  0.910994E-02
  0.107344E-01  0.126403E-01  0.148213E-01  0.172436E-01  0.198391E-01  0.225043E-01
  0.251021E-01  0.274716E-01  0.294434E-01  0.308608E-01  0.316026E-01  0.316026E-01
  0.365502E-01  0.352229E-01  0.331447E-01  0.304924E-01  0.274716E-01  0.242878E-01
  0.211233E-01  0.181228E-01  0.153877E-01  0.129762E-01  0.109088E-01  0.917681E-02
  0.775437E-02  0.660894E-02  0.570792E-02  0.502040E-02  0.451774E-02  0.417557E-02
  0.397652E-02  0.391111E-02  0.397652E-02  0.417557E-02  0.451774E-02  0.502040E-02
  0.570792E-02  0.660894E-02  0.775437E-02  0.917681E-02  0.109088E-01  0.129762E-01
  0.153877E-01  0.181228E-01  0.211233E-01  0.242878E-01  0.274716E-01  0.304924E-01
  0.331447E-01  0.352229E-01  0.365502E-01  0.370068E-01  0.365502E-01  0.414506E-01
  0.393940E-01  0.365460E-01  0.331447E-01  0.294434E-01  0.256776E-01  0.220422E-01
  0.186802E-01  0.156824E-01  0.130911E-01  0.109088E-01  0.910994E-02  0.765492E-02
  0.650120E-02  0.560915E-02  0.494315E-02  0.447212E-02  0.417145E-02  0.402493E-02
  0.402493E-02  0.417145E-02  0.447212E-02  0.494315E-02  0.560915E-02  0.650120E-02
  0.765492E-02  0.910994E-02  0.109088E-01  0.130911E-01  0.156824E-01  0.186802E-01
  0.220422E-01  0.256776E-01  0.294434E-01  0.331447E-01  0.365460E-01  0.393940E-01
  0.414506E-01  0.425299E-01  0.425299E-01  0.414506E-01  0.459832E-01  0.430802E-01
  0.393940E-01  0.352229E-01  0.308608E-01  0.265620E-01  0.225217E-01  0.188712E-01
  0.156824E-01  0.129762E-01  0.107344E-01  0.891429E-02  0.746345E-02  0.633084E-02
  0.547127E-02  0.484601E-02  0.442313E-02  0.417890E-02  0.409906E-02  0.417890E-02
  0.442313E-02  0.484601E-02  0.547127E-02  0.633084E-02  0.746345E-02  0.891429E-02
  0.107344E-01  0.129762E-01  0.156824E-01  0.188712E-01  0.225217E-01  0.265620E-01
  0.308608E-01  0.352229E-01  0.393940E-01  0.430802E-01  0.459832E-01  0.478436E-01
  0.484847E-01  0.478436E-01  0.459832E-01  0.497979E-01  0.459832E-01  0.414506E-01
  0.365502E-01  0.316026E-01  0.268656E-01  0.225217E-01  0.186802E-01  0.153877E-01
  0.126403E-01  0.103987E-01  0.860419E-02  0.719398E-02  0.611065E-02  0.530563E-02
  0.473907E-02  0.437965E-02  0.420554E-02  0.420554E-02  0.437965E-02  0.473907E-02
  0.530563E-02  0.611065E-02  0.719398E-02  0.860419E-02  0.103987E-01  0.126403E-01
  0.153877E-01  0.186802E-01  0.225217E-01  0.268656E-01  0.316026E-01  0.365502E-01
  0.414506E-01  0.459832E-01  0.497979E-01  0.525627E-01  0.540169E-01  0.540169E-01
  0.525627E-01  0.497979E-01  0.525627E-01  0.478436E-01  0.425299E-01  0.370068E-01
  0.316026E-01  0.265620E-01  0.220422E-01  0.181228E-01  0.148213E-01  0.121087E-01
  0.992596E-02  0.820161E-02  0.686535E-02  0.585644E-02  0.512546E-02  0.463331E-02
  0.435055E-02  0.425846E-02  0.435055E-02  0.463331E-02  0.512546E-02  0.585644E-02
  0.686535E-02  0.820161E-02  0.992596E-02  0.121087E-01  0.148213E-01  0.181228E-01
  0.220422E-01  0.265620E-01  0.316026E-01  0.370068E-01  0.425299E-01  0.478436E-01
  0.525627E-01  0.562923E-01  0.586881E-01  0.595147E-01  0.586881E-01  0.562923E-01
  0.525627E-01  0.540169E-01  0.484847E-01  0.425299E-01  0.365502E-01  0.308608E-01
  0.256776E-01  0.211233E-01  0.172436E-01  0.140265E-01  0.114199E-01  0.934907E-02
  0.773329E-02  0.649892E-02  0.558518E-02  0.494418E-02  0.453908E-02  0.434356E-02
  0.434356E-02  0.453908E-02  0.494418E-02  0.558518E-02  0.649892E-02  0.773329E-02
  0.934907E-02  0.114199E-01  0.140265E-01  0.172436E-01  0.211233E-01  0.256776E-01
  0.308608E-01  0.365502E-01  0.425299E-01  0.484847E-01  0.540169E-01  0.586881E-01
  0.620815E-01  0.638688E-01  0.638688E-01  0.620815E-01  0.586881E-01  0.540169E-01
  0.540169E-01  0.478436E-01  0.414506E-01  0.352229E-01  0.294434E-01  0.242878E-01
  0.198391E-01  0.161097E-01  0.130606E-01  0.106209E-01  0.870471E-02  0.722746E-02
  0.611628E-02  0.531333E-02  0.477407E-02  0.446510E-02  0.436467E-02  0.446510E-02
  0.477407E-02  0.531333E-02  0.611628E-02  0.722746E-02  0.870471E-02  0.106209E-01
  0.130606E-01  0.161097E-01  0.198391E-01  0.242878E-01  0.294434E-01  0.352229E-01
  0.414506E-01  0.478436E-01  0.540169E-01  0.595147E-01  0.638688E-01  0.666696E-01
  0.676366E-01  0.666696E-01  0.638688E-01  0.595147E-01  0.540169E-01  0.525627E-01
  0.459832E-01  0.393940E-01  0.331447E-01  0.274716E-01  0.225043E-01  0.182869E-01
  0.148014E-01  0.119873E-01  0.976028E-02  0.802931E-02  0.671112E-02  0.573743E-02
  0.505551E-02  0.462526E-02  0.441795E-02  0.441795E-02  0.462526E-02  0.505551E-02
  0.573743E-02  0.671112E-02  0.802931E-02  0.976028E-02  0.119873E-01  0.148014E-01
  0.182869E-01  0.225043E-01  0.274716E-01  0.331447E-01  0.393940E-01  0.459832E-01
  0.525627E-01  0.586881E-01  0.638688E-01  0.676366E-01  0.696225E-01  0.696225E-01
  0.676366E-01  0.638688E-01  0.586881E-01  0.525627E-01  0.497979E-01  0.430802E-01
  0.365460E-01  0.304924E-01  0.251021E-01  0.204592E-01  0.165733E-01  0.134019E-01
  0.108690E-01  0.888355E-02  0.735570E-02  0.620801E-02  0.537946E-02  0.482345E-02
  0.450516E-02  0.440176E-02  0.450516E-02  0.482345E-02  0.537946E-02  0.620801E-02
  0.735570E-02  0.888355E-02  0.108690E-01  0.134019E-01  0.165733E-01  0.204592E-01
  0.251021E-01  0.304924E-01  0.365460E-01  0.430802E-01  0.497979E-01  0.562923E-01
  0.620815E-01  0.666696E-01  0.696225E-01  0.706422E-01  0.696225E-01  0.666696E-01
  0.620815E-01  0.562923E-01  0.497979E-01  0.459832E-01  0.393940E-01  0.331447E-01
  0.274716E-01  0.225043E-01  0.182869E-01  0.148014E-01  0.119873E-01  0.976028E-02
  0.802931E-02  0.671112E-02  0.573743E-02  0.505551E-02  0.462526E-02  0.441795E-02
  0.441795E-02  0.462526E-02  0.505551E-02  0.573743E-02  0.671112E-02  0.802931E-02
  0.976028E-02  0.119873E-01  0.148014E-01  0.182869E-01  0.225043E-01  0.274716E-01
  0.331447E-01  0.393940E-01  0.459832E-01  0.525627E-01  0.586881E-01  0.638688E-01
  0.676366E-01  0.696225E-01  0.696225E-01  0.676366E-01  0.638688E-01  0.586881E-01
  0.525627E-01  0.459832E-01  0.414506E-01  0.352229E-01  0.294434E-01  0.242878E-01
  0.198391E-01  0.161097E-01  0.130606E-01  0.106209E-01  0.870471E-02  0.722746E-02
  0.611628E-02  0.531333E-02  0.477407E-02  0.446510E-02  0.436467E-02  0.446510E-02
  0.477407E-02  0.531333E-02  0.611628E-02  0.722746E-02  0.870471E-02  0.106209E-01
  0.130606E-01  0.161097E-01  0.198391E-01  0.242878E-01  0.294434E-01  0.352229E-01
  0.414506E-01  0.478436E-01  0.540169E-01  0.595147E-01  0.638688E-01  0.666696E-01
  0.676366E-01  0.666696E-01  0.638688E-01  0.595147E-01  0.540169E-01  0.478436E-01
  0.414506E-01  0.365502E-01  0.308608E-01  0.256776E-01  0.211233E-01  0.172436E-01
  0.140265E-01  0.114199E-01  0.934907E-02  0.773329E-02  0.649892E-02  0.558518E-02
  0.494418E-02  0.453908E-02  0.434356E-02  0.434356E-02  0.453908E-02  0.494418E-02
  0.558518E-02  0.649892E-02  0.773329E-02  0.934907E-02  0.114199E-01  0.140265E-01
  0.172436E-01  0.211233E-01  0.256776E-01  0.308608E-01  0.365502E-01  0.425299E-01
  0.484847E-01  0.540169E-01  0.586881E-01  0.620815E-01  0.638688E-01  0.638688E-01
  0.620815E-01  0.586881E-01  0.540169E-01  0.484847E-01  0.425299E-01  0.365502E-01
  0.316026E-01  0.265620E-01  0.220422E-01  0.181228E-01  0.148213E-01  0.121087E-01
  0.992596E-02  0.820161E-02  0.686535E-02  0.585644E-02  0.512546E-02  0.463331E-02
  0.435055E-02  0.425846E-02  0.435055E-02  0.463331E-02  0.512546E-02  0.585644E-02
  0.686535E-02  0.820161E-02  0.992596E-02  0.121087E-01  0.148213E-01  0.181228E-01
  0.220422E-01  0.265620E-01  0.316026E-01  0.370068E-01  0.425299E-01  0.478436E-01
  0.525627E-01  0.562923E-01  0.586881E-01  0.595147E-01  0.586881E-01  0.562923E-01
  0.525627E-01  0.478436E-01  0.425299E-01  0.370068E-01  0.316026E-01  0.268656E-01
  0.225217E-01  0.186802E-01  0.153877E-01  0.126403E-01  0.103987E-01  0.860419E-02
  0.719398E-02  0.611065E-02  0.530563E-02  0.473907E-02  0.437965E-02  0.420554E-02
  0.420554E-02  0.437965E-02  0.473907E-02  0.530563E-02  0.611065E-02  0.719398E-02
  0.860419E-02  0.103987E-01  0.126403E-01  0.153877E-01  0.186802E-01  0.225217E-01
  0.268656E-01  0.316026E-01  0.365502E-01  0.414506E-01  0.459832E-01  0.497979E-01
  0.525627E-01  0.540169E-01  0.540169E-01  0.525627E-01  0.497979E-01  0.459832E-01
  0.414506E-01  0.365502E-01  0.316026E-01  0.268656E-01  0.243794E-01  0.204255E-01
  0.169768E-01  0.140532E-01  0.116342E-01  0.967365E-02  0.811422E-02  0.689880E-02
  0.597671E-02  0.530563E-02  0.485169E-02  0.458974E-02  0.450419E-02  0.458974E-02
  0.485169E-02  0.530563E-02  0.597671E-02  0.689880E-02  0.811422E-02  0.967365E-02
  0.116342E-01  0.140532E-01  0.169768E-01  0.204255E-01  0.243794E-01  0.287646E-01
  0.334415E-01  0.381979E-01  0.427539E-01  0.467849E-01  0.499613E-01  0.519974E-01
  0.526991E-01  0.519974E-01  0.499613E-01  0.467849E-01  0.427539E-01  0.381979E-01
  0.334415E-01  0.287646E-01  0.243794E-01  0.204255E-01  0.171491E-01  0.143208E-01
  0.119423E-01  0.998585E-02  0.840714E-02  0.715777E-02  0.619237E-02  0.547127E-02
  0.496110E-02  0.463575E-02  0.447748E-02  0.447748E-02  0.463575E-02  0.496110E-02
  0.547127E-02  0.619237E-02  0.715777E-02  0.840714E-02  0.998585E-02  0.119423E-01
  0.143208E-01  0.171491E-01  0.204255E-01  0.241062E-01  0.280954E-01  0.322382E-01
  0.363200E-01  0.400785E-01  0.432298E-01  0.455075E-01  0.467034E-01  0.467034E-01
  0.455075E-01  0.432298E-01  0.400785E-01  0.363200E-01  0.322382E-01  0.280954E-01
  0.241062E-01  0.204255E-01  0.169768E-01  0.143208E-01  0.120477E-01  0.101480E-01
  0.859196E-02  0.734177E-02  0.635920E-02  0.560915E-02  0.506048E-02  0.468726E-02
  0.447058E-02  0.439951E-02  0.447058E-02  0.468726E-02  0.506048E-02  0.560915E-02
  0.635920E-02  0.734177E-02  0.859196E-02  0.101480E-01  0.120477E-01  0.143208E-01
  0.169768E-01  0.199941E-01  0.233103E-01  0.268160E-01  0.303524E-01  0.337161E-01
  0.366755E-01  0.389978E-01  0.404823E-01  0.409932E-01  0.404823E-01  0.389978E-01
  0.366755E-01  0.337161E-01  0.303524E-01  0.268160E-01  0.233103E-01  0.199941E-01
  0.169768E-01  0.140532E-01  0.119423E-01  0.101480E-01  0.865514E-02  0.743736E-02
  0.646470E-02  0.570792E-02  0.513959E-02  0.473525E-02  0.447568E-02  0.434865E-02
  0.434865E-02  0.447568E-02  0.473525E-02  0.513959E-02  0.570792E-02  0.646470E-02
  0.743736E-02  0.865514E-02  0.101480E-01  0.119423E-01  0.140532E-01  0.164739E-01
  0.191670E-01  0.220586E-01  0.250345E-01  0.279424E-01  0.306010E-01  0.328175E-01
  0.344129E-01  0.352485E-01  0.352485E-01  0.344129E-01  0.328175E-01  0.306010E-01
  0.279424E-01  0.250345E-01  0.220586E-01  0.191670E-01  0.164739E-01  0.140532E-01
  0.116342E-01  0.998585E-02  0.859196E-02  0.743736E-02  0.650080E-02  0.575941E-02
  0.519038E-02  0.477193E-02  0.448550E-02  0.431811E-02  0.426297E-02  0.431811E-02
  0.448550E-02  0.477193E-02  0.519038E-02  0.575941E-02  0.650080E-02  0.743736E-02
  0.859196E-02  0.998585E-02  0.116342E-01  0.135388E-01  0.156798E-01  0.180100E-01
  0.204504E-01  0.228904E-01  0.251927E-01  0.272043E-01  0.287745E-01  0.297746E-01
  0.301182E-01  0.297746E-01  0.287745E-01  0.272043E-01  0.251927E-01  0.228904E-01
  0.204504E-01  0.180100E-01  0.156798E-01  0.135388E-01  0.116342E-01  0.967365E-02
  0.840714E-02  0.734177E-02  0.646470E-02  0.575941E-02  0.520786E-02  0.479170E-02
  0.449404E-02  0.430185E-02  0.420736E-02  0.420736E-02  0.430185E-02  0.449404E-02
  0.479170E-02  0.520786E-02  0.575941E-02  0.646470E-02  0.734177E-02  0.840714E-02
  0.967365E-02  0.111462E-01  0.128159E-01  0.146544E-01  0.166093E-01  0.186032E-01
  0.205354E-01  0.222887E-01  0.237415E-01  0.247824E-01  0.253260E-01  0.253260E-01
  0.247824E-01  0.237415E-01  0.222887E-01  0.205354E-01  0.186032E-01  0.166093E-01
  0.146544E-01  0.128159E-01  0.111462E-01  0.967365E-02  0.811422E-02  0.715777E-02
  0.635920E-02  0.570792E-02  0.519038E-02  0.479170E-02  0.449734E-02  0.429508E-02
  0.417655E-02  0.413745E-02  0.417655E-02  0.429508E-02  0.449734E-02  0.479170E-02
  0.519038E-02  0.570792E-02  0.635920E-02  0.715777E-02  0.811422E-02  0.923386E-02
  0.105132E-01  0.119360E-01  0.134690E-01  0.150598E-01  0.166370E-01  0.181140E-01
  0.193962E-01  0.203918E-01  0.210236E-01  0.212403E-01  0.210236E-01  0.203918E-01
  0.193962E-01  0.181140E-01  0.166370E-01  0.150598E-01  0.134690E-01  0.119360E-01
  0.105132E-01  0.923386E-02  0.811422E-02  0.689880E-02  0.619237E-02  0.560915E-02
  0.513959E-02  0.477193E-02  0.449404E-02  0.429508E-02  0.416675E-02  0.410378E-02
  0.410378E-02  0.416675E-02  0.429508E-02  0.449404E-02  0.477193E-02  0.513959E-02
  0.560915E-02  0.619237E-02  0.689880E-02  0.773381E-02  0.869654E-02  0.977755E-02
  0.109561E-01  0.121978E-01  0.134535E-01  0.146613E-01  0.157502E-01  0.166476E-01
  0.172879E-01  0.176214E-01  0.176214E-01  0.172879E-01  0.166476E-01  0.157502E-01
  0.146613E-01  0.134535E-01  0.121978E-01  0.109561E-01  0.977755E-02  0.869654E-02
  0.773381E-02  0.689880E-02  0.597671E-02  0.547127E-02  0.506048E-02  0.473525E-02
  0.448550E-02  0.430185E-02  0.417655E-02  0.410378E-02  0.407994E-02  0.410378E-02
  0.417655E-02  0.430185E-02  0.448550E-02  0.473525E-02  0.506048E-02  0.547127E-02
  0.597671E-02  0.658288E-02  0.729089E-02  0.809547E-02  0.898353E-02  0.993257E-02
  0.109095E-01  0.118711E-01  0.127660E-01  0.135387E-01  0.141361E-01  0.145141E-01
  0.146435E-01  0.145141E-01  0.141361E-01  0.135387E-01  0.127660E-01  0.118711E-01
  0.109095E-01  0.993257E-02  0.898353E-02  0.809547E-02  0.729089E-02  0.658288E-02
  0.597671E-02  0.530563E-02  0.496110E-02  0.468726E-02  0.447568E-02  0.431811E-02
  0.420736E-02  0.413745E-02  0.410378E-02  0.410378E-02  0.413745E-02  0.420736E-02
  0.431811E-02  0.447568E-02  0.468726E-02  0.496110E-02  0.530563E-02  0.572769E-02
  0.623045E-02  0.681200E-02  0.746443E-02  0.817299E-02  0.891540E-02  0.966180E-02
  0.103757E-01  0.110163E-01  0.115421E-01  0.119162E-01  0.121106E-01  0.121106E-01
  0.119162E-01  0.115421E-01  0.110163E-01  0.103757E-01  0.966180E-02  0.891540E-02
  0.817299E-02  0.746443E-02  0.681200E-02  0.623045E-02  0.572769E-02  0.530563E-02
  0.485169E-02  0.463575E-02  0.447058E-02  0.434865E-02  0.426297E-02  0.420736E-02
  0.417655E-02  0.416675E-02  0.417655E-02  0.420736E-02  0.426297E-02  0.434865E-02
  0.447058E-02  0.463575E-02  0.485169E-02  0.512546E-02  0.546195E-02  0.586227E-02
  0.632273E-02  0.683422E-02  0.738181E-02  0.794486E-02  0.849757E-02  0.901037E-02
  0.945202E-02  0.979274E-02  0.100079E-01  0.100815E-01  0.100079E-01  0.979274E-02
  0.945202E-02  0.901037E-02  0.849757E-02  0.794486E-02  0.738181E-02  0.683422E-02
  0.632273E-02  0.586227E-02  0.546195E-02  0.512546E-02  0.485169E-02  0.458974E-02
  0.447748E-02  0.439951E-02  0.434865E-02  0.431811E-02  0.430185E-02  0.429508E-02
  0.429508E-02  0.430185E-02  0.431811E-02  0.434865E-02  0.439951E-02  0.447748E-02
  0.458974E-02  0.474335E-02  0.494418E-02  0.519568E-02  0.549772E-02  0.584580E-02
  0.623062E-02  0.663810E-02  0.705002E-02  0.744496E-02  0.779965E-02  0.809089E-02
  0.829803E-02  0.840569E-02  0.840569E-02  0.829803E-02  0.809089E-02  0.779965E-02
  0.744496E-02  0.705002E-02  0.663810E-02  0.623062E-02  0.584580E-02  0.549772E-02
  0.519568E-02  0.494418E-02  0.474335E-02  0.458974E-02  0.450419E-02  0.447748E-02
  0.447058E-02  0.447568E-02  0.448550E-02  0.449404E-02  0.449734E-02  0.449404E-02
  0.448550E-02  0.447568E-02  0.447058E-02  0.447748E-02  0.450419E-02  0.455833E-02
  0.464661E-02  0.477407E-02  0.494323E-02  0.515332E-02  0.539960E-02  0.567322E-02
  0.596162E-02  0.624935E-02  0.651908E-02  0.675291E-02  0.693399E-02  0.704860E-02
  0.708783E-02  0.704860E-02  0.693399E-02  0.675291E-02  0.651908E-02  0.624935E-02
  0.596162E-02  0.567322E-02  0.539960E-02  0.515332E-02  0.494323E-02  0.477407E-02
  0.464661E-02  0.455833E-02  0.450419E-02  0.458974E-02  0.463575E-02  0.468726E-02
  0.473525E-02  0.477193E-02  0.479170E-02  0.479170E-02  0.477193E-02  0.473525E-02
  0.468726E-02  0.463575E-02  0.458974E-02  0.455833E-02  0.454971E-02  0.457049E-02
  0.462526E-02  0.471603E-02  0.484159E-02  0.499728E-02  0.517513E-02  0.536439E-02
  0.555230E-02  0.572503E-02  0.586892E-02  0.597210E-02  0.602594E-02  0.602594E-02
  0.597210E-02  0.586892E-02  0.572503E-02  0.555230E-02  0.536439E-02  0.517513E-02
  0.499728E-02  0.484159E-02  0.471603E-02  0.462526E-02  0.457049E-02  0.454971E-02
  0.455833E-02  0.458974E-02  0.485169E-02  0.496110E-02  0.506048E-02  0.513959E-02
  0.519038E-02  0.520786E-02  0.519038E-02  0.513959E-02  0.506048E-02  0.496110E-02
  0.485169E-02  0.474335E-02  0.464661E-02  0.457049E-02  0.452187E-02  0.450516E-02
  0.452187E-02  0.457049E-02  0.464661E-02  0.474335E-02  0.485169E-02  0.496110E-02
  0.506048E-02  0.513959E-02  0.519038E-02  0.520786E-02  0.519038E-02  0.513959E-02
  0.506048E-02  0.496110E-02  0.485169E-02  0.474335E-02  0.464661E-02  0.457049E-02
  0.452187E-02  0.450516E-02  0.452187E-02  0.457049E-02  0.464661E-02  0.474335E-02
  0.485169E-02  0.530563E-02  0.547127E-02  0.560915E-02  0.570792E-02  0.575941E-02
  0.575941E-02  0.570792E-02  0.560915E-02  0.547127E-02  0.530563E-02  0.512546E-02
  0.494418E-02  0.477407E-02  0.462526E-02  0.450516E-02  0.441795E-02  0.436467E-02
  0.434356E-02  0.435055E-02  0.437965E-02  0.442313E-02  0.447212E-02  0.451774E-02
  0.455246E-02  0.457110E-02  0.457110E-02  0.455246E-02  0.451774E-02  0.447212E-02
  0.442313E-02  0.437965E-02  0.435055E-02  0.434356E-02  0.436467E-02  0.441795E-02
  0.450516E-02  0.462526E-02  0.477407E-02  0.494418E-02  0.512546E-02  0.530563E-02
  0.597671E-02  0.619237E-02  0.635920E-02  0.646470E-02  0.650080E-02  0.646470E-02
  0.635920E-02  0.619237E-02  0.597671E-02  0.572769E-02  0.546195E-02  0.519568E-02
  0.494323E-02  0.471603E-02  0.452187E-02  0.436467E-02  0.424500E-02  0.416083E-02
  0.410821E-02  0.408154E-02  0.407387E-02  0.407759E-02  0.408568E-02  0.409270E-02
  0.409540E-02  0.409270E-02  0.408568E-02  0.407759E-02  0.407387E-02  0.408154E-02
  0.410821E-02  0.416083E-02  0.424500E-02  0.436467E-02  0.452187E-02  0.471603E-02
  0.494323E-02  0.519568E-02  0.546195E-02  0.572769E-02  0.597671E-02  0.689880E-02
  0.715777E-02  0.734177E-02  0.743736E-02  0.743736E-02  0.734177E-02  0.715777E-02
  0.689880E-02  0.658288E-02  0.623045E-02  0.586227E-02  0.549772E-02  0.515332E-02
  0.484159E-02  0.457049E-02  0.434356E-02  0.416083E-02  0.401976E-02  0.391595E-02
  0.384367E-02  0.379642E-02  0.376770E-02  0.375193E-02  0.374508E-02  0.374508E-02
  0.375193E-02  0.376770E-02  0.379642E-02  0.384367E-02  0.391595E-02  0.401976E-02
  0.416083E-02  0.434356E-02  0.457049E-02  0.484159E-02  0.515332E-02  0.549772E-02
  0.586227E-02  0.623045E-02  0.658288E-02  0.689880E-02  0.811422E-02  0.840714E-02
  0.859196E-02  0.865514E-02  0.859196E-02  0.840714E-02  0.811422E-02  0.773381E-02
  0.729089E-02  0.681200E-02  0.632273E-02  0.584580E-02  0.539960E-02  0.499728E-02
  0.464661E-02  0.435055E-02  0.410821E-02  0.391595E-02  0.376838E-02  0.365935E-02
  0.358268E-02  0.353276E-02  0.350493E-02  0.349603E-02  0.350493E-02  0.353276E-02
  0.358268E-02  0.365935E-02  0.376838E-02  0.391595E-02  0.410821E-02  0.435055E-02
  0.464661E-02  0.499728E-02  0.539960E-02  0.584580E-02  0.632273E-02  0.681200E-02
  0.729089E-02  0.773381E-02  0.811422E-02  0.967365E-02  0.998585E-02  0.101480E-01
  0.101480E-01  0.998585E-02  0.967365E-02  0.923386E-02  0.869654E-02  0.809547E-02
  0.746443E-02  0.683422E-02  0.623062E-02  0.567322E-02  0.517513E-02  0.474335E-02
  0.437965E-02  0.408154E-02  0.384367E-02  0.365935E-02  0.352190E-02  0.342534E-02
  0.336450E-02  0.333527E-02  0.333527E-02  0.336450E-02  0.342534E-02  0.352190E-02
  0.365935E-02  0.384367E-02  0.408154E-02  0.437965E-02  0.474335E-02  0.517513E-02
  0.567322E-02  0.623062E-02  0.683422E-02  0.746443E-02  0.809547E-02  0.869654E-02
  0.923386E-02  0.967365E-02  0.116342E-01  0.119423E-01  0.120477E-01  0.119423E-01
  0.116342E-01  0.111462E-01  0.105132E-01  0.977755E-02  0.898353E-02  0.817299E-02
  0.738181E-02  0.663810E-02  0.596162E-02  0.536439E-02  0.485169E-02  0.442313E-02
  0.407387E-02  0.379642E-02  0.358268E-02  0.342534E-02  0.331823E-02  0.325636E-02
  0.323617E-02  0.325636E-02  0.331823E-02  0.342534E-02  0.358268E-02  0.379642E-02
  0.407387E-02  0.442313E-02  0.485169E-02  0.536439E-02  0.596162E-02  0.663810E-02
  0.738181E-02  0.817299E-02  0.898353E-02  0.977755E-02  0.105132E-01  0.111462E-01
  0.116342E-01  0.140532E-01  0.143208E-01  0.143208E-01  0.140532E-01  0.135388E-01
  0.128159E-01  0.119360E-01  0.109561E-01  0.993257E-02  0.891540E-02  0.794486E-02
  0.705002E-02  0.624935E-02  0.555230E-02  0.496110E-02  0.447212E-02  0.407759E-02
  0.376770E-02  0.353276E-02  0.336450E-02  0.325636E-02  0.320359E-02  0.320359E-02
  0.325636E-02  0.336450E-02  0.353276E-02  0.376770E-02  0.407759E-02  0.447212E-02
  0.496110E-02  0.555230E-02  0.624935E-02  0.705002E-02  0.794486E-02  0.891540E-02
  0.993257E-02  0.109561E-01  0.119360E-01  0.128159E-01  0.135388E-01  0.140532E-01
  0.169768E-01  0.171491E-01  0.169768E-01  0.164739E-01  0.156798E-01  0.146544E-01
  0.134690E-01  0.121978E-01  0.109095E-01  0.966180E-02  0.849757E-02  0.744496E-02
  0.651908E-02  0.572503E-02  0.506048E-02  0.451774E-02  0.408568E-02  0.375193E-02
  0.350493E-02  0.333527E-02  0.323617E-02  0.320359E-02  0.323617E-02  0.333527E-02
  0.350493E-02  0.375193E-02  0.408568E-02  0.451774E-02  0.506048E-02  0.572503E-02
  0.651908E-02  0.744496E-02  0.849757E-02  0.966180E-02  0.109095E-01  0.121978E-01
  0.134690E-01  0.146544E-01  0.156798E-01  0.164739E-01  0.169768E-01  0.204255E-01
  0.204255E-01  0.199941E-01  0.191670E-01  0.180100E-01  0.166093E-01  0.150598E-01
  0.134535E-01  0.118711E-01  0.103757E-01  0.901037E-02  0.779965E-02  0.675291E-02
  0.586892E-02  0.513959E-02  0.455246E-02  0.409270E-02  0.374508E-02  0.349603E-02
  0.333527E-02  0.325636E-02  0.325636E-02  0.333527E-02  0.349603E-02  0.374508E-02
  0.409270E-02  0.455246E-02  0.513959E-02  0.586892E-02  0.675291E-02  0.779965E-02
  0.901037E-02  0.103757E-01  0.118711E-01  0.134535E-01  0.150598E-01  0.166093E-01
  0.180100E-01  0.191670E-01  0.199941E-01  0.204255E-01  0.243794E-01  0.241062E-01
  0.233103E-01  0.220586E-01  0.204504E-01  0.186032E-01  0.166370E-01  0.146613E-01
  0.127660E-01  0.110163E-01  0.945202E-02  0.809089E-02  0.693399E-02  0.597210E-02
  0.519038E-02  0.457110E-02  0.409540E-02  0.374508E-02  0.350493E-02  0.336450E-02
  0.331823E-02  0.336450E-02  0.350493E-02  0.374508E-02  0.409540E-02  0.457110E-02
  0.519038E-02  0.597210E-02  0.693399E-02  0.809089E-02  0.945202E-02  0.110163E-01
  0.127660E-01  0.146613E-01  0.166370E-01  0.186032E-01  0.204504E-01  0.220586E-01
  0.233103E-01  0.241062E-01  0.243794E-01  0.287646E-01  0.280954E-01  0.268160E-01
  0.250345E-01  0.228904E-01  0.205354E-01  0.181140E-01  0.157502E-01  0.135387E-01
  0.115421E-01  0.979274E-02  0.829803E-02  0.704860E-02  0.602594E-02  0.520786E-02
  0.457110E-02  0.409270E-02  0.375193E-02  0.353276E-02  0.342534E-02  0.342534E-02
  0.353276E-02  0.375193E-02  0.409270E-02  0.457110E-02  0.520786E-02  0.602594E-02
  0.704860E-02  0.829803E-02  0.979274E-02  0.115421E-01  0.135387E-01  0.157502E-01
  0.181140E-01  0.205354E-01  0.228904E-01  0.250345E-01  0.268160E-01  0.280954E-01
  0.287646E-01  0.287646E-01  0.334415E-01  0.322382E-01  0.303524E-01  0.279424E-01
  0.251927E-01  0.222887E-01  0.193962E-01  0.166476E-01  0.141361E-01  0.119162E-01
  0.100079E-01  0.840569E-02  0.708783E-02  0.602594E-02  0.519038E-02  0.455246E-02
  0.408568E-02  0.376770E-02  0.358268E-02  0.352190E-02  0.358268E-02  0.376770E-02
  0.408568E-02  0.455246E-02  0.519038E-02  0.602594E-02  0.708783E-02  0.840569E-02
  0.100079E-01  0.119162E-01  0.141361E-01  0.166476E-01  0.193962E-01  0.222887E-01
  0.251927E-01  0.279424E-01  0.303524E-01  0.322382E-01  0.334415E-01  0.338553E-01
  0.334415E-01  0.381979E-01  0.363200E-01  0.337161E-01  0.306010E-01  0.272043E-01
  0.237415E-01  0.203918E-01  0.172879E-01  0.145141E-01  0.121106E-01  0.100815E-01
  0.840569E-02  0.704860E-02  0.597210E-02  0.513959E-02  0.451774E-02  0.407759E-02
  0.379642E-02  0.365935E-02  0.365935E-02  0.379642E-02  0.407759E-02  0.451774E-02
  0.513959E-02  0.597210E-02  0.704860E-02  0.840569E-02  0.100815E-01  0.121106E-01
  0.145141E-01  0.172879E-01  0.203918E-01  0.237415E-01  0.272043E-01  0.306010E-01
  0.337161E-01  0.363200E-01  0.381979E-01  0.391826E-01  0.391826E-01  0.381979E-01
  0.427539E-01  0.400785E-01  0.366755E-01  0.328175E-01  0.287745E-01  0.247824E-01
  0.210236E-01  0.176214E-01  0.146435E-01  0.121106E-01  0.100079E-01  0.829803E-02
  0.693399E-02  0.586892E-02  0.506048E-02  0.447212E-02  0.407387E-02  0.384367E-02
  0.376838E-02  0.384367E-02  0.407387E-02  0.447212E-02  0.506048E-02  0.586892E-02
  0.693399E-02  0.829803E-02  0.100079E-01  0.121106E-01  0.146435E-01  0.176214E-01
  0.210236E-01  0.247824E-01  0.287745E-01  0.328175E-01  0.366755E-01  0.400785E-01
  0.427539E-01  0.444665E-01  0.450563E-01  0.444665E-01  0.427539E-01  0.467849E-01
  0.432298E-01  0.389978E-01  0.344129E-01  0.297746E-01  0.253260E-01  0.212403E-01
  0.176214E-01  0.145141E-01  0.119162E-01  0.979274E-02  0.809089E-02  0.675291E-02
  0.572503E-02  0.496110E-02  0.442313E-02  0.408154E-02  0.391595E-02  0.391595E-02
  0.408154E-02  0.442313E-02  0.496110E-02  0.572503E-02  0.675291E-02  0.809089E-02
  0.979274E-02  0.119162E-01  0.145141E-01  0.176214E-01  0.212403E-01  0.253260E-01
  0.297746E-01  0.344129E-01  0.389978E-01  0.432298E-01  0.467849E-01  0.493576E-01
  0.507095E-01  0.507095E-01  0.493576E-01  0.467849E-01  0.499613E-01  0.455075E-01
  0.404823E-01  0.352485E-01  0.301182E-01  0.253260E-01  0.210236E-01  0.172879E-01
  0.141361E-01  0.115421E-01  0.945202E-02  0.779965E-02  0.651908E-02  0.555230E-02
  0.485169E-02  0.437965E-02  0.410821E-02  0.401976E-02  0.410821E-02  0.437965E-02
  0.485169E-02  0.555230E-02  0.651908E-02  0.779965E-02  0.945202E-02  0.115421E-01
  0.141361E-01  0.172879E-01  0.210236E-01  0.253260E-01  0.301182E-01  0.352485E-01
  0.404823E-01  0.455075E-01  0.499613E-01  0.534751E-01  0.557295E-01  0.565067E-01
  0.557295E-01  0.534751E-01  0.499613E-01  0.519974E-01  0.467034E-01  0.409932E-01
  0.352485E-01  0.297746E-01  0.247824E-01  0.203918E-01  0.166476E-01  0.135387E-01
  0.110163E-01  0.901037E-02  0.744496E-02  0.624935E-02  0.536439E-02  0.474335E-02
  0.435055E-02  0.416083E-02  0.416083E-02  0.435055E-02  0.474335E-02  0.536439E-02
  0.624935E-02  0.744496E-02  0.901037E-02  0.110163E-01  0.135387E-01  0.166476E-01
  0.203918E-01  0.247824E-01  0.297746E-01  0.352485E-01  0.409932E-01  0.467034E-01
  0.519974E-01  0.564591E-01  0.596951E-01  0.613978E-01  0.613978E-01  0.596951E-01
  0.564591E-01  0.519974E-01  0.526991E-01  0.467034E-01  0.404823E-01  0.344129E-01
  0.287745E-01  0.237415E-01  0.193962E-01  0.157502E-01  0.127660E-01  0.103757E-01
  0.849757E-02  0.705002E-02  0.596162E-02  0.517513E-02  0.464661E-02  0.434356E-02
  0.424500E-02  0.434356E-02  0.464661E-02  0.517513E-02  0.596162E-02  0.705002E-02
  0.849757E-02  0.103757E-01  0.127660E-01  0.157502E-01  0.193962E-01  0.237415E-01
  0.287745E-01  0.344129E-01  0.404823E-01  0.467034E-01  0.526991E-01  0.580283E-01
  0.622413E-01  0.649479E-01  0.658816E-01  0.649479E-01  0.622413E-01  0.580283E-01
  0.526991E-01  0.519974E-01  0.455075E-01  0.389978E-01  0.328175E-01  0.272043E-01
  0.222887E-01  0.181140E-01  0.146613E-01  0.118711E-01  0.966180E-02  0.794486E-02
  0.663810E-02  0.567322E-02  0.499728E-02  0.457049E-02  0.436467E-02  0.436467E-02
  0.457049E-02  0.499728E-02  0.567322E-02  0.663810E-02  0.794486E-02  0.966180E-02
  0.118711E-01  0.146613E-01  0.181140E-01  0.222887E-01  0.272043E-01  0.328175E-01
  0.389978E-01  0.455075E-01  0.519974E-01  0.580283E-01  0.631194E-01  0.668165E-01
  0.687631E-01  0.687631E-01  0.668165E-01  0.631194E-01  0.580283E-01  0.519974E-01
  0.499613E-01  0.432298E-01  0.366755E-01  0.306010E-01  0.251927E-01  0.205354E-01
  0.166370E-01  0.134535E-01  0.109095E-01  0.891540E-02  0.738181E-02  0.623062E-02
  0.539960E-02  0.484159E-02  0.452187E-02  0.441795E-02  0.452187E-02  0.484159E-02
  0.539960E-02  0.623062E-02  0.738181E-02  0.891540E-02  0.109095E-01  0.134535E-01
  0.166370E-01  0.205354E-01  0.251927E-01  0.306010E-01  0.366755E-01  0.432298E-01
  0.499613E-01  0.564591E-01  0.622413E-01  0.668165E-01  0.697574E-01  0.707722E-01
  0.697574E-01  0.668165E-01  0.622413E-01  0.564591E-01  0.499613E-01  0.467849E-01
  0.400785E-01  0.337161E-01  0.279424E-01  0.228904E-01  0.186032E-01  0.150598E-01
  0.121978E-01  0.993257E-02  0.817299E-02  0.683422E-02  0.584580E-02  0.515332E-02
  0.471603E-02  0.450516E-02  0.450516E-02  0.471603E-02  0.515332E-02  0.584580E-02
  0.683422E-02  0.817299E-02  0.993257E-02  0.121978E-01  0.150598E-01  0.186032E-01
  0.228904E-01  0.279424E-01  0.337161E-01  0.400785E-01  0.467849E-01  0.534751E-01
  0.596951E-01  0.649479E-01  0.687631E-01  0.707722E-01  0.707722E-01  0.687631E-01
  0.649479E-01  0.596951E-01  0.534751E-01  0.467849E-01  0.427539E-01  0.363200E-01
  0.303524E-01  0.250345E-01  0.204504E-01  0.166093E-01  0.134690E-01  0.109561E-01
  0.898353E-02  0.746443E-02  0.632273E-02  0.549772E-02  0.494323E-02  0.462526E-02
  0.452187E-02  0.462526E-02  0.494323E-02  0.549772E-02  0.632273E-02  0.746443E-02
  0.898353E-02  0.109561E-01  0.134690E-01  0.166093E-01  0.204504E-01  0.250345E-01
  0.303524E-01  0.363200E-01  0.427539E-01  0.493576E-01  0.557295E-01  0.613978E-01
  0.658816E-01  0.687631E-01  0.697574E-01  0.687631E-01  0.658816E-01  0.613978E-01
  0.557295E-01  0.493576E-01  0.427539E-01  0.381979E-01  0.322382E-01  0.268160E-01
  0.220586E-01  0.180100E-01  0.146544E-01  0.119360E-01  0.977755E-02  0.809547E-02
  0.681200E-02  0.586227E-02  0.519568E-02  0.477407E-02  0.457049E-02  0.457049E-02
  0.477407E-02  0.519568E-02  0.586227E-02  0.681200E-02  0.809547E-02  0.977755E-02
  0.119360E-01  0.146544E-01  0.180100E-01  0.220586E-01  0.268160E-01  0.322382E-01
  0.381979E-01  0.444665E-01  0.507095E-01  0.565067E-01  0.613978E-01  0.649479E-01
  0.668165E-01  0.668165E-01  0.649479E-01  0.613978E-01  0.565067E-01  0.507095E-01
  0.444665E-01  0.381979E-01  0.334415E-01  0.280954E-01  0.233103E-01  0.191670E-01
  0.156798E-01  0.128159E-01  0.105132E-01  0.869654E-02  0.729089E-02  0.623045E-02
  0.546195E-02  0.494418E-02  0.464661E-02  0.454971E-02  0.464661E-02  0.494418E-02
  0.546195E-02  0.623045E-02  0.729089E-02  0.869654E-02  0.105132E-01  0.128159E-01
  0.156798E-01  0.191670E-01  0.233103E-01  0.280954E-01  0.334415E-01  0.391826E-01
  0.450563E-01  0.507095E-01  0.557295E-01  0.596951E-01  0.622413E-01  0.631194E-01
  0.622413E-01  0.596951E-01  0.557295E-01  0.507095E-01  0.450563E-01  0.391826E-01
  0.334415E-01  0.287646E-01  0.241062E-01  0.199941E-01  0.164739E-01  0.135388E-01
  0.111462E-01  0.923386E-02  0.773381E-02  0.658288E-02  0.572769E-02  0.512546E-02
  0.474335E-02  0.455833E-02  0.455833E-02  0.474335E-02  0.512546E-02  0.572769E-02
  0.658288E-02  0.773381E-02  0.923386E-02  0.111462E-01  0.135388E-01  0.164739E-01
  0.199941E-01  0.241062E-01  0.287646E-01  0.338553E-01  0.391826E-01  0.444665E-01
  0.493576E-01  0.534751E-01  0.564591E-01  0.580283E-01  0.580283E-01  0.564591E-01
  0.534751E-01  0.493576E-01  0.444665E-01  0.391826E-01  0.338553E-01  0.287646E-01
  0.243794E-01  0.204255E-01  0.169768E-01  0.140532E-01  0.116342E-01  0.967365E-02
  0.811422E-02  0.689880E-02  0.597671E-02  0.530563E-02  0.485169E-02  0.458974E-02
  0.450419E-02  0.458974E-02  0.485169E-02  0.530563E-02  0.597671E-02  0.689880E-02
  0.811422E-02  0.967365E-02  0.116342E-01  0.140532E-01  0.169768E-01  0.204255E-01
  0.243794E-01  0.287646E-01  0.334415E-01  0.381979E-01  0.427539E-01  0.467849E-01
  0.499613E-01  0.519974E-01  0.526991E-01  0.519974E-01  0.499613E-01  0.467849E-01
  0.427539E-01  0.381979E-01  0.334415E-01  0.287646E-01  0.243794E-01  0.225592E-01
  0.189441E-01  0.158266E-01  0.132064E-01  0.110535E-01  0.932061E-02  0.795343E-02
  0.689880E-02  0.611065E-02  0.555230E-02  0.519619E-02  0.502318E-02  0.502318E-02
  0.519619E-02  0.555230E-02  0.611065E-02  0.689880E-02  0.795343E-02  0.932061E-02
  0.110535E-01  0.132064E-01  0.158266E-01  0.189441E-01  0.225592E-01  0.266284E-01
  0.310496E-01  0.356507E-01  0.401892E-01  0.443682E-01  0.478695E-01  0.503972E-01
  0.517233E-01  0.517233E-01  0.503972E-01  0.478695E-01  0.443682E-01  0.401892E-01
  0.356507E-01  0.310496E-01  0.266284E-01  0.225592E-01  0.189441E-01  0.159863E-01
  0.134571E-01  0.113462E-01  0.962176E-02  0.824080E-02  0.715777E-02  0.633084E-02
  0.572503E-02  0.531282E-02  0.507397E-02  0.499581E-02  0.507397E-02  0.531282E-02
  0.572503E-02  0.633084E-02  0.715777E-02  0.824080E-02  0.962176E-02  0.113462E-01
  0.134571E-01  0.159863E-01  0.189441E-01  0.223085E-01  0.260143E-01  0.299422E-01
  0.339140E-01  0.376980E-01  0.410296E-01  0.436442E-01  0.453153E-01  0.458903E-01
  0.453153E-01  0.436442E-01  0.410296E-01  0.376980E-01  0.339140E-01  0.299422E-01
  0.260143E-01  0.223085E-01  0.189441E-01  0.158266E-01  0.134571E-01  0.114463E-01
  0.977818E-02  0.842217E-02  0.734177E-02  0.650120E-02  0.586892E-02  0.541874E-02
  0.513030E-02  0.498963E-02  0.498963E-02  0.513030E-02  0.541874E-02  0.586892E-02
  0.650120E-02  0.734177E-02  0.842217E-02  0.977818E-02  0.114463E-01  0.134571E-01
  0.158266E-01  0.185470E-01  0.215780E-01  0.248396E-01  0.282053E-01  0.315026E-01
  0.345230E-01  0.370445E-01  0.388609E-01  0.398125E-01  0.398125E-01  0.388609E-01
  0.370445E-01  0.345230E-01  0.315026E-01  0.282053E-01  0.248396E-01  0.215780E-01
  0.185470E-01  0.158266E-01  0.132064E-01  0.113462E-01  0.977818E-02  0.848419E-02
  0.743736E-02  0.660894E-02  0.597210E-02  0.550322E-02  0.518272E-02  0.499615E-02
  0.493489E-02  0.499615E-02  0.518272E-02  0.550322E-02  0.597210E-02  0.660894E-02
  0.743736E-02  0.848419E-02  0.977818E-02  0.113462E-01  0.132064E-01  0.153602E-01
  0.177851E-01  0.204283E-01  0.232023E-01  0.259829E-01  0.286129E-01  0.309158E-01
  0.327161E-01  0.338641E-01  0.342586E-01  0.338641E-01  0.327161E-01  0.309158E-01
  0.286129E-01  0.259829E-01  0.232023E-01  0.204283E-01  0.177851E-01  0.153602E-01
  0.132064E-01  0.110535E-01  0.962176E-02  0.842217E-02  0.743736E-02  0.664581E-02
  0.602594E-02  0.555763E-02  0.522294E-02  0.500756E-02  0.490207E-02  0.490207E-02
  0.500756E-02  0.522294E-02  0.555763E-02  0.602594E-02  0.664581E-02  0.743736E-02
  0.842217E-02  0.962176E-02  0.110535E-01  0.127241E-01  0.146233E-01  0.167181E-01
  0.189493E-01  0.212293E-01  0.234433E-01  0.254568E-01  0.271283E-01  0.283278E-01
  0.289549E-01  0.289549E-01  0.283278E-01  0.271283E-01  0.254568E-01  0.234433E-01
  0.212293E-01  0.189493E-01  0.167181E-01  0.146233E-01  0.127241E-01  0.110535E-01
  0.932061E-02  0.824080E-02  0.734177E-02  0.660894E-02  0.602594E-02  0.557639E-02
  0.524472E-02  0.501737E-02  0.488453E-02  0.484078E-02  0.488453E-02  0.501737E-02
  0.524472E-02  0.557639E-02  0.602594E-02  0.660894E-02  0.734177E-02  0.824080E-02
  0.932061E-02  0.105899E-01  0.120460E-01  0.136703E-01  0.154243E-01  0.172475E-01
  0.190581E-01  0.207564E-01  0.222333E-01  0.233819E-01  0.241118E-01  0.243623E-01
  0.241118E-01  0.233819E-01  0.222333E-01  0.207564E-01  0.190581E-01  0.172475E-01
  0.154243E-01  0.136703E-01  0.120460E-01  0.105899E-01  0.932061E-02  0.795343E-02
  0.715777E-02  0.650120E-02  0.597210E-02  0.555763E-02  0.524472E-02  0.502117E-02
  0.487716E-02  0.480651E-02  0.480651E-02  0.487716E-02  0.502117E-02  0.524472E-02
  0.555763E-02  0.597210E-02  0.650120E-02  0.715777E-02  0.795343E-02  0.889648E-02
  0.998833E-02  0.112196E-01  0.125668E-01  0.139899E-01  0.154318E-01  0.168205E-01
  0.180743E-01  0.191089E-01  0.198482E-01  0.202337E-01  0.202337E-01  0.198482E-01
  0.191089E-01  0.180743E-01  0.168205E-01  0.154318E-01  0.139899E-01  0.125668E-01
  0.112196E-01  0.998833E-02  0.889648E-02  0.795343E-02  0.689880E-02  0.633084E-02
  0.586892E-02  0.550322E-02  0.522294E-02  0.501737E-02  0.487716E-02  0.479552E-02
  0.476869E-02  0.479552E-02  0.487716E-02  0.501737E-02  0.522294E-02  0.550322E-02
  0.586892E-02  0.633084E-02  0.689880E-02  0.758025E-02  0.837818E-02  0.928862E-02
  0.102980E-01  0.113810E-01  0.124993E-01  0.136023E-01  0.146302E-01  0.155190E-01
  0.162071E-01  0.166430E-01  0.167923E-01  0.166430E-01  0.162071E-01  0.155190E-01
  0.146302E-01  0.136023E-01  0.124993E-01  0.113810E-01  0.102980E-01  0.928862E-02
  0.837818E-02  0.758025E-02  0.689880E-02  0.611065E-02  0.572503E-02  0.541874E-02
  0.518272E-02  0.500756E-02  0.488453E-02  0.480651E-02  0.476869E-02  0.476869E-02
  0.480651E-02  0.488453E-02  0.500756E-02  0.518272E-02  0.541874E-02  0.572503E-02
  0.611065E-02  0.658288E-02  0.714569E-02  0.779810E-02  0.853268E-02  0.933392E-02
  0.101769E-01  0.110272E-01  0.118424E-01  0.125751E-01  0.131774E-01  0.136066E-01
  0.138300E-01  0.138300E-01  0.136066E-01  0.131774E-01  0.125751E-01  0.118424E-01
  0.110272E-01  0.101769E-01  0.933392E-02  0.853268E-02  0.779810E-02  0.714569E-02
  0.658288E-02  0.611065E-02  0.555230E-02  0.531282E-02  0.513030E-02  0.499615E-02
  0.490207E-02  0.484078E-02  0.480651E-02  0.479552E-02  0.480651E-02  0.484078E-02
  0.490207E-02  0.499615E-02  0.513030E-02  0.531282E-02  0.555230E-02  0.585644E-02
  0.623045E-02  0.667571E-02  0.718874E-02  0.776033E-02  0.837460E-02  0.900858E-02
  0.963287E-02  0.102135E-01  0.107145E-01  0.111017E-01  0.113467E-01  0.114306E-01
  0.113467E-01  0.111017E-01  0.107145E-01  0.102135E-01  0.963287E-02  0.900858E-02
  0.837460E-02  0.776033E-02  0.718874E-02  0.667571E-02  0.623045E-02  0.585644E-02
  0.555230E-02  0.519619E-02  0.507397E-02  0.498963E-02  0.493489E-02  0.490207E-02
  0.488453E-02  0.487716E-02  0.487716E-02  0.488453E-02  0.490207E-02  0.493489E-02
  0.498963E-02  0.507397E-02  0.519619E-02  0.536439E-02  0.558518E-02  0.586227E-02
  0.619545E-02  0.657996E-02  0.700599E-02  0.745836E-02  0.791693E-02  0.835765E-02
  0.875431E-02  0.908068E-02  0.931329E-02  0.943437E-02  0.943437E-02  0.931329E-02
  0.908068E-02  0.875431E-02  0.835765E-02  0.791693E-02  0.745836E-02  0.700599E-02
  0.657996E-02  0.619545E-02  0.586227E-02  0.558518E-02  0.536439E-02  0.519619E-02
  0.502318E-02  0.499581E-02  0.498963E-02  0.499615E-02  0.500756E-02  0.501737E-02
  0.502117E-02  0.501737E-02  0.500756E-02  0.499615E-02  0.498963E-02  0.499581E-02
  0.502318E-02  0.508035E-02  0.517513E-02  0.531333E-02  0.549772E-02  0.572729E-02
  0.599679E-02  0.629659E-02  0.661297E-02  0.692898E-02  0.722561E-02  0.748316E-02
  0.768303E-02  0.780979E-02  0.785323E-02  0.780979E-02  0.768303E-02  0.748316E-02
  0.722561E-02  0.692898E-02  0.661297E-02  0.629659E-02  0.599679E-02  0.572729E-02
  0.549772E-02  0.531333E-02  0.517513E-02  0.508035E-02  0.502318E-02  0.502318E-02
  0.507397E-02  0.513030E-02  0.518272E-02  0.522294E-02  0.524472E-02  0.524472E-02
  0.522294E-02  0.518272E-02  0.513030E-02  0.507397E-02  0.502318E-02  0.498763E-02
  0.497644E-02  0.499728E-02  0.505551E-02  0.515332E-02  0.528928E-02  0.545812E-02
  0.565095E-02  0.585595E-02  0.605933E-02  0.624628E-02  0.640224E-02  0.651433E-02
  0.657294E-02  0.657294E-02  0.651433E-02  0.640224E-02  0.624628E-02  0.605933E-02
  0.585595E-02  0.565095E-02  0.545812E-02  0.528928E-02  0.515332E-02  0.505551E-02
  0.499728E-02  0.497644E-02  0.498763E-02  0.502318E-02  0.519619E-02  0.531282E-02
  0.541874E-02  0.550322E-02  0.555763E-02  0.557639E-02  0.555763E-02  0.550322E-02
  0.541874E-02  0.531282E-02  0.519619E-02  0.508035E-02  0.497644E-02  0.489426E-02
  0.484159E-02  0.482345E-02  0.484159E-02  0.489426E-02  0.497644E-02  0.508035E-02
  0.519619E-02  0.531282E-02  0.541874E-02  0.550322E-02  0.555763E-02  0.557639E-02
  0.555763E-02  0.550322E-02  0.541874E-02  0.531282E-02  0.519619E-02  0.508035E-02
  0.497644E-02  0.489426E-02  0.484159E-02  0.482345E-02  0.484159E-02  0.489426E-02
  0.497644E-02  0.508035E-02  0.519619E-02  0.555230E-02  0.572503E-02  0.586892E-02
  0.597210E-02  0.602594E-02  0.602594E-02  0.597210E-02  0.586892E-02  0.572503E-02
  0.555230E-02  0.536439E-02  0.517513E-02  0.499728E-02  0.484159E-02  0.471603E-02
  0.462526E-02  0.457049E-02  0.454971E-02  0.455833E-02  0.458974E-02  0.463575E-02
  0.468726E-02  0.473525E-02  0.477193E-02  0.479170E-02  0.479170E-02  0.477193E-02
  0.473525E-02  0.468726E-02  0.463575E-02  0.458974E-02  0.455833E-02  0.454971E-02
  0.457049E-02  0.462526E-02  0.471603E-02  0.484159E-02  0.499728E-02  0.517513E-02
  0.536439E-02  0.555230E-02  0.611065E-02  0.633084E-02  0.650120E-02  0.660894E-02
  0.664581E-02  0.660894E-02  0.650120E-02  0.633084E-02  0.611065E-02  0.585644E-02
  0.558518E-02  0.531333E-02  0.505551E-02  0.482345E-02  0.462526E-02  0.446510E-02
  0.434356E-02  0.425846E-02  0.420554E-02  0.417890E-02  0.417145E-02  0.417557E-02
  0.418416E-02  0.419164E-02  0.419451E-02  0.419164E-02  0.418416E-02  0.417557E-02
  0.417145E-02  0.417890E-02  0.420554E-02  0.425846E-02  0.434356E-02  0.446510E-02
  0.462526E-02  0.482345E-02  0.505551E-02  0.531333E-02  0.558518E-02  0.585644E-02
  0.611065E-02  0.689880E-02  0.715777E-02  0.734177E-02  0.743736E-02  0.743736E-02
  0.734177E-02  0.715777E-02  0.689880E-02  0.658288E-02  0.623045E-02  0.586227E-02
  0.549772E-02  0.515332E-02  0.484159E-02  0.457049E-02  0.434356E-02  0.416083E-02
  0.401976E-02  0.391595E-02  0.384367E-02  0.379642E-02  0.376770E-02  0.375193E-02
  0.374508E-02  0.374508E-02  0.375193E-02  0.376770E-02  0.379642E-02  0.384367E-02
  0.391595E-02  0.401976E-02  0.416083E-02  0.434356E-02  0.457049E-02  0.484159E-02
  0.515332E-02  0.549772E-02  0.586227E-02  0.623045E-02  0.658288E-02  0.689880E-02
  0.795343E-02  0.824080E-02  0.842217E-02  0.848419E-02  0.842217E-02  0.824080E-02
  0.795343E-02  0.758025E-02  0.714569E-02  0.667571E-02  0.619545E-02  0.572729E-02
  0.528928E-02  0.489426E-02  0.454971E-02  0.425846E-02  0.401976E-02  0.383024E-02
  0.368479E-02  0.357738E-02  0.350182E-02  0.345248E-02  0.342485E-02  0.341598E-02
  0.342485E-02  0.345248E-02  0.350182E-02  0.357738E-02  0.368479E-02  0.383024E-02
  0.401976E-02  0.425846E-02  0.454971E-02  0.489426E-02  0.528928E-02  0.572729E-02
  0.619545E-02  0.667571E-02  0.714569E-02  0.758025E-02  0.795343E-02  0.932061E-02
  0.962176E-02  0.977818E-02  0.977818E-02  0.962176E-02  0.932061E-02  0.889648E-02
  0.837818E-02  0.779810E-02  0.718874E-02  0.657996E-02  0.599679E-02  0.545812E-02
  0.497644E-02  0.455833E-02  0.420554E-02  0.391595E-02  0.368479E-02  0.350580E-02
  0.337241E-02  0.327860E-02  0.321928E-02  0.319066E-02  0.319066E-02  0.321928E-02
  0.327860E-02  0.337241E-02  0.350580E-02  0.368479E-02  0.391595E-02  0.420554E-02
  0.455833E-02  0.497644E-02  0.545812E-02  0.599679E-02  0.657996E-02  0.718874E-02
  0.779810E-02  0.837818E-02  0.889648E-02  0.932061E-02  0.110535E-01  0.113462E-01
  0.114463E-01  0.113462E-01  0.110535E-01  0.105899E-01  0.998833E-02  0.928862E-02
  0.853268E-02  0.776033E-02  0.700599E-02  0.629659E-02  0.565095E-02  0.508035E-02
  0.458974E-02  0.417890E-02  0.384367E-02  0.357738E-02  0.337241E-02  0.322159E-02
  0.311879E-02  0.305923E-02  0.303974E-02  0.305923E-02  0.311879E-02  0.322159E-02
  0.337241E-02  0.357738E-02  0.384367E-02  0.417890E-02  0.458974E-02  0.508035E-02
  0.565095E-02  0.629659E-02  0.700599E-02  0.776033E-02  0.853268E-02  0.928862E-02
  0.998833E-02  0.105899E-01  0.110535E-01  0.132064E-01  0.134571E-01  0.134571E-01
  0.132064E-01  0.127241E-01  0.120460E-01  0.112196E-01  0.102980E-01  0.933392E-02
  0.837460E-02  0.745836E-02  0.661297E-02  0.585595E-02  0.519619E-02  0.463575E-02
  0.417145E-02  0.379642E-02  0.350182E-02  0.327860E-02  0.311879E-02  0.301601E-02
  0.296580E-02  0.296580E-02  0.301601E-02  0.311879E-02  0.327860E-02  0.350182E-02
  0.379642E-02  0.417145E-02  0.463575E-02  0.519619E-02  0.585595E-02  0.661297E-02
  0.745836E-02  0.837460E-02  0.933392E-02  0.102980E-01  0.112196E-01  0.120460E-01
  0.127241E-01  0.132064E-01  0.158266E-01  0.159863E-01  0.158266E-01  0.153602E-01
  0.146233E-01  0.136703E-01  0.125668E-01  0.113810E-01  0.101769E-01  0.900858E-02
  0.791693E-02  0.692898E-02  0.605933E-02  0.531282E-02  0.468726E-02  0.417557E-02
  0.376770E-02  0.345248E-02  0.321928E-02  0.305923E-02  0.296580E-02  0.293510E-02
  0.296580E-02  0.305923E-02  0.321928E-02  0.345248E-02  0.376770E-02  0.417557E-02
  0.468726E-02  0.531282E-02  0.605933E-02  0.692898E-02  0.791693E-02  0.900858E-02
  0.101769E-01  0.113810E-01  0.125668E-01  0.136703E-01  0.146233E-01  0.153602E-01
  0.158266E-01  0.189441E-01  0.189441E-01  0.185470E-01  0.177851E-01  0.167181E-01
  0.154243E-01  0.139899E-01  0.124993E-01  0.110272E-01  0.963287E-02  0.835765E-02
  0.722561E-02  0.624628E-02  0.541874E-02  0.473525E-02  0.418416E-02  0.375193E-02
  0.342485E-02  0.319066E-02  0.303974E-02  0.296580E-02  0.296580E-02  0.303974E-02
  0.319066E-02  0.342485E-02  0.375193E-02  0.418416E-02  0.473525E-02  0.541874E-02
  0.624628E-02  0.722561E-02  0.835765E-02  0.963287E-02  0.110272E-01  0.124993E-01
  0.139899E-01  0.154243E-01  0.167181E-01  0.177851E-01  0.185470E-01  0.189441E-01
  0.225592E-01  0.223085E-01  0.215780E-01  0.204283E-01  0.189493E-01  0.172475E-01
  0.154318E-01  0.136023E-01  0.118424E-01  0.102135E-01  0.875431E-02  0.748316E-02
  0.640224E-02  0.550322E-02  0.477193E-02  0.419164E-02  0.374508E-02  0.341598E-02
  0.319066E-02  0.305923E-02  0.301601E-02  0.305923E-02  0.319066E-02  0.341598E-02
  0.374508E-02  0.419164E-02  0.477193E-02  0.550322E-02  0.640224E-02  0.748316E-02
  0.875431E-02  0.102135E-01  0.118424E-01  0.136023E-01  0.154318E-01  0.172475E-01
  0.189493E-01  0.204283E-01  0.215780E-01  0.223085E-01  0.225592E-01  0.266284E-01
  0.260143E-01  0.248396E-01  0.232023E-01  0.212293E-01  0.190581E-01  0.168205E-01
  0.146302E-01  0.125751E-01  0.107145E-01  0.908068E-02  0.768303E-02  0.651433E-02
  0.555763E-02  0.479170E-02  0.419451E-02  0.374508E-02  0.342485E-02  0.321928E-02
  0.311879E-02  0.311879E-02  0.321928E-02  0.342485E-02  0.374508E-02  0.419451E-02
  0.479170E-02  0.555763E-02  0.651433E-02  0.768303E-02  0.908068E-02  0.107145E-01
  0.125751E-01  0.146302E-01  0.168205E-01  0.190581E-01  0.212293E-01  0.232023E-01
  0.248396E-01  0.260143E-01  0.266284E-01  0.266284E-01  0.310496E-01  0.299422E-01
  0.282053E-01  0.259829E-01  0.234433E-01  0.207564E-01  0.180743E-01  0.155190E-01
  0.131774E-01  0.111017E-01  0.931329E-02  0.780979E-02  0.657294E-02  0.557639E-02
  0.479170E-02  0.419164E-02  0.375193E-02  0.345248E-02  0.327860E-02  0.322159E-02
  0.327860E-02  0.345248E-02  0.375193E-02  0.419164E-02  0.479170E-02  0.557639E-02
  0.657294E-02  0.780979E-02  0.931329E-02  0.111017E-01  0.131774E-01  0.155190E-01
  0.180743E-01  0.207564E-01  0.234433E-01  0.259829E-01  0.282053E-01  0.299422E-01
  0.310496E-01  0.314302E-01  0.310496E-01  0.356507E-01  0.339140E-01  0.315026E-01
  0.286129E-01  0.254568E-01  0.222333E-01  0.191089E-01  0.162071E-01  0.136066E-01
  0.113467E-01  0.943437E-02  0.785323E-02  0.657294E-02  0.555763E-02  0.477193E-02
  0.418416E-02  0.376770E-02  0.350182E-02  0.337241E-02  0.337241E-02  0.350182E-02
  0.376770E-02  0.418416E-02  0.477193E-02  0.555763E-02  0.657294E-02  0.785323E-02
  0.943437E-02  0.113467E-01  0.136066E-01  0.162071E-01  0.191089E-01  0.222333E-01
  0.254568E-01  0.286129E-01  0.315026E-01  0.339140E-01  0.356507E-01  0.365607E-01
  0.365607E-01  0.356507E-01  0.401892E-01  0.376980E-01  0.345230E-01  0.309158E-01
  0.271283E-01  0.233819E-01  0.198482E-01  0.166430E-01  0.138300E-01  0.114306E-01
  0.943437E-02  0.780979E-02  0.651433E-02  0.550322E-02  0.473525E-02  0.417557E-02
  0.379642E-02  0.357738E-02  0.350580E-02  0.357738E-02  0.379642E-02  0.417557E-02
  0.473525E-02  0.550322E-02  0.651433E-02  0.780979E-02  0.943437E-02  0.114306E-01
  0.138300E-01  0.166430E-01  0.198482E-01  0.233819E-01  0.271283E-01  0.309158E-01
  0.345230E-01  0.376980E-01  0.401892E-01  0.417815E-01  0.423293E-01  0.417815E-01
  0.401892E-01  0.443682E-01  0.410296E-01  0.370445E-01  0.327161E-01  0.283278E-01
  0.241118E-01  0.202337E-01  0.167923E-01  0.138300E-01  0.113467E-01  0.931329E-02
  0.768303E-02  0.640224E-02  0.541874E-02  0.468726E-02  0.417145E-02  0.384367E-02
  0.368479E-02  0.368479E-02  0.384367E-02  0.417145E-02  0.468726E-02  0.541874E-02
  0.640224E-02  0.768303E-02  0.931329E-02  0.113467E-01  0.138300E-01  0.167923E-01
  0.202337E-01  0.241118E-01  0.283278E-01  0.327161E-01  0.370445E-01  0.410296E-01
  0.443682E-01  0.467787E-01  0.480433E-01  0.480433E-01  0.467787E-01  0.443682E-01
  0.478695E-01  0.436442E-01  0.388609E-01  0.338641E-01  0.289549E-01  0.243623E-01
  0.202337E-01  0.166430E-01  0.136066E-01  0.111017E-01  0.908068E-02  0.748316E-02
  0.624628E-02  0.531282E-02  0.463575E-02  0.417890E-02  0.391595E-02  0.383024E-02
  0.391595E-02  0.417890E-02  0.463575E-02  0.531282E-02  0.624628E-02  0.748316E-02
  0.908068E-02  0.111017E-01  0.136066E-01  0.166430E-01  0.202337E-01  0.243623E-01
  0.289549E-01  0.338641E-01  0.388609E-01  0.436442E-01  0.478695E-01  0.511925E-01
  0.533193E-01  0.540516E-01  0.533193E-01  0.511925E-01  0.478695E-01  0.503972E-01
  0.453153E-01  0.398125E-01  0.342586E-01  0.289549E-01  0.241118E-01  0.198482E-01
  0.162071E-01  0.131774E-01  0.107145E-01  0.875431E-02  0.722561E-02  0.605933E-02
  0.519619E-02  0.458974E-02  0.420554E-02  0.401976E-02  0.401976E-02  0.420554E-02
  0.458974E-02  0.519619E-02  0.605933E-02  0.722561E-02  0.875431E-02  0.107145E-01
  0.131774E-01  0.162071E-01  0.198482E-01  0.241118E-01  0.289549E-01  0.342586E-01
  0.398125E-01  0.453153E-01  0.503972E-01  0.546633E-01  0.577470E-01  0.593659E-01
  0.593659E-01  0.577470E-01  0.546633E-01  0.503972E-01  0.517233E-01  0.458903E-01
  0.398125E-01  0.338641E-01  0.283278E-01  0.233819E-01  0.191089E-01  0.155190E-01
  0.125751E-01  0.102135E-01  0.835765E-02  0.692898E-02  0.585595E-02  0.508035E-02
  0.455833E-02  0.425846E-02  0.416083E-02  0.425846E-02  0.455833E-02  0.508035E-02
  0.585595E-02  0.692898E-02  0.835765E-02  0.102135E-01  0.125751E-01  0.155190E-01
  0.191089E-01  0.233819E-01  0.283278E-01  0.338641E-01  0.398125E-01  0.458903E-01
  0.517233E-01  0.568840E-01  0.609465E-01  0.635478E-01  0.644436E-01  0.635478E-01
  0.609465E-01  0.568840E-01  0.517233E-01  0.517233E-01  0.453153E-01  0.388609E-01
  0.327161E-01  0.271283E-01  0.222333E-01  0.180743E-01  0.146302E-01  0.118424E-01
  0.963287E-02  0.791693E-02  0.661297E-02  0.565095E-02  0.497644E-02  0.454971E-02
  0.434356E-02  0.434356E-02  0.454971E-02  0.497644E-02  0.565095E-02  0.661297E-02
  0.791693E-02  0.963287E-02  0.118424E-01  0.146302E-01  0.180743E-01  0.222333E-01
  0.271283E-01  0.327161E-01  0.388609E-01  0.453153E-01  0.517233E-01  0.576485E-01
  0.626256E-01  0.662244E-01  0.681139E-01  0.681139E-01  0.662244E-01  0.626256E-01
  0.576485E-01  0.517233E-01  0.503972E-01  0.436442E-01  0.370445E-01  0.309158E-01
  0.254568E-01  0.207564E-01  0.168205E-01  0.136023E-01  0.110272E-01  0.900858E-02
  0.745836E-02  0.629659E-02  0.545812E-02  0.489426E-02  0.457049E-02  0.446510E-02
  0.457049E-02  0.489426E-02  0.545812E-02  0.629659E-02  0.745836E-02  0.900858E-02
  0.110272E-01  0.136023E-01  0.168205E-01  0.207564E-01  0.254568E-01  0.309158E-01
  0.370445E-01  0.436442E-01  0.503972E-01  0.568840E-01  0.626256E-01  0.671459E-01
  0.700402E-01  0.710369E-01  0.700402E-01  0.671459E-01  0.626256E-01  0.568840E-01
  0.503972E-01  0.478695E-01  0.410296E-01  0.345230E-01  0.286129E-01  0.234433E-01
  0.190581E-01  0.154318E-01  0.124993E-01  0.101769E-01  0.837460E-02  0.700599E-02
  0.599679E-02  0.528928E-02  0.484159E-02  0.462526E-02  0.462526E-02  0.484159E-02
  0.528928E-02  0.599679E-02  0.700599E-02  0.837460E-02  0.101769E-01  0.124993E-01
  0.154318E-01  0.190581E-01  0.234433E-01  0.286129E-01  0.345230E-01  0.410296E-01
  0.478695E-01  0.546633E-01  0.609465E-01  0.662244E-01  0.700402E-01  0.720433E-01
  0.720433E-01  0.700402E-01  0.662244E-01  0.609465E-01  0.546633E-01  0.478695E-01
  0.443682E-01  0.376980E-01  0.315026E-01  0.259829E-01  0.212293E-01  0.172475E-01
  0.139899E-01  0.113810E-01  0.933392E-02  0.776033E-02  0.657996E-02  0.572729E-02
  0.515332E-02  0.482345E-02  0.471603E-02  0.482345E-02  0.515332E-02  0.572729E-02
  0.657996E-02  0.776033E-02  0.933392E-02  0.113810E-01  0.139899E-01  0.172475E-01
  0.212293E-01  0.259829E-01  0.315026E-01  0.376980E-01  0.443682E-01  0.511925E-01
  0.577470E-01  0.635478E-01  0.681139E-01  0.710369E-01  0.720433E-01  0.710369E-01
  0.681139E-01  0.635478E-01  0.577470E-01  0.511925E-01  0.443682E-01  0.401892E-01
  0.339140E-01  0.282053E-01  0.232023E-01  0.189493E-01  0.154243E-01  0.125668E-01
  0.102980E-01  0.853268E-02  0.718874E-02  0.619545E-02  0.549772E-02  0.505551E-02
  0.484159E-02  0.484159E-02  0.505551E-02  0.549772E-02  0.619545E-02  0.718874E-02
  0.853268E-02  0.102980E-01  0.125668E-01  0.154243E-01  0.189493E-01  0.232023E-01
  0.282053E-01  0.339140E-01  0.401892E-01  0.467787E-01  0.533193E-01  0.593659E-01
  0.644436E-01  0.681139E-01  0.700402E-01  0.700402E-01  0.681139E-01  0.644436E-01
  0.593659E-01  0.533193E-01  0.467787E-01  0.401892E-01  0.356507E-01  0.299422E-01
  0.248396E-01  0.204283E-01  0.167181E-01  0.136703E-01  0.112196E-01  0.928862E-02
  0.779810E-02  0.667571E-02  0.586227E-02  0.531333E-02  0.499728E-02  0.489426E-02
  0.499728E-02  0.531333E-02  0.586227E-02  0.667571E-02  0.779810E-02  0.928862E-02
  0.112196E-01  0.136703E-01  0.167181E-01  0.204283E-01  0.248396E-01  0.299422E-01
  0.356507E-01  0.417815E-01  0.480433E-01  0.540516E-01  0.593659E-01  0.635478E-01
  0.662244E-01  0.671459E-01  0.662244E-01  0.635478E-01  0.593659E-01  0.540516E-01
  0.480433E-01  0.417815E-01  0.356507E-01  0.310496E-01  0.260143E-01  0.215780E-01
  0.177851E-01  0.146233E-01  0.120460E-01  0.998833E-02  0.837818E-02  0.714569E-02
  0.623045E-02  0.558518E-02  0.517513E-02  0.497644E-02  0.497644E-02  0.517513E-02
  0.558518E-02  0.623045E-02  0.714569E-02  0.837818E-02  0.998833E-02  0.120460E-01
  0.146233E-01  0.177851E-01  0.215780E-01  0.260143E-01  0.310496E-01  0.365607E-01
  0.423293E-01  0.480433E-01  0.533193E-01  0.577470E-01  0.609465E-01  0.626256E-01
  0.626256E-01  0.609465E-01  0.577470E-01  0.533193E-01  0.480433E-01  0.423293E-01
  0.365607E-01  0.310496E-01  0.266284E-01  0.223085E-01  0.185470E-01  0.153602E-01
  0.127241E-01  0.105899E-01  0.889648E-02  0.758025E-02  0.658288E-02  0.585644E-02
  0.536439E-02  0.508035E-02  0.498763E-02  0.508035E-02  0.536439E-02  0.585644E-02
  0.658288E-02  0.758025E-02  0.889648E-02  0.105899E-01  0.127241E-01  0.153602E-01
  0.185470E-01  0.223085E-01  0.266284E-01  0.314302E-01  0.365607E-01  0.417815E-01
  0.467787E-01  0.511925E-01  0.546633E-01  0.568840E-01  0.576485E-01  0.568840E-01
  0.546633E-01  0.511925E-01  0.467787E-01  0.417815E-01  0.365607E-01  0.314302E-01
  0.266284E-01  0.225592E-01  0.189441E-01  0.158266E-01  0.132064E-01  0.110535E-01
  0.932061E-02  0.795343E-02  0.689880E-02  0.611065E-02  0.555230E-02  0.519619E-02
  0.502318E-02  0.502318E-02  0.519619E-02  0.555230E-02  0.611065E-02  0.689880E-02
  0.795343E-02  0.932061E-02  0.110535E-01  0.132064E-01  0.158266E-01  0.189441E-01
  0.225592E-01  0.266284E-01  0.310496E-01  0.356507E-01  0.401892E-01  0.443682E-01
  0.478695E-01  0.503972E-01  0.517233E-01  0.517233E-01  0.503972E-01  0.478695E-01
  0.443682E-01  0.401892E-01  0.356507E-01  0.310496E-01  0.266284E-01  0.225592E-01
  0.213229E-01  0.180005E-01  0.151622E-01  0.127945E-01  0.108631E-01  0.932061E-02
  0.811422E-02  0.719398E-02  0.651908E-02  0.605933E-02  0.579302E-02  0.570597E-02
  0.579302E-02  0.605933E-02  0.651908E-02  0.719398E-02  0.811422E-02  0.932061E-02
  0.108631E-01  0.127945E-01  0.151622E-01  0.180005E-01  0.213229E-01  0.251089E-01
  0.292871E-01  0.337198E-01  0.381981E-01  0.424537E-01  0.461868E-01  0.491053E-01
  0.509650E-01  0.516038E-01  0.509650E-01  0.491053E-01  0.461868E-01  0.424537E-01
  0.381981E-01  0.337198E-01  0.292871E-01  0.251089E-01  0.213229E-01  0.180005E-01
  0.153148E-01  0.130374E-01  0.111510E-01  0.962176E-02  0.840714E-02  0.746345E-02
  0.675291E-02  0.624628E-02  0.592187E-02  0.576403E-02  0.576403E-02  0.592187E-02
  0.624628E-02  0.675291E-02  0.746345E-02  0.840714E-02  0.962176E-02  0.111510E-01
  0.130374E-01  0.153148E-01  0.180005E-01  0.210876E-01  0.245344E-01  0.282516E-01
  0.320930E-01  0.358563E-01  0.392993E-01  0.421678E-01  0.442298E-01  0.453087E-01
  0.453087E-01  0.442298E-01  0.421678E-01  0.392993E-01  0.358563E-01  0.320930E-01
  0.282516E-01  0.245344E-01  0.210876E-01  0.180005E-01  0.151622E-01  0.130374E-01
  0.112494E-01  0.977818E-02  0.859196E-02  0.765492E-02  0.693399E-02  0.640224E-02
  0.603886E-02  0.582799E-02  0.575898E-02  0.582799E-02  0.603886E-02  0.640224E-02
  0.693399E-02  0.765492E-02  0.859196E-02  0.977818E-02  0.112494E-01  0.130374E-01
  0.151622E-01  0.176249E-01  0.204015E-01  0.234348E-01  0.266260E-01  0.298307E-01
  0.328645E-01  0.355210E-01  0.375965E-01  0.389192E-01  0.393736E-01  0.389192E-01
  0.375965E-01  0.355210E-01  0.328645E-01  0.298307E-01  0.266260E-01  0.234348E-01
  0.204015E-01  0.176249E-01  0.151622E-01  0.127945E-01  0.111510E-01  0.977818E-02
  0.865514E-02  0.775437E-02  0.704860E-02  0.651433E-02  0.613237E-02  0.588733E-02
  0.576789E-02  0.576789E-02  0.588733E-02  0.613237E-02  0.651433E-02  0.704860E-02
  0.775437E-02  0.865514E-02  0.977818E-02  0.111510E-01  0.127945E-01  0.147163E-01
  0.169039E-01  0.193208E-01  0.219006E-01  0.245431E-01  0.271147E-01  0.294568E-01
  0.314030E-01  0.328004E-01  0.335312E-01  0.335312E-01  0.328004E-01  0.314030E-01
  0.294568E-01  0.271147E-01  0.245431E-01  0.219006E-01  0.193208E-01  0.169039E-01
  0.147163E-01  0.127945E-01  0.108631E-01  0.962176E-02  0.859196E-02  0.775437E-02
  0.708783E-02  0.657294E-02  0.619278E-02  0.593285E-02  0.578174E-02  0.573219E-02
  0.578174E-02  0.593285E-02  0.619278E-02  0.657294E-02  0.708783E-02  0.775437E-02
  0.859196E-02  0.962176E-02  0.108631E-01  0.123274E-01  0.140115E-01  0.158934E-01
  0.179289E-01  0.200490E-01  0.221590E-01  0.241423E-01  0.258699E-01  0.272156E-01
  0.280717E-01  0.283657E-01  0.280717E-01  0.272156E-01  0.258699E-01  0.241423E-01
  0.221590E-01  0.200490E-01  0.179289E-01  0.158934E-01  0.140115E-01  0.123274E-01
  0.108631E-01  0.932061E-02  0.840714E-02  0.765492E-02  0.704860E-02  0.657294E-02
  0.621367E-02  0.595753E-02  0.579324E-02  0.571299E-02  0.571299E-02  0.579324E-02
  0.595753E-02  0.621367E-02  0.657294E-02  0.704860E-02  0.765492E-02  0.840714E-02
  0.932061E-02  0.104073E-01  0.116705E-01  0.130995E-01  0.146665E-01  0.163248E-01
  0.180079E-01  0.196318E-01  0.211002E-01  0.223142E-01  0.231829E-01  0.236364E-01
  0.236364E-01  0.231829E-01  0.223142E-01  0.211002E-01  0.196318E-01  0.180079E-01
  0.163248E-01  0.146665E-01  0.130995E-01  0.116705E-01  0.104073E-01  0.932061E-02
  0.811422E-02  0.746345E-02  0.693399E-02  0.651433E-02  0.619278E-02  0.595753E-02
  0.579763E-02  0.570477E-02  0.567428E-02  0.570477E-02  0.579763E-02  0.595753E-02
  0.619278E-02  0.651433E-02  0.693399E-02  0.746345E-02  0.811422E-02  0.889648E-02
  0.981594E-02  0.108697E-01  0.120424E-01  0.133044E-01  0.146102E-01  0.159000E-01
  0.171035E-01  0.181454E-01  0.189531E-01  0.194655E-01  0.196412E-01  0.194655E-01
  0.189531E-01  0.181454E-01  0.171035E-01  0.159000E-01  0.146102E-01  0.133044E-01
  0.120424E-01  0.108697E-01  0.981594E-02  0.889648E-02  0.811422E-02  0.719398E-02
  0.675291E-02  0.640224E-02  0.613237E-02  0.593285E-02  0.579324E-02  0.570477E-02
  0.566177E-02  0.566177E-02  0.570477E-02  0.579324E-02  0.593285E-02  0.613237E-02
  0.640224E-02  0.675291E-02  0.719398E-02  0.773381E-02  0.837818E-02  0.912794E-02
  0.997613E-02  0.109055E-01  0.118869E-01  0.128792E-01  0.138319E-01  0.146890E-01
  0.153943E-01  0.158974E-01  0.161595E-01  0.161595E-01  0.158974E-01  0.153943E-01
  0.146890E-01  0.138319E-01  0.128792E-01  0.118869E-01  0.109055E-01  0.997613E-02
  0.912794E-02  0.837818E-02  0.773381E-02  0.719398E-02  0.651908E-02  0.624628E-02
  0.603886E-02  0.588733E-02  0.578174E-02  0.571299E-02  0.567428E-02  0.566177E-02
  0.567428E-02  0.571299E-02  0.578174E-02  0.588733E-02  0.603886E-02  0.624628E-02
  0.651908E-02  0.686535E-02  0.729089E-02  0.779810E-02  0.838449E-02  0.904098E-02
  0.975009E-02  0.104851E-01  0.112108E-01  0.118868E-01  0.124707E-01  0.129226E-01
  0.132088E-01  0.133068E-01  0.132088E-01  0.129226E-01  0.124707E-01  0.118868E-01
  0.112108E-01  0.104851E-01  0.975009E-02  0.904098E-02  0.838449E-02  0.779810E-02
  0.729089E-02  0.686535E-02  0.651908E-02  0.605933E-02  0.592187E-02  0.582799E-02
  0.576789E-02  0.573219E-02  0.571299E-02  0.570477E-02  0.570477E-02  0.571299E-02
  0.573219E-02  0.576789E-02  0.582799E-02  0.592187E-02  0.605933E-02  0.624935E-02
  0.649892E-02  0.681200E-02  0.718874E-02  0.762478E-02  0.811017E-02  0.862824E-02
  0.915565E-02  0.966398E-02  0.101223E-01  0.104999E-01  0.107695E-01  0.109100E-01
  0.109100E-01  0.107695E-01  0.104999E-01  0.101223E-01  0.966398E-02  0.915565E-02
  0.862824E-02  0.811017E-02  0.762478E-02  0.718874E-02  0.681200E-02  0.649892E-02
  0.624935E-02  0.605933E-02  0.579302E-02  0.576403E-02  0.575898E-02  0.576789E-02
  0.578174E-02  0.579324E-02  0.579763E-02  0.579324E-02  0.578174E-02  0.576789E-02
  0.575898E-02  0.576403E-02  0.579302E-02  0.585595E-02  0.596162E-02  0.611628E-02
  0.632273E-02  0.657996E-02  0.688272E-02  0.722094E-02  0.757943E-02  0.793873E-02
  0.827676E-02  0.857080E-02  0.879944E-02  0.894473E-02  0.899459E-02  0.894473E-02
  0.879944E-02  0.857080E-02  0.827676E-02  0.793873E-02  0.757943E-02  0.722094E-02
  0.688272E-02  0.657996E-02  0.632273E-02  0.611628E-02  0.596162E-02  0.585595E-02
  0.579302E-02  0.570597E-02  0.576403E-02  0.582799E-02  0.588733E-02  0.593285E-02
  0.595753E-02  0.595753E-02  0.593285E-02  0.588733E-02  0.582799E-02  0.576403E-02
  0.570597E-02  0.566477E-02  0.565095E-02  0.567322E-02  0.573743E-02  0.584580E-02
  0.599679E-02  0.618480E-02  0.640019E-02  0.662971E-02  0.685770E-02  0.706753E-02
  0.724288E-02  0.736922E-02  0.743542E-02  0.743542E-02  0.736922E-02  0.724288E-02
  0.706753E-02  0.685770E-02  0.662971E-02  0.640019E-02  0.618480E-02  0.599679E-02
  0.584580E-02  0.573743E-02  0.567322E-02  0.565095E-02  0.566477E-02  0.570597E-02
  0.579302E-02  0.592187E-02  0.603886E-02  0.613237E-02  0.619278E-02  0.621367E-02
  0.619278E-02  0.613237E-02  0.603886E-02  0.592187E-02  0.579302E-02  0.566477E-02
  0.554944E-02  0.545812E-02  0.539960E-02  0.537946E-02  0.539960E-02  0.545812E-02
  0.554944E-02  0.566477E-02  0.579302E-02  0.592187E-02  0.603886E-02  0.613237E-02
  0.619278E-02  0.621367E-02  0.619278E-02  0.613237E-02  0.603886E-02  0.592187E-02
  0.579302E-02  0.566477E-02  0.554944E-02  0.545812E-02  0.539960E-02  0.537946E-02
  0.539960E-02  0.545812E-02  0.554944E-02  0.566477E-02  0.579302E-02  0.605933E-02
  0.624628E-02  0.640224E-02  0.651433E-02  0.657294E-02  0.657294E-02  0.651433E-02
  0.640224E-02  0.624628E-02  0.605933E-02  0.585595E-02  0.565095E-02  0.545812E-02
  0.528928E-02  0.515332E-02  0.505551E-02  0.499728E-02  0.497644E-02  0.498763E-02
  0.502318E-02  0.507397E-02  0.513030E-02  0.518272E-02  0.522294E-02  0.524472E-02
  0.524472E-02  0.522294E-02  0.518272E-02  0.513030E-02  0.507397E-02  0.502318E-02
  0.498763E-02  0.497644E-02  0.499728E-02  0.505551E-02  0.515332E-02  0.528928E-02
  0.545812E-02  0.565095E-02  0.585595E-02  0.605933E-02  0.651908E-02  0.675291E-02
  0.693399E-02  0.704860E-02  0.708783E-02  0.704860E-02  0.693399E-02  0.675291E-02
  0.651908E-02  0.624935E-02  0.596162E-02  0.567322E-02  0.539960E-02  0.515332E-02
  0.494323E-02  0.477407E-02  0.464661E-02  0.455833E-02  0.450419E-02  0.447748E-02
  0.447058E-02  0.447568E-02  0.448550E-02  0.449404E-02  0.449734E-02  0.449404E-02
  0.448550E-02  0.447568E-02  0.447058E-02  0.447748E-02  0.450419E-02  0.455833E-02
  0.464661E-02  0.477407E-02  0.494323E-02  0.515332E-02  0.539960E-02  0.567322E-02
  0.596162E-02  0.624935E-02  0.651908E-02  0.719398E-02  0.746345E-02  0.765492E-02
  0.775437E-02  0.775437E-02  0.765492E-02  0.746345E-02  0.719398E-02  0.686535E-02
  0.649892E-02  0.611628E-02  0.573743E-02  0.537946E-02  0.505551E-02  0.477407E-02
  0.453908E-02  0.435055E-02  0.420554E-02  0.409906E-02  0.402493E-02  0.397652E-02
  0.394730E-02  0.393153E-02  0.392483E-02  0.392483E-02  0.393153E-02  0.394730E-02
  0.397652E-02  0.402493E-02  0.409906E-02  0.420554E-02  0.435055E-02  0.453908E-02
  0.477407E-02  0.505551E-02  0.537946E-02  0.573743E-02  0.611628E-02  0.649892E-02
  0.686535E-02  0.719398E-02  0.811422E-02  0.840714E-02  0.859196E-02  0.865514E-02
  0.859196E-02  0.840714E-02  0.811422E-02  0.773381E-02  0.729089E-02  0.681200E-02
  0.632273E-02  0.584580E-02  0.539960E-02  0.499728E-02  0.464661E-02  0.435055E-02
  0.410821E-02  0.391595E-02  0.376838E-02  0.365935E-02  0.358268E-02  0.353276E-02
  0.350493E-02  0.349603E-02  0.350493E-02  0.353276E-02  0.358268E-02  0.365935E-02
  0.376838E-02  0.391595E-02  0.410821E-02  0.435055E-02  0.464661E-02  0.499728E-02
  0.539960E-02  0.584580E-02  0.632273E-02  0.681200E-02  0.729089E-02  0.773381E-02
  0.811422E-02  0.932061E-02  0.962176E-02  0.977818E-02  0.977818E-02  0.962176E-02
  0.932061E-02  0.889648E-02  0.837818E-02  0.779810E-02  0.718874E-02  0.657996E-02
  0.599679E-02  0.545812E-02  0.497644E-02  0.455833E-02  0.420554E-02  0.391595E-02
  0.368479E-02  0.350580E-02  0.337241E-02  0.327860E-02  0.321928E-02  0.319066E-02
  0.319066E-02  0.321928E-02  0.327860E-02  0.337241E-02  0.350580E-02  0.368479E-02
  0.391595E-02  0.420554E-02  0.455833E-02  0.497644E-02  0.545812E-02  0.599679E-02
  0.657996E-02  0.718874E-02  0.779810E-02  0.837818E-02  0.889648E-02  0.932061E-02
  0.108631E-01  0.111510E-01  0.112494E-01  0.111510E-01  0.108631E-01  0.104073E-01
  0.981594E-02  0.912794E-02  0.838449E-02  0.762478E-02  0.688272E-02  0.618480E-02
  0.554944E-02  0.498763E-02  0.450419E-02  0.409906E-02  0.376838E-02  0.350580E-02
  0.330383E-02  0.315524E-02  0.305387E-02  0.299501E-02  0.297573E-02  0.299501E-02
  0.305387E-02  0.315524E-02  0.330383E-02  0.350580E-02  0.376838E-02  0.409906E-02
  0.450419E-02  0.498763E-02  0.554944E-02  0.618480E-02  0.688272E-02  0.762478E-02
  0.838449E-02  0.912794E-02  0.981594E-02  0.104073E-01  0.108631E-01  0.127945E-01
  0.130374E-01  0.130374E-01  0.127945E-01  0.123274E-01  0.116705E-01  0.108697E-01
  0.997613E-02  0.904098E-02  0.811017E-02  0.722094E-02  0.640019E-02  0.566477E-02
  0.502318E-02  0.447748E-02  0.402493E-02  0.365935E-02  0.337241E-02  0.315524E-02
  0.299975E-02  0.289958E-02  0.285053E-02  0.285053E-02  0.289958E-02  0.299975E-02
  0.315524E-02  0.337241E-02  0.365935E-02  0.402493E-02  0.447748E-02  0.502318E-02
  0.566477E-02  0.640019E-02  0.722094E-02  0.811017E-02  0.904098E-02  0.997613E-02
  0.108697E-01  0.116705E-01  0.123274E-01  0.127945E-01  0.151622E-01  0.153148E-01
  0.151622E-01  0.147163E-01  0.140115E-01  0.130995E-01  0.120424E-01  0.109055E-01
  0.975009E-02  0.862824E-02  0.757943E-02  0.662971E-02  0.579302E-02  0.507397E-02
  0.447058E-02  0.397652E-02  0.358268E-02  0.327860E-02  0.305387E-02  0.289958E-02
  0.280940E-02  0.277971E-02  0.280940E-02  0.289958E-02  0.305387E-02  0.327860E-02
  0.358268E-02  0.397652E-02  0.447058E-02  0.507397E-02  0.579302E-02  0.662971E-02
  0.757943E-02  0.862824E-02  0.975009E-02  0.109055E-01  0.120424E-01  0.130995E-01
  0.140115E-01  0.147163E-01  0.151622E-01  0.180005E-01  0.180005E-01  0.176249E-01
  0.169039E-01  0.158934E-01  0.146665E-01  0.133044E-01  0.118869E-01  0.104851E-01
  0.915565E-02  0.793873E-02  0.685770E-02  0.592187E-02  0.513030E-02  0.447568E-02
  0.394730E-02  0.353276E-02  0.321928E-02  0.299501E-02  0.285053E-02  0.277971E-02
  0.277971E-02  0.285053E-02  0.299501E-02  0.321928E-02  0.353276E-02  0.394730E-02
  0.447568E-02  0.513030E-02  0.592187E-02  0.685770E-02  0.793873E-02  0.915565E-02
  0.104851E-01  0.118869E-01  0.133044E-01  0.146665E-01  0.158934E-01  0.169039E-01
  0.176249E-01  0.180005E-01  0.213229E-01  0.210876E-01  0.204015E-01  0.193208E-01
  0.179289E-01  0.163248E-01  0.146102E-01  0.128792E-01  0.112108E-01  0.966398E-02
  0.827676E-02  0.706753E-02  0.603886E-02  0.518272E-02  0.448550E-02  0.393153E-02
  0.350493E-02  0.319066E-02  0.297573E-02  0.285053E-02  0.280940E-02  0.285053E-02
  0.297573E-02  0.319066E-02  0.350493E-02  0.393153E-02  0.448550E-02  0.518272E-02
  0.603886E-02  0.706753E-02  0.827676E-02  0.966398E-02  0.112108E-01  0.128792E-01
  0.146102E-01  0.163248E-01  0.179289E-01  0.193208E-01  0.204015E-01  0.210876E-01
  0.213229E-01  0.251089E-01  0.245344E-01  0.234348E-01  0.219006E-01  0.200490E-01
  0.180079E-01  0.159000E-01  0.138319E-01  0.118868E-01  0.101223E-01  0.857080E-02
  0.724288E-02  0.613237E-02  0.522294E-02  0.449404E-02  0.392483E-02  0.349603E-02
  0.319066E-02  0.299501E-02  0.289958E-02  0.289958E-02  0.299501E-02  0.319066E-02
  0.349603E-02  0.392483E-02  0.449404E-02  0.522294E-02  0.613237E-02  0.724288E-02
  0.857080E-02  0.101223E-01  0.118868E-01  0.138319E-01  0.159000E-01  0.180079E-01
  0.200490E-01  0.219006E-01  0.234348E-01  0.245344E-01  0.251089E-01  0.251089E-01
  0.292871E-01  0.282516E-01  0.266260E-01  0.245431E-01  0.221590E-01  0.196318E-01
  0.171035E-01  0.146890E-01  0.124707E-01  0.104999E-01  0.879944E-02  0.736922E-02
  0.619278E-02  0.524472E-02  0.449734E-02  0.392483E-02  0.350493E-02  0.321928E-02
  0.305387E-02  0.299975E-02  0.305387E-02  0.321928E-02  0.350493E-02  0.392483E-02
  0.449734E-02  0.524472E-02  0.619278E-02  0.736922E-02  0.879944E-02  0.104999E-01
  0.124707E-01  0.146890E-01  0.171035E-01  0.196318E-01  0.221590E-01  0.245431E-01
  0.266260E-01  0.282516E-01  0.292871E-01  0.296428E-01  0.292871E-01  0.337198E-01
  0.320930E-01  0.298307E-01  0.271147E-01  0.241423E-01  0.211002E-01  0.181454E-01
  0.153943E-01  0.129226E-01  0.107695E-01  0.894473E-02  0.743542E-02  0.621367E-02
  0.524472E-02  0.449404E-02  0.393153E-02  0.353276E-02  0.327860E-02  0.315524E-02
  0.315524E-02  0.327860E-02  0.353276E-02  0.393153E-02  0.449404E-02  0.524472E-02
  0.621367E-02  0.743542E-02  0.894473E-02  0.107695E-01  0.129226E-01  0.153943E-01
  0.181454E-01  0.211002E-01  0.241423E-01  0.271147E-01  0.298307E-01  0.320930E-01
  0.337198E-01  0.345712E-01  0.345712E-01  0.337198E-01  0.381981E-01  0.358563E-01
  0.328645E-01  0.294568E-01  0.258699E-01  0.223142E-01  0.189531E-01  0.158974E-01
  0.132088E-01  0.109100E-01  0.899459E-02  0.743542E-02  0.619278E-02  0.522294E-02
  0.448550E-02  0.394730E-02  0.358268E-02  0.337241E-02  0.330383E-02  0.337241E-02
  0.358268E-02  0.394730E-02  0.448550E-02  0.522294E-02  0.619278E-02  0.743542E-02
  0.899459E-02  0.109100E-01  0.132088E-01  0.158974E-01  0.189531E-01  0.223142E-01
  0.258699E-01  0.294568E-01  0.328645E-01  0.358563E-01  0.381981E-01  0.396920E-01
  0.402055E-01  0.396920E-01  0.381981E-01  0.424537E-01  0.392993E-01  0.355210E-01
  0.314030E-01  0.272156E-01  0.231829E-01  0.194655E-01  0.161595E-01  0.133068E-01
  0.109100E-01  0.894473E-02  0.736922E-02  0.613237E-02  0.518272E-02  0.447568E-02
  0.397652E-02  0.365935E-02  0.350580E-02  0.350580E-02  0.365935E-02  0.397652E-02
  0.447568E-02  0.518272E-02  0.613237E-02  0.736922E-02  0.894473E-02  0.109100E-01
  0.133068E-01  0.161595E-01  0.194655E-01  0.231829E-01  0.272156E-01  0.314030E-01
  0.355210E-01  0.392993E-01  0.424537E-01  0.447242E-01  0.459130E-01  0.459130E-01
  0.447242E-01  0.424537E-01  0.461868E-01  0.421678E-01  0.375965E-01  0.328004E-01
  0.280717E-01  0.236364E-01  0.196412E-01  0.161595E-01  0.132088E-01  0.107695E-01
  0.879944E-02  0.724288E-02  0.603886E-02  0.513030E-02  0.447058E-02  0.402493E-02
  0.376838E-02  0.368479E-02  0.376838E-02  0.402493E-02  0.447058E-02  0.513030E-02
  0.603886E-02  0.724288E-02  0.879944E-02  0.107695E-01  0.132088E-01  0.161595E-01
  0.196412E-01  0.236364E-01  0.280717E-01  0.328004E-01  0.375965E-01  0.421678E-01
  0.461868E-01  0.493337E-01  0.513409E-01  0.520307E-01  0.513409E-01  0.493337E-01
  0.461868E-01  0.491053E-01  0.442298E-01  0.389192E-01  0.335312E-01  0.283657E-01
  0.236364E-01  0.194655E-01  0.158974E-01  0.129226E-01  0.104999E-01  0.857080E-02
  0.706753E-02  0.592187E-02  0.507397E-02  0.447748E-02  0.409906E-02  0.391595E-02
  0.391595E-02  0.409906E-02  0.447748E-02  0.507397E-02  0.592187E-02  0.706753E-02
  0.857080E-02  0.104999E-01  0.129226E-01  0.158974E-01  0.194655E-01  0.236364E-01
  0.283657E-01  0.335312E-01  0.389192E-01  0.442298E-01  0.491053E-01  0.531738E-01
  0.560998E-01  0.576306E-01  0.576306E-01  0.560998E-01  0.531738E-01  0.491053E-01
  0.509650E-01  0.453087E-01  0.393736E-01  0.335312E-01  0.280717E-01  0.231829E-01
  0.189531E-01  0.153943E-01  0.124707E-01  0.101223E-01  0.827676E-02  0.685770E-02
  0.579302E-02  0.502318E-02  0.450419E-02  0.420554E-02  0.410821E-02  0.420554E-02
  0.450419E-02  0.502318E-02  0.579302E-02  0.685770E-02  0.827676E-02  0.101223E-01
  0.124707E-01  0.153943E-01  0.189531E-01  0.231829E-01  0.280717E-01  0.335312E-01
  0.393736E-01  0.453087E-01  0.509650E-01  0.559322E-01  0.598153E-01  0.622884E-01
  0.631375E-01  0.622884E-01  0.598153E-01  0.559322E-01  0.509650E-01  0.516038E-01
  0.453087E-01  0.389192E-01  0.328004E-01  0.272156E-01  0.223142E-01  0.181454E-01
  0.146890E-01  0.118868E-01  0.966398E-02  0.793873E-02  0.662971E-02  0.566477E-02
  0.498763E-02  0.455833E-02  0.435055E-02  0.435055E-02  0.455833E-02  0.498763E-02
  0.566477E-02  0.662971E-02  0.793873E-02  0.966398E-02  0.118868E-01  0.146890E-01
  0.181454E-01  0.223142E-01  0.272156E-01  0.328004E-01  0.389192E-01  0.453087E-01
  0.516038E-01  0.573742E-01  0.621793E-01  0.656277E-01  0.674289E-01  0.674289E-01
  0.656277E-01  0.621793E-01  0.573742E-01  0.516038E-01  0.509650E-01  0.442298E-01
  0.375965E-01  0.314030E-01  0.258699E-01  0.211002E-01  0.171035E-01  0.138319E-01
  0.112108E-01  0.915565E-02  0.757943E-02  0.640019E-02  0.554944E-02  0.497644E-02
  0.464661E-02  0.453908E-02  0.464661E-02  0.497644E-02  0.554944E-02  0.640019E-02
  0.757943E-02  0.915565E-02  0.112108E-01  0.138319E-01  0.171035E-01  0.211002E-01
  0.258699E-01  0.314030E-01  0.375965E-01  0.442298E-01  0.509650E-01  0.573742E-01
  0.629905E-01  0.673706E-01  0.701543E-01  0.711089E-01  0.701543E-01  0.673706E-01
  0.629905E-01  0.573742E-01  0.509650E-01  0.491053E-01  0.421678E-01  0.355210E-01
  0.294568E-01  0.241423E-01  0.196318E-01  0.159000E-01  0.128792E-01  0.104851E-01
  0.862824E-02  0.722094E-02  0.618480E-02  0.545812E-02  0.499728E-02  0.477407E-02
  0.477407E-02  0.499728E-02  0.545812E-02  0.618480E-02  0.722094E-02  0.862824E-02
  0.104851E-01  0.128792E-01  0.159000E-01  0.196318E-01  0.241423E-01  0.294568E-01
  0.355210E-01  0.421678E-01  0.491053E-01  0.559322E-01  0.621793E-01  0.673706E-01
  0.710885E-01  0.730275E-01  0.730275E-01  0.710885E-01  0.673706E-01  0.621793E-01
  0.559322E-01  0.491053E-01  0.461868E-01  0.392993E-01  0.328645E-01  0.271147E-01
  0.221590E-01  0.180079E-01  0.146102E-01  0.118869E-01  0.975009E-02  0.811017E-02
  0.688272E-02  0.599679E-02  0.539960E-02  0.505551E-02  0.494323E-02  0.505551E-02
  0.539960E-02  0.599679E-02  0.688272E-02  0.811017E-02  0.975009E-02  0.118869E-01
  0.146102E-01  0.180079E-01  0.221590E-01  0.271147E-01  0.328645E-01  0.392993E-01
  0.461868E-01  0.531738E-01  0.598153E-01  0.656277E-01  0.701543E-01  0.730275E-01
  0.740120E-01  0.730275E-01  0.701543E-01  0.656277E-01  0.598153E-01  0.531738E-01
  0.461868E-01  0.424537E-01  0.358563E-01  0.298307E-01  0.245431E-01  0.200490E-01
  0.163248E-01  0.133044E-01  0.109055E-01  0.904098E-02  0.762478E-02  0.657996E-02
  0.584580E-02  0.537946E-02  0.515332E-02  0.515332E-02  0.537946E-02  0.584580E-02
  0.657996E-02  0.762478E-02  0.904098E-02  0.109055E-01  0.133044E-01  0.163248E-01
  0.200490E-01  0.245431E-01  0.298307E-01  0.358563E-01  0.424537E-01  0.493337E-01
  0.560998E-01  0.622884E-01  0.674289E-01  0.711089E-01  0.730275E-01  0.730275E-01
  0.711089E-01  0.674289E-01  0.622884E-01  0.560998E-01  0.493337E-01  0.424537E-01
  0.381981E-01  0.320930E-01  0.266260E-01  0.219006E-01  0.179289E-01  0.146665E-01
  0.120424E-01  0.997613E-02  0.838449E-02  0.718874E-02  0.632273E-02  0.573743E-02
  0.539960E-02  0.528928E-02  0.539960E-02  0.573743E-02  0.632273E-02  0.718874E-02
  0.838449E-02  0.997613E-02  0.120424E-01  0.146665E-01  0.179289E-01  0.219006E-01
  0.266260E-01  0.320930E-01  0.381981E-01  0.447242E-01  0.513409E-01  0.576306E-01
  0.631375E-01  0.674289E-01  0.701543E-01  0.710885E-01  0.701543E-01  0.674289E-01
  0.631375E-01  0.576306E-01  0.513409E-01  0.447242E-01  0.381981E-01  0.337198E-01
  0.282516E-01  0.234348E-01  0.193208E-01  0.158934E-01  0.130995E-01  0.108697E-01
  0.912794E-02  0.779810E-02  0.681200E-02  0.611628E-02  0.567322E-02  0.545812E-02
  0.545812E-02  0.567322E-02  0.611628E-02  0.681200E-02  0.779810E-02  0.912794E-02
  0.108697E-01  0.130995E-01  0.158934E-01  0.193208E-01  0.234348E-01  0.282516E-01
  0.337198E-01  0.396920E-01  0.459130E-01  0.520307E-01  0.576306E-01  0.622884E-01
  0.656277E-01  0.673706E-01  0.673706E-01  0.656277E-01  0.622884E-01  0.576306E-01
  0.520307E-01  0.459130E-01  0.396920E-01  0.337198E-01  0.292871E-01  0.245344E-01
  0.204015E-01  0.169039E-01  0.140115E-01  0.116705E-01  0.981594E-02  0.837818E-02
  0.729089E-02  0.649892E-02  0.596162E-02  0.565095E-02  0.554944E-02  0.565095E-02
  0.596162E-02  0.649892E-02  0.729089E-02  0.837818E-02  0.981594E-02  0.116705E-01
  0.140115E-01  0.169039E-01  0.204015E-01  0.245344E-01  0.292871E-01  0.345712E-01
  0.402055E-01  0.459130E-01  0.513409E-01  0.560998E-01  0.598153E-01  0.621793E-01
  0.629905E-01  0.621793E-01  0.598153E-01  0.560998E-01  0.513409E-01  0.459130E-01
  0.402055E-01  0.345712E-01  0.292871E-01  0.251089E-01  0.210876E-01  0.176249E-01
  0.147163E-01  0.123274E-01  0.104073E-01  0.889648E-02  0.773381E-02  0.686535E-02
  0.624935E-02  0.585595E-02  0.566477E-02  0.566477E-02  0.585595E-02  0.624935E-02
  0.686535E-02  0.773381E-02  0.889648E-02  0.104073E-01  0.123274E-01  0.147163E-01
  0.176249E-01  0.210876E-01  0.251089E-01  0.296428E-01  0.345712E-01  0.396920E-01
  0.447242E-01  0.493337E-01  0.531738E-01  0.559322E-01  0.573742E-01  0.573742E-01
  0.559322E-01  0.531738E-01  0.493337E-01  0.447242E-01  0.396920E-01  0.345712E-01
  0.296428E-01  0.251089E-01  0.213229E-01  0.180005E-01  0.151622E-01  0.127945E-01
  0.108631E-01  0.932061E-02  0.811422E-02  0.719398E-02  0.651908E-02  0.605933E-02
  0.579302E-02  0.570597E-02  0.579302E-02  0.605933E-02  0.651908E-02  0.719398E-02
  0.811422E-02  0.932061E-02  0.108631E-01  0.127945E-01  0.151622E-01  0.180005E-01
  0.213229E-01  0.251089E-01  0.292871E-01  0.337198E-01  0.381981E-01  0.424537E-01
  0.461868E-01  0.491053E-01  0.509650E-01  0.516038E-01  0.509650E-01  0.491053E-01
  0.461868E-01  0.424537E-01  0.381981E-01  0.337198E-01  0.292871E-01  0.251089E-01
  0.213229E-01  0.206061E-01  0.175410E-01  0.149445E-01  0.127945E-01  0.110535E-01
  0.967365E-02  0.860419E-02  0.779965E-02  0.722561E-02  0.685770E-02  0.667868E-02
  0.667868E-02  0.685770E-02  0.722561E-02  0.779965E-02  0.860419E-02  0.967365E-02
  0.110535E-01  0.127945E-01  0.149445E-01  0.175410E-01  0.206061E-01  0.241357E-01
  0.280818E-01  0.323339E-01  0.367110E-01  0.409702E-01  0.448340E-01  0.480248E-01
  0.503011E-01  0.514858E-01  0.514858E-01  0.503011E-01  0.480248E-01  0.448340E-01
  0.409702E-01  0.367110E-01  0.323339E-01  0.280818E-01  0.241357E-01  0.206061E-01
  0.175410E-01  0.150949E-01  0.130374E-01  0.113462E-01  0.998585E-02  0.891429E-02
  0.809089E-02  0.748316E-02  0.706753E-02  0.682649E-02  0.674772E-02  0.682649E-02
  0.706753E-02  0.748316E-02  0.809089E-02  0.891429E-02  0.998585E-02  0.113462E-01
  0.130374E-01  0.150949E-01  0.175410E-01  0.203796E-01  0.235865E-01  0.270961E-01
  0.307885E-01  0.344873E-01  0.379727E-01  0.410067E-01  0.433637E-01  0.448589E-01
  0.453714E-01  0.448589E-01  0.433637E-01  0.410067E-01  0.379727E-01  0.344873E-01
  0.307885E-01  0.270961E-01  0.235865E-01  0.203796E-01  0.175410E-01  0.149445E-01
  0.130374E-01  0.114463E-01  0.101480E-01  0.910994E-02  0.829803E-02  0.768303E-02
  0.724288E-02  0.696078E-02  0.682365E-02  0.682365E-02  0.696078E-02  0.724288E-02
  0.768303E-02  0.829803E-02  0.910994E-02  0.101480E-01  0.114463E-01  0.130374E-01
  0.149445E-01  0.171756E-01  0.197188E-01  0.225346E-01  0.255469E-01  0.286355E-01
  0.316384E-01  0.343666E-01  0.366262E-01  0.382436E-01  0.390877E-01  0.390877E-01
  0.382436E-01  0.366262E-01  0.343666E-01  0.316384E-01  0.286355E-01  0.255469E-01
  0.225346E-01  0.197188E-01  0.171756E-01  0.149445E-01  0.127945E-01  0.113462E-01
  0.101480E-01  0.917681E-02  0.840569E-02  0.780979E-02  0.736922E-02  0.706820E-02
  0.689386E-02  0.683691E-02  0.689386E-02  0.706820E-02  0.736922E-02  0.780979E-02
  0.840569E-02  0.917681E-02  0.101480E-01  0.113462E-01  0.127945E-01  0.145052E-01
  0.164741E-01  0.186773E-01  0.210656E-01  0.235593E-01  0.260454E-01  0.283834E-01
  0.304189E-01  0.320026E-01  0.330090E-01  0.333544E-01  0.330090E-01  0.320026E-01
  0.304189E-01  0.283834E-01  0.260454E-01  0.235593E-01  0.210656E-01  0.186773E-01
  0.164741E-01  0.145052E-01  0.127945E-01  0.110535E-01  0.998585E-02  0.910994E-02
  0.840569E-02  0.785323E-02  0.743542E-02  0.713765E-02  0.694743E-02  0.685504E-02
  0.685504E-02  0.694743E-02  0.713765E-02  0.743542E-02  0.785323E-02  0.840569E-02
  0.910994E-02  0.998585E-02  0.110535E-01  0.123274E-01  0.138107E-01  0.154904E-01
  0.173348E-01  0.192907E-01  0.212807E-01  0.232048E-01  0.249472E-01  0.263887E-01
  0.274205E-01  0.279593E-01  0.279593E-01  0.274205E-01  0.263887E-01  0.249472E-01
  0.232048E-01  0.212807E-01  0.192907E-01  0.173348E-01  0.154904E-01  0.138107E-01
  0.123274E-01  0.110535E-01  0.967365E-02  0.891429E-02  0.829803E-02  0.780979E-02
  0.743542E-02  0.716169E-02  0.697635E-02  0.686938E-02  0.683443E-02  0.686938E-02
  0.697635E-02  0.716169E-02  0.743542E-02  0.780979E-02  0.829803E-02  0.891429E-02
  0.967365E-02  0.105899E-01  0.116705E-01  0.129118E-01  0.142955E-01  0.157864E-01
  0.173318E-01  0.188616E-01  0.202918E-01  0.215320E-01  0.224947E-01  0.231059E-01
  0.233155E-01  0.231059E-01  0.224947E-01  0.215320E-01  0.202918E-01  0.188616E-01
  0.173318E-01  0.157864E-01  0.142955E-01  0.129118E-01  0.116705E-01  0.105899E-01
  0.967365E-02  0.860419E-02  0.809089E-02  0.768303E-02  0.736922E-02  0.713765E-02
  0.697635E-02  0.687473E-02  0.682557E-02  0.682557E-02  0.687473E-02  0.697635E-02
  0.713765E-02  0.736922E-02  0.768303E-02  0.809089E-02  0.860419E-02  0.923386E-02
  0.998833E-02  0.108697E-01  0.118698E-01  0.129681E-01  0.141299E-01  0.153064E-01
  0.164378E-01  0.174570E-01  0.182967E-01  0.188963E-01  0.192089E-01  0.192089E-01
  0.188963E-01  0.182967E-01  0.174570E-01  0.164378E-01  0.153064E-01  0.141299E-01
  0.129681E-01  0.118698E-01  0.108697E-01  0.998833E-02  0.923386E-02  0.860419E-02
  0.779965E-02  0.748316E-02  0.724288E-02  0.706820E-02  0.694743E-02  0.686938E-02
  0.682557E-02  0.681141E-02  0.682557E-02  0.686938E-02  0.694743E-02  0.706820E-02
  0.724288E-02  0.748316E-02  0.779965E-02  0.820161E-02  0.869654E-02  0.928862E-02
  0.997613E-02  0.107489E-01  0.115863E-01  0.124563E-01  0.133168E-01  0.141192E-01
  0.148127E-01  0.153496E-01  0.156899E-01  0.158065E-01  0.156899E-01  0.153496E-01
  0.148127E-01  0.141192E-01  0.133168E-01  0.124563E-01  0.115863E-01  0.107489E-01
  0.997613E-02  0.928862E-02  0.869654E-02  0.820161E-02  0.779965E-02  0.722561E-02
  0.706753E-02  0.696078E-02  0.689386E-02  0.685504E-02  0.683443E-02  0.682557E-02
  0.682557E-02  0.683443E-02  0.685504E-02  0.689386E-02  0.696078E-02  0.706753E-02
  0.722561E-02  0.744496E-02  0.773329E-02  0.809547E-02  0.853268E-02  0.904098E-02
  0.960958E-02  0.102192E-01  0.108418E-01  0.114431E-01  0.119857E-01  0.124328E-01
  0.127520E-01  0.129185E-01  0.129185E-01  0.127520E-01  0.124328E-01  0.119857E-01
  0.114431E-01  0.108418E-01  0.102192E-01  0.960958E-02  0.904098E-02  0.853268E-02
  0.809547E-02  0.773329E-02  0.744496E-02  0.722561E-02  0.685770E-02  0.682649E-02
  0.682365E-02  0.683691E-02  0.685504E-02  0.686938E-02  0.687473E-02  0.686938E-02
  0.685504E-02  0.683691E-02  0.682365E-02  0.682649E-02  0.685770E-02  0.692898E-02
  0.705002E-02  0.722746E-02  0.746443E-02  0.776033E-02  0.811017E-02  0.850324E-02
  0.892219E-02  0.934379E-02  0.974131E-02  0.100874E-01  0.103566E-01  0.105277E-01
  0.105865E-01  0.105277E-01  0.103566E-01  0.100874E-01  0.974131E-02  0.934379E-02
  0.892219E-02  0.850324E-02  0.811017E-02  0.776033E-02  0.746443E-02  0.722746E-02
  0.705002E-02  0.692898E-02  0.685770E-02  0.667868E-02  0.674772E-02  0.682365E-02
  0.689386E-02  0.694743E-02  0.697635E-02  0.697635E-02  0.694743E-02  0.689386E-02
  0.682365E-02  0.674772E-02  0.667868E-02  0.662971E-02  0.661297E-02  0.663810E-02
  0.671112E-02  0.683422E-02  0.700599E-02  0.722094E-02  0.746879E-02  0.773443E-02
  0.799931E-02  0.824357E-02  0.844791E-02  0.859524E-02  0.867249E-02  0.867249E-02
  0.859524E-02  0.844791E-02  0.824357E-02  0.799931E-02  0.773443E-02  0.746879E-02
  0.722094E-02  0.700599E-02  0.683422E-02  0.671112E-02  0.663810E-02  0.661297E-02
  0.662971E-02  0.667868E-02  0.667868E-02  0.682649E-02  0.696078E-02  0.706820E-02
  0.713765E-02  0.716169E-02  0.713765E-02  0.706820E-02  0.696078E-02  0.682649E-02
  0.667868E-02  0.653180E-02  0.640019E-02  0.629659E-02  0.623062E-02  0.620801E-02
  0.623062E-02  0.629659E-02  0.640019E-02  0.653180E-02  0.667868E-02  0.682649E-02
  0.696078E-02  0.706820E-02  0.713765E-02  0.716169E-02  0.713765E-02  0.706820E-02
  0.696078E-02  0.682649E-02  0.667868E-02  0.653180E-02  0.640019E-02  0.629659E-02
  0.623062E-02  0.620801E-02  0.623062E-02  0.629659E-02  0.640019E-02  0.653180E-02
  0.667868E-02  0.685770E-02  0.706753E-02  0.724288E-02  0.736922E-02  0.743542E-02
  0.743542E-02  0.736922E-02  0.724288E-02  0.706753E-02  0.685770E-02  0.662971E-02
  0.640019E-02  0.618480E-02  0.599679E-02  0.584580E-02  0.573743E-02  0.567322E-02
  0.565095E-02  0.566477E-02  0.570597E-02  0.576403E-02  0.582799E-02  0.588733E-02
  0.593285E-02  0.595753E-02  0.595753E-02  0.593285E-02  0.588733E-02  0.582799E-02
  0.576403E-02  0.570597E-02  0.566477E-02  0.565095E-02  0.567322E-02  0.573743E-02
  0.584580E-02  0.599679E-02  0.618480E-02  0.640019E-02  0.662971E-02  0.685770E-02
  0.722561E-02  0.748316E-02  0.768303E-02  0.780979E-02  0.785323E-02  0.780979E-02
  0.768303E-02  0.748316E-02  0.722561E-02  0.692898E-02  0.661297E-02  0.629659E-02
  0.599679E-02  0.572729E-02  0.549772E-02  0.531333E-02  0.517513E-02  0.508035E-02
  0.502318E-02  0.499581E-02  0.498963E-02  0.499615E-02  0.500756E-02  0.501737E-02
  0.502117E-02  0.501737E-02  0.500756E-02  0.499615E-02  0.498963E-02  0.499581E-02
  0.502318E-02  0.508035E-02  0.517513E-02  0.531333E-02  0.549772E-02  0.572729E-02
  0.599679E-02  0.629659E-02  0.661297E-02  0.692898E-02  0.722561E-02  0.779965E-02
  0.809089E-02  0.829803E-02  0.840569E-02  0.840569E-02  0.829803E-02  0.809089E-02
  0.779965E-02  0.744496E-02  0.705002E-02  0.663810E-02  0.623062E-02  0.584580E-02
  0.549772E-02  0.519568E-02  0.494418E-02  0.474335E-02  0.458974E-02  0.447748E-02
  0.439951E-02  0.434865E-02  0.431811E-02  0.430185E-02  0.429508E-02  0.429508E-02
  0.430185E-02  0.431811E-02  0.434865E-02  0.439951E-02  0.447748E-02  0.458974E-02
  0.474335E-02  0.494418E-02  0.519568E-02  0.549772E-02  0.584580E-02  0.623062E-02
  0.663810E-02  0.705002E-02  0.744496E-02  0.779965E-02  0.860419E-02  0.891429E-02
  0.910994E-02  0.917681E-02  0.910994E-02  0.891429E-02  0.860419E-02  0.820161E-02
  0.773329E-02  0.722746E-02  0.671112E-02  0.620801E-02  0.573743E-02  0.531333E-02
  0.494418E-02  0.463331E-02  0.437965E-02  0.417890E-02  0.402493E-02  0.391111E-02
  0.383112E-02  0.377924E-02  0.375052E-02  0.374139E-02  0.375052E-02  0.377924E-02
  0.383112E-02  0.391111E-02  0.402493E-02  0.417890E-02  0.437965E-02  0.463331E-02
  0.494418E-02  0.531333E-02  0.573743E-02  0.620801E-02  0.671112E-02  0.722746E-02
  0.773329E-02  0.820161E-02  0.860419E-02  0.967365E-02  0.998585E-02  0.101480E-01
  0.101480E-01  0.998585E-02  0.967365E-02  0.923386E-02  0.869654E-02  0.809547E-02
  0.746443E-02  0.683422E-02  0.623062E-02  0.567322E-02  0.517513E-02  0.474335E-02
  0.437965E-02  0.408154E-02  0.384367E-02  0.365935E-02  0.352190E-02  0.342534E-02
  0.336450E-02  0.333527E-02  0.333527E-02  0.336450E-02  0.342534E-02  0.352190E-02
  0.365935E-02  0.384367E-02  0.408154E-02  0.437965E-02  0.474335E-02  0.517513E-02
  0.567322E-02  0.623062E-02  0.683422E-02  0.746443E-02  0.809547E-02  0.869654E-02
  0.923386E-02  0.967365E-02  0.110535E-01  0.113462E-01  0.114463E-01  0.113462E-01
  0.110535E-01  0.105899E-01  0.998833E-02  0.928862E-02  0.853268E-02  0.776033E-02
  0.700599E-02  0.629659E-02  0.565095E-02  0.508035E-02  0.458974E-02  0.417890E-02
  0.384367E-02  0.357738E-02  0.337241E-02  0.322159E-02  0.311879E-02  0.305923E-02
  0.303974E-02  0.305923E-02  0.311879E-02  0.322159E-02  0.337241E-02  0.357738E-02
  0.384367E-02  0.417890E-02  0.458974E-02  0.508035E-02  0.565095E-02  0.629659E-02
  0.700599E-02  0.776033E-02  0.853268E-02  0.928862E-02  0.998833E-02  0.105899E-01
  0.110535E-01  0.127945E-01  0.130374E-01  0.130374E-01  0.127945E-01  0.123274E-01
  0.116705E-01  0.108697E-01  0.997613E-02  0.904098E-02  0.811017E-02  0.722094E-02
  0.640019E-02  0.566477E-02  0.502318E-02  0.447748E-02  0.402493E-02  0.365935E-02
  0.337241E-02  0.315524E-02  0.299975E-02  0.289958E-02  0.285053E-02  0.285053E-02
  0.289958E-02  0.299975E-02  0.315524E-02  0.337241E-02  0.365935E-02  0.402493E-02
  0.447748E-02  0.502318E-02  0.566477E-02  0.640019E-02  0.722094E-02  0.811017E-02
  0.904098E-02  0.997613E-02  0.108697E-01  0.116705E-01  0.123274E-01  0.127945E-01
  0.149445E-01  0.150949E-01  0.149445E-01  0.145052E-01  0.138107E-01  0.129118E-01
  0.118698E-01  0.107489E-01  0.960958E-02  0.850324E-02  0.746879E-02  0.653180E-02
  0.570597E-02  0.499581E-02  0.439951E-02  0.391111E-02  0.352190E-02  0.322159E-02
  0.299975E-02  0.284741E-02  0.275826E-02  0.272889E-02  0.275826E-02  0.284741E-02
  0.299975E-02  0.322159E-02  0.352190E-02  0.391111E-02  0.439951E-02  0.499581E-02
  0.570597E-02  0.653180E-02  0.746879E-02  0.850324E-02  0.960958E-02  0.107489E-01
  0.118698E-01  0.129118E-01  0.138107E-01  0.145052E-01  0.149445E-01  0.175410E-01
  0.175410E-01  0.171756E-01  0.164741E-01  0.154904E-01  0.142955E-01  0.129681E-01
  0.115863E-01  0.102192E-01  0.892219E-02  0.773443E-02  0.667868E-02  0.576403E-02
  0.498963E-02  0.434865E-02  0.383112E-02  0.342534E-02  0.311879E-02  0.289958E-02
  0.275826E-02  0.268891E-02  0.268891E-02  0.275826E-02  0.289958E-02  0.311879E-02
  0.342534E-02  0.383112E-02  0.434865E-02  0.498963E-02  0.576403E-02  0.667868E-02
  0.773443E-02  0.892219E-02  0.102192E-01  0.115863E-01  0.129681E-01  0.142955E-01
  0.154904E-01  0.164741E-01  0.171756E-01  0.175410E-01  0.206061E-01  0.203796E-01
  0.197188E-01  0.186773E-01  0.173348E-01  0.157864E-01  0.141299E-01  0.124563E-01
  0.108418E-01  0.934379E-02  0.799931E-02  0.682649E-02  0.582799E-02  0.499615E-02
  0.431811E-02  0.377924E-02  0.336450E-02  0.305923E-02  0.285053E-02  0.272889E-02
  0.268891E-02  0.272889E-02  0.285053E-02  0.305923E-02  0.336450E-02  0.377924E-02
  0.431811E-02  0.499615E-02  0.582799E-02  0.682649E-02  0.799931E-02  0.934379E-02
  0.108418E-01  0.124563E-01  0.141299E-01  0.157864E-01  0.173348E-01  0.186773E-01
  0.197188E-01  0.203796E-01  0.206061E-01  0.241357E-01  0.235865E-01  0.225346E-01
  0.210656E-01  0.192907E-01  0.173318E-01  0.153064E-01  0.133168E-01  0.114431E-01
  0.974131E-02  0.824357E-02  0.696078E-02  0.588733E-02  0.500756E-02  0.430185E-02
  0.375052E-02  0.333527E-02  0.303974E-02  0.285053E-02  0.275826E-02  0.275826E-02
  0.285053E-02  0.303974E-02  0.333527E-02  0.375052E-02  0.430185E-02  0.500756E-02
  0.588733E-02  0.696078E-02  0.824357E-02  0.974131E-02  0.114431E-01  0.133168E-01
  0.153064E-01  0.173318E-01  0.192907E-01  0.210656E-01  0.225346E-01  0.235865E-01
  0.241357E-01  0.241357E-01  0.280818E-01  0.270961E-01  0.255469E-01  0.235593E-01
  0.212807E-01  0.188616E-01  0.164378E-01  0.141192E-01  0.119857E-01  0.100874E-01
  0.844791E-02  0.706820E-02  0.593285E-02  0.501737E-02  0.429508E-02  0.374139E-02
  0.333527E-02  0.305923E-02  0.289958E-02  0.284741E-02  0.289958E-02  0.305923E-02
  0.333527E-02  0.374139E-02  0.429508E-02  0.501737E-02  0.593285E-02  0.706820E-02
  0.844791E-02  0.100874E-01  0.119857E-01  0.141192E-01  0.164378E-01  0.188616E-01
  0.212807E-01  0.235593E-01  0.255469E-01  0.270961E-01  0.280818E-01  0.284202E-01
  0.280818E-01  0.323339E-01  0.307885E-01  0.286355E-01  0.260454E-01  0.232048E-01
  0.202918E-01  0.174570E-01  0.148127E-01  0.124328E-01  0.103566E-01  0.859524E-02
  0.713765E-02  0.595753E-02  0.502117E-02  0.429508E-02  0.375052E-02  0.336450E-02
  0.311879E-02  0.299975E-02  0.299975E-02  0.311879E-02  0.336450E-02  0.375052E-02
  0.429508E-02  0.502117E-02  0.595753E-02  0.713765E-02  0.859524E-02  0.103566E-01
  0.124328E-01  0.148127E-01  0.174570E-01  0.202918E-01  0.232048E-01  0.260454E-01
  0.286355E-01  0.307885E-01  0.323339E-01  0.331418E-01  0.331418E-01  0.323339E-01
  0.367110E-01  0.344873E-01  0.316384E-01  0.283834E-01  0.249472E-01  0.215320E-01
  0.182967E-01  0.153496E-01  0.127520E-01  0.105277E-01  0.867249E-02  0.716169E-02
  0.595753E-02  0.501737E-02  0.430185E-02  0.377924E-02  0.342534E-02  0.322159E-02
  0.315524E-02  0.322159E-02  0.342534E-02  0.377924E-02  0.430185E-02  0.501737E-02
  0.595753E-02  0.716169E-02  0.867249E-02  0.105277E-01  0.127520E-01  0.153496E-01
  0.182967E-01  0.215320E-01  0.249472E-01  0.283834E-01  0.316384E-01  0.344873E-01
  0.367110E-01  0.381263E-01  0.386122E-01  0.381263E-01  0.367110E-01  0.409702E-01
  0.379727E-01  0.343666E-01  0.304189E-01  0.263887E-01  0.224947E-01  0.188963E-01
  0.156899E-01  0.129185E-01  0.105865E-01  0.867249E-02  0.713765E-02  0.593285E-02
  0.500756E-02  0.431811E-02  0.383112E-02  0.352190E-02  0.337241E-02  0.337241E-02
  0.352190E-02  0.383112E-02  0.431811E-02  0.500756E-02  0.593285E-02  0.713765E-02
  0.867249E-02  0.105865E-01  0.129185E-01  0.156899E-01  0.188963E-01  0.224947E-01
  0.263887E-01  0.304189E-01  0.343666E-01  0.379727E-01  0.409702E-01  0.431199E-01
  0.442425E-01  0.442425E-01  0.431199E-01  0.409702E-01  0.448340E-01  0.410067E-01
  0.366262E-01  0.320026E-01  0.274205E-01  0.231059E-01  0.192089E-01  0.158065E-01
  0.129185E-01  0.105277E-01  0.859524E-02  0.706820E-02  0.588733E-02  0.499615E-02
  0.434865E-02  0.391111E-02  0.365935E-02  0.357738E-02  0.365935E-02  0.391111E-02
  0.434865E-02  0.499615E-02  0.588733E-02  0.706820E-02  0.859524E-02  0.105277E-01
  0.129185E-01  0.158065E-01  0.192089E-01  0.231059E-01  0.274205E-01  0.320026E-01
  0.366262E-01  0.410067E-01  0.448340E-01  0.478136E-01  0.497055E-01  0.503541E-01
  0.497055E-01  0.478136E-01  0.448340E-01  0.480248E-01  0.433637E-01  0.382436E-01
  0.330090E-01  0.279593E-01  0.233155E-01  0.192089E-01  0.156899E-01  0.127520E-01
  0.103566E-01  0.844791E-02  0.696078E-02  0.582799E-02  0.498963E-02  0.439951E-02
  0.402493E-02  0.384367E-02  0.384367E-02  0.402493E-02  0.439951E-02  0.498963E-02
  0.582799E-02  0.696078E-02  0.844791E-02  0.103566E-01  0.127520E-01  0.156899E-01
  0.192089E-01  0.233155E-01  0.279593E-01  0.330090E-01  0.382436E-01  0.433637E-01
  0.480248E-01  0.518822E-01  0.546367E-01  0.560707E-01  0.560707E-01  0.546367E-01
  0.518822E-01  0.480248E-01  0.503011E-01  0.448589E-01  0.390877E-01  0.333544E-01
  0.279593E-01  0.231059E-01  0.188963E-01  0.153496E-01  0.124328E-01  0.100874E-01
  0.824357E-02  0.682649E-02  0.576403E-02  0.499581E-02  0.447748E-02  0.417890E-02
  0.408154E-02  0.417890E-02  0.447748E-02  0.499581E-02  0.576403E-02  0.682649E-02
  0.824357E-02  0.100874E-01  0.124328E-01  0.153496E-01  0.188963E-01  0.231059E-01
  0.279593E-01  0.333544E-01  0.390877E-01  0.448589E-01  0.503011E-01  0.550273E-01
  0.586834E-01  0.609927E-01  0.617819E-01  0.609927E-01  0.586834E-01  0.550273E-01
  0.503011E-01  0.514858E-01  0.453714E-01  0.390877E-01  0.330090E-01  0.274205E-01
  0.224947E-01  0.182967E-01  0.148127E-01  0.119857E-01  0.974131E-02  0.799931E-02
  0.667868E-02  0.570597E-02  0.502318E-02  0.458974E-02  0.437965E-02  0.437965E-02
  0.458974E-02  0.502318E-02  0.570597E-02  0.667868E-02  0.799931E-02  0.974131E-02
  0.119857E-01  0.148127E-01  0.182967E-01  0.224947E-01  0.274205E-01  0.330090E-01
  0.390877E-01  0.453714E-01  0.514858E-01  0.570135E-01  0.615519E-01  0.647684E-01
  0.664337E-01  0.664337E-01  0.647684E-01  0.615519E-01  0.570135E-01  0.514858E-01
  0.514858E-01  0.448589E-01  0.382436E-01  0.320026E-01  0.263887E-01  0.215320E-01
  0.174570E-01  0.141192E-01  0.114431E-01  0.934379E-02  0.773443E-02  0.653180E-02
  0.566477E-02  0.508035E-02  0.474335E-02  0.463331E-02  0.474335E-02  0.508035E-02
  0.566477E-02  0.653180E-02  0.773443E-02  0.934379E-02  0.114431E-01  0.141192E-01
  0.174570E-01  0.215320E-01  0.263887E-01  0.320026E-01  0.382436E-01  0.448589E-01
  0.514858E-01  0.576924E-01  0.630377E-01  0.671365E-01  0.697057E-01  0.705799E-01
  0.697057E-01  0.671365E-01  0.630377E-01  0.576924E-01  0.514858E-01  0.503011E-01
  0.433637E-01  0.366262E-01  0.304189E-01  0.249472E-01  0.202918E-01  0.164378E-01
  0.133168E-01  0.108418E-01  0.892219E-02  0.746879E-02  0.640019E-02  0.565095E-02
  0.517513E-02  0.494418E-02  0.494418E-02  0.517513E-02  0.565095E-02  0.640019E-02
  0.746879E-02  0.892219E-02  0.108418E-01  0.133168E-01  0.164378E-01  0.202918E-01
  0.249472E-01  0.304189E-01  0.366262E-01  0.433637E-01  0.503011E-01  0.570135E-01
  0.630377E-01  0.679426E-01  0.713906E-01  0.731649E-01  0.731649E-01  0.713906E-01
  0.679426E-01  0.630377E-01  0.570135E-01  0.503011E-01  0.480248E-01  0.410067E-01
  0.343666E-01  0.283834E-01  0.232048E-01  0.188616E-01  0.153064E-01  0.124563E-01
  0.102192E-01  0.850324E-02  0.722094E-02  0.629659E-02  0.567322E-02  0.531333E-02
  0.519568E-02  0.531333E-02  0.567322E-02  0.629659E-02  0.722094E-02  0.850324E-02
  0.102192E-01  0.124563E-01  0.153064E-01  0.188616E-01  0.232048E-01  0.283834E-01
  0.343666E-01  0.410067E-01  0.480248E-01  0.550273E-01  0.615519E-01  0.671365E-01
  0.713906E-01  0.740416E-01  0.749405E-01  0.740416E-01  0.713906E-01  0.671365E-01
  0.615519E-01  0.550273E-01  0.480248E-01  0.448340E-01  0.379727E-01  0.316384E-01
  0.260454E-01  0.212807E-01  0.173318E-01  0.141299E-01  0.115863E-01  0.960958E-02
  0.811017E-02  0.700599E-02  0.623062E-02  0.573743E-02  0.549772E-02  0.549772E-02
  0.573743E-02  0.623062E-02  0.700599E-02  0.811017E-02  0.960958E-02  0.115863E-01
  0.141299E-01  0.173318E-01  0.212807E-01  0.260454E-01  0.316384E-01  0.379727E-01
  0.448340E-01  0.518822E-01  0.586834E-01  0.647684E-01  0.697057E-01  0.731649E-01
  0.749405E-01  0.749405E-01  0.731649E-01  0.697057E-01  0.647684E-01  0.586834E-01
  0.518822E-01  0.448340E-01  0.409702E-01  0.344873E-01  0.286355E-01  0.235593E-01
  0.192907E-01  0.157864E-01  0.129681E-01  0.107489E-01  0.904098E-02  0.776033E-02
  0.683422E-02  0.620801E-02  0.584580E-02  0.572729E-02  0.584580E-02  0.620801E-02
  0.683422E-02  0.776033E-02  0.904098E-02  0.107489E-01  0.129681E-01  0.157864E-01
  0.192907E-01  0.235593E-01  0.286355E-01  0.344873E-01  0.409702E-01  0.478136E-01
  0.546367E-01  0.609927E-01  0.664337E-01  0.705799E-01  0.731649E-01  0.740416E-01
  0.731649E-01  0.705799E-01  0.664337E-01  0.609927E-01  0.546367E-01  0.478136E-01
  0.409702E-01  0.367110E-01  0.307885E-01  0.255469E-01  0.210656E-01  0.173348E-01
  0.142955E-01  0.118698E-01  0.997613E-02  0.853268E-02  0.746443E-02  0.671112E-02
  0.623062E-02  0.599679E-02  0.599679E-02  0.623062E-02  0.671112E-02  0.746443E-02
  0.853268E-02  0.997613E-02  0.118698E-01  0.142955E-01  0.173348E-01  0.210656E-01
  0.255469E-01  0.307885E-01  0.367110E-01  0.431199E-01  0.497055E-01  0.560707E-01
  0.617819E-01  0.664337E-01  0.697057E-01  0.713906E-01  0.713906E-01  0.697057E-01
  0.664337E-01  0.617819E-01  0.560707E-01  0.497055E-01  0.431199E-01  0.367110E-01
  0.323339E-01  0.270961E-01  0.225346E-01  0.186773E-01  0.154904E-01  0.129118E-01
  0.108697E-01  0.928862E-02  0.809547E-02  0.722746E-02  0.663810E-02  0.629659E-02
  0.618480E-02  0.629659E-02  0.663810E-02  0.722746E-02  0.809547E-02  0.928862E-02
  0.108697E-01  0.129118E-01  0.154904E-01  0.186773E-01  0.225346E-01  0.270961E-01
  0.323339E-01  0.381263E-01  0.442425E-01  0.503541E-01  0.560707E-01  0.609927E-01
  0.647684E-01  0.671365E-01  0.679426E-01  0.671365E-01  0.647684E-01  0.609927E-01
  0.560707E-01  0.503541E-01  0.442425E-01  0.381263E-01  0.323339E-01  0.280818E-01
  0.235865E-01  0.197188E-01  0.164741E-01  0.138107E-01  0.116705E-01  0.998833E-02
  0.869654E-02  0.773329E-02  0.705002E-02  0.661297E-02  0.640019E-02  0.640019E-02
  0.661297E-02  0.705002E-02  0.773329E-02  0.869654E-02  0.998833E-02  0.116705E-01
  0.138107E-01  0.164741E-01  0.197188E-01  0.235865E-01  0.280818E-01  0.331418E-01
  0.386122E-01  0.442425E-01  0.497055E-01  0.546367E-01  0.586834E-01  0.615519E-01
  0.630377E-01  0.630377E-01  0.615519E-01  0.586834E-01  0.546367E-01  0.497055E-01
  0.442425E-01  0.386122E-01  0.331418E-01  0.280818E-01  0.241357E-01  0.203796E-01
  0.171756E-01  0.145052E-01  0.123274E-01  0.105899E-01  0.923386E-02  0.820161E-02
  0.744496E-02  0.692898E-02  0.662971E-02  0.653180E-02  0.662971E-02  0.692898E-02
  0.744496E-02  0.820161E-02  0.923386E-02  0.105899E-01  0.123274E-01  0.145052E-01
  0.171756E-01  0.203796E-01  0.241357E-01  0.284202E-01  0.331418E-01  0.381263E-01
  0.431199E-01  0.478136E-01  0.518822E-01  0.550273E-01  0.570135E-01  0.576924E-01
  0.570135E-01  0.550273E-01  0.518822E-01  0.478136E-01  0.431199E-01  0.381263E-01
  0.331418E-01  0.284202E-01  0.241357E-01  0.206061E-01  0.175410E-01  0.149445E-01
  0.127945E-01  0.110535E-01  0.967365E-02  0.860419E-02  0.779965E-02  0.722561E-02
  0.685770E-02  0.667868E-02  0.667868E-02  0.685770E-02  0.722561E-02  0.779965E-02
  0.860419E-02  0.967365E-02  0.110535E-01  0.127945E-01  0.149445E-01  0.175410E-01
  0.206061E-01  0.241357E-01  0.280818E-01  0.323339E-01  0.367110E-01  0.409702E-01
  0.448340E-01  0.480248E-01  0.503011E-01  0.514858E-01  0.514858E-01  0.503011E-01
  0.480248E-01  0.448340E-01  0.409702E-01  0.367110E-01  0.323339E-01  0.280818E-01
  0.241357E-01  0.206061E-01  0.203709E-01  0.175410E-01  0.151622E-01  0.132064E-01
  0.116342E-01  0.103987E-01  0.945202E-02  0.875431E-02  0.827676E-02  0.799931E-02
  0.790852E-02  0.799931E-02  0.827676E-02  0.875431E-02  0.945202E-02  0.103987E-01
  0.116342E-01  0.132064E-01  0.151622E-01  0.175410E-01  0.203709E-01  0.236600E-01
  0.273783E-01  0.314366E-01  0.356751E-01  0.398713E-01  0.437665E-01  0.471020E-01
  0.496528E-01  0.512508E-01  0.517947E-01  0.512508E-01  0.496528E-01  0.471020E-01
  0.437665E-01  0.398713E-01  0.356751E-01  0.314366E-01  0.273783E-01  0.236600E-01
  0.203709E-01  0.175410E-01  0.153148E-01  0.134571E-01  0.119423E-01  0.107344E-01
  0.979274E-02  0.908068E-02  0.857080E-02  0.824357E-02  0.808439E-02  0.808439E-02
  0.824357E-02  0.857080E-02  0.908068E-02  0.979274E-02  0.107344E-01  0.119423E-01
  0.134571E-01  0.153148E-01  0.175410E-01  0.201472E-01  0.231230E-01  0.264215E-01
  0.299446E-01  0.335376E-01  0.370004E-01  0.401117E-01  0.426591E-01  0.444640E-01
  0.453993E-01  0.453993E-01  0.444640E-01  0.426591E-01  0.401117E-01  0.370004E-01
  0.335376E-01  0.299446E-01  0.264215E-01  0.231230E-01  0.201472E-01  0.175410E-01
  0.151622E-01  0.134571E-01  0.120477E-01  0.109088E-01  0.100079E-01  0.931329E-02
  0.879944E-02  0.844791E-02  0.824434E-02  0.817790E-02  0.824434E-02  0.844791E-02
  0.879944E-02  0.931329E-02  0.100079E-01  0.109088E-01  0.120477E-01  0.134571E-01
  0.151622E-01  0.171756E-01  0.194946E-01  0.220940E-01  0.249165E-01  0.278629E-01
  0.307916E-01  0.335305E-01  0.358980E-01  0.377266E-01  0.388818E-01  0.392769E-01
  0.388818E-01  0.377266E-01  0.358980E-01  0.335305E-01  0.307916E-01  0.278629E-01
  0.249165E-01  0.220940E-01  0.194946E-01  0.171756E-01  0.151622E-01  0.132064E-01
  0.119423E-01  0.109088E-01  0.100815E-01  0.943437E-02  0.894473E-02  0.859524E-02
  0.837211E-02  0.826403E-02  0.826403E-02  0.837211E-02  0.859524E-02  0.894473E-02
  0.943437E-02  0.100815E-01  0.109088E-01  0.119423E-01  0.132064E-01  0.147163E-01
  0.164741E-01  0.184657E-01  0.206562E-01  0.229837E-01  0.253543E-01  0.276449E-01
  0.297139E-01  0.314191E-01  0.326350E-01  0.332681E-01  0.332681E-01  0.326350E-01
  0.314191E-01  0.297139E-01  0.276449E-01  0.253543E-01  0.229837E-01  0.206562E-01
  0.184657E-01  0.164741E-01  0.147163E-01  0.132064E-01  0.116342E-01  0.107344E-01
  0.100079E-01  0.943437E-02  0.899459E-02  0.867249E-02  0.845454E-02  0.832931E-02
  0.828859E-02  0.832931E-02  0.845454E-02  0.867249E-02  0.899459E-02  0.943437E-02
  0.100079E-01  0.107344E-01  0.116342E-01  0.127241E-01  0.140115E-01  0.154904E-01
  0.171392E-01  0.189181E-01  0.207659E-01  0.225987E-01  0.243140E-01  0.258010E-01
  0.269537E-01  0.276844E-01  0.279348E-01  0.276844E-01  0.269537E-01  0.258010E-01
  0.243140E-01  0.225987E-01  0.207659E-01  0.189181E-01  0.171392E-01  0.154904E-01
  0.140115E-01  0.127241E-01  0.116342E-01  0.103987E-01  0.979274E-02  0.931329E-02
  0.894473E-02  0.867249E-02  0.848302E-02  0.836431E-02  0.830734E-02  0.830734E-02
  0.836431E-02  0.848302E-02  0.867249E-02  0.894473E-02  0.931329E-02  0.979274E-02
  0.103987E-01  0.111462E-01  0.120460E-01  0.130995E-01  0.142955E-01  0.156087E-01
  0.169990E-01  0.184095E-01  0.197689E-01  0.209958E-01  0.220076E-01  0.227299E-01
  0.231063E-01  0.231063E-01  0.227299E-01  0.220076E-01  0.209958E-01  0.197689E-01
  0.184095E-01  0.169990E-01  0.156087E-01  0.142955E-01  0.130995E-01  0.120460E-01
  0.111462E-01  0.103987E-01  0.945202E-02  0.908068E-02  0.879944E-02  0.859524E-02
  0.845454E-02  0.836431E-02  0.831421E-02  0.829815E-02  0.831421E-02  0.836431E-02
  0.845454E-02  0.859524E-02  0.879944E-02  0.908068E-02  0.945202E-02  0.992596E-02
  0.105132E-01  0.112196E-01  0.120424E-01  0.129681E-01  0.139713E-01  0.150140E-01
  0.160469E-01  0.170118E-01  0.178470E-01  0.184939E-01  0.189039E-01  0.190444E-01
  0.189039E-01  0.184939E-01  0.178470E-01  0.170118E-01  0.160469E-01  0.150140E-01
  0.139713E-01  0.129681E-01  0.120424E-01  0.112196E-01  0.105132E-01  0.992596E-02
  0.945202E-02  0.875431E-02  0.857080E-02  0.844791E-02  0.837211E-02  0.832931E-02
  0.830734E-02  0.829815E-02  0.829815E-02  0.830734E-02  0.832931E-02  0.837211E-02
  0.844791E-02  0.857080E-02  0.875431E-02  0.901037E-02  0.934907E-02  0.977755E-02
  0.102980E-01  0.109055E-01  0.115863E-01  0.123167E-01  0.130634E-01  0.137853E-01
  0.144373E-01  0.149749E-01  0.153585E-01  0.155583E-01  0.155583E-01  0.153585E-01
  0.149749E-01  0.144373E-01  0.137853E-01  0.130634E-01  0.123167E-01  0.115863E-01
  0.109055E-01  0.102980E-01  0.977755E-02  0.934907E-02  0.901037E-02  0.875431E-02
  0.827676E-02  0.824357E-02  0.824434E-02  0.826403E-02  0.828859E-02  0.830734E-02
  0.831421E-02  0.830734E-02  0.828859E-02  0.826403E-02  0.824434E-02  0.824357E-02
  0.827676E-02  0.835765E-02  0.849757E-02  0.870471E-02  0.898353E-02  0.933392E-02
  0.975009E-02  0.102192E-01  0.107203E-01  0.112255E-01  0.117025E-01  0.121178E-01
  0.124406E-01  0.126455E-01  0.127157E-01  0.126455E-01  0.124406E-01  0.121178E-01
  0.117025E-01  0.112255E-01  0.107203E-01  0.102192E-01  0.975009E-02  0.933392E-02
  0.898353E-02  0.870471E-02  0.849757E-02  0.835765E-02  0.827676E-02  0.799931E-02
  0.808439E-02  0.817790E-02  0.826403E-02  0.832931E-02  0.836431E-02  0.836431E-02
  0.832931E-02  0.826403E-02  0.817790E-02  0.808439E-02  0.799931E-02  0.793873E-02
  0.791693E-02  0.794486E-02  0.802931E-02  0.817299E-02  0.837460E-02  0.862824E-02
  0.892219E-02  0.923869E-02  0.955532E-02  0.984773E-02  0.100922E-01  0.102683E-01
  0.103604E-01  0.103604E-01  0.102683E-01  0.100922E-01  0.984773E-02  0.955532E-02
  0.923869E-02  0.892219E-02  0.862824E-02  0.837460E-02  0.817299E-02  0.802931E-02
  0.794486E-02  0.791693E-02  0.793873E-02  0.799931E-02  0.790852E-02  0.808439E-02
  0.824434E-02  0.837211E-02  0.845454E-02  0.848302E-02  0.845454E-02  0.837211E-02
  0.824434E-02  0.808439E-02  0.790852E-02  0.773443E-02  0.757943E-02  0.745836E-02
  0.738181E-02  0.735570E-02  0.738181E-02  0.745836E-02  0.757943E-02  0.773443E-02
  0.790852E-02  0.808439E-02  0.824434E-02  0.837211E-02  0.845454E-02  0.848302E-02
  0.845454E-02  0.837211E-02  0.824434E-02  0.808439E-02  0.790852E-02  0.773443E-02
  0.757943E-02  0.745836E-02  0.738181E-02  0.735570E-02  0.738181E-02  0.745836E-02
  0.757943E-02  0.773443E-02  0.790852E-02  0.799931E-02  0.824357E-02  0.844791E-02
  0.859524E-02  0.867249E-02  0.867249E-02  0.859524E-02  0.844791E-02  0.824357E-02
  0.799931E-02  0.773443E-02  0.746879E-02  0.722094E-02  0.700599E-02  0.683422E-02
  0.671112E-02  0.663810E-02  0.661297E-02  0.662971E-02  0.667868E-02  0.674772E-02
  0.682365E-02  0.689386E-02  0.694743E-02  0.697635E-02  0.697635E-02  0.694743E-02
  0.689386E-02  0.682365E-02  0.674772E-02  0.667868E-02  0.662971E-02  0.661297E-02
  0.663810E-02  0.671112E-02  0.683422E-02  0.700599E-02  0.722094E-02  0.746879E-02
  0.773443E-02  0.799931E-02  0.827676E-02  0.857080E-02  0.879944E-02  0.894473E-02
  0.899459E-02  0.894473E-02  0.879944E-02  0.857080E-02  0.827676E-02  0.793873E-02
  0.757943E-02  0.722094E-02  0.688272E-02  0.657996E-02  0.632273E-02  0.611628E-02
  0.596162E-02  0.585595E-02  0.579302E-02  0.576403E-02  0.575898E-02  0.576789E-02
  0.578174E-02  0.579324E-02  0.579763E-02  0.579324E-02  0.578174E-02  0.576789E-02
  0.575898E-02  0.576403E-02  0.579302E-02  0.585595E-02  0.596162E-02  0.611628E-02
  0.632273E-02  0.657996E-02  0.688272E-02  0.722094E-02  0.757943E-02  0.793873E-02
  0.827676E-02  0.875431E-02  0.908068E-02  0.931329E-02  0.943437E-02  0.943437E-02
  0.931329E-02  0.908068E-02  0.875431E-02  0.835765E-02  0.791693E-02  0.745836E-02
  0.700599E-02  0.657996E-02  0.619545E-02  0.586227E-02  0.558518E-02  0.536439E-02
  0.519619E-02  0.507397E-02  0.498963E-02  0.493489E-02  0.490207E-02  0.488453E-02
  0.487716E-02  0.487716E-02  0.488453E-02  0.490207E-02  0.493489E-02  0.498963E-02
  0.507397E-02  0.519619E-02  0.536439E-02  0.558518E-02  0.586227E-02  0.619545E-02
  0.657996E-02  0.700599E-02  0.745836E-02  0.791693E-02  0.835765E-02  0.875431E-02
  0.945202E-02  0.979274E-02  0.100079E-01  0.100815E-01  0.100079E-01  0.979274E-02
  0.945202E-02  0.901037E-02  0.849757E-02  0.794486E-02  0.738181E-02  0.683422E-02
  0.632273E-02  0.586227E-02  0.546195E-02  0.512546E-02  0.485169E-02  0.463575E-02
  0.447058E-02  0.434865E-02  0.426297E-02  0.420736E-02  0.417655E-02  0.416675E-02
  0.417655E-02  0.420736E-02  0.426297E-02  0.434865E-02  0.447058E-02  0.463575E-02
  0.485169E-02  0.512546E-02  0.546195E-02  0.586227E-02  0.632273E-02  0.683422E-02
  0.738181E-02  0.794486E-02  0.849757E-02  0.901037E-02  0.945202E-02  0.103987E-01
  0.107344E-01  0.109088E-01  0.109088E-01  0.107344E-01  0.103987E-01  0.992596E-02
  0.934907E-02  0.870471E-02  0.802931E-02  0.735570E-02  0.671112E-02  0.611628E-02
  0.558518E-02  0.512546E-02  0.473907E-02  0.442313E-02  0.417145E-02  0.397652E-02
  0.383112E-02  0.372901E-02  0.366477E-02  0.363398E-02  0.363398E-02  0.366477E-02
  0.372901E-02  0.383112E-02  0.397652E-02  0.417145E-02  0.442313E-02  0.473907E-02
  0.512546E-02  0.558518E-02  0.611628E-02  0.671112E-02  0.735570E-02  0.802931E-02
  0.870471E-02  0.934907E-02  0.992596E-02  0.103987E-01  0.116342E-01  0.119423E-01
  0.120477E-01  0.119423E-01  0.116342E-01  0.111462E-01  0.105132E-01  0.977755E-02
  0.898353E-02  0.817299E-02  0.738181E-02  0.663810E-02  0.596162E-02  0.536439E-02
  0.485169E-02  0.442313E-02  0.407387E-02  0.379642E-02  0.358268E-02  0.342534E-02
  0.331823E-02  0.325636E-02  0.323617E-02  0.325636E-02  0.331823E-02  0.342534E-02
  0.358268E-02  0.379642E-02  0.407387E-02  0.442313E-02  0.485169E-02  0.536439E-02
  0.596162E-02  0.663810E-02  0.738181E-02  0.817299E-02  0.898353E-02  0.977755E-02
  0.105132E-01  0.111462E-01  0.116342E-01  0.132064E-01  0.134571E-01  0.134571E-01
  0.132064E-01  0.127241E-01  0.120460E-01  0.112196E-01  0.102980E-01  0.933392E-02
  0.837460E-02  0.745836E-02  0.661297E-02  0.585595E-02  0.519619E-02  0.463575E-02
  0.417145E-02  0.379642E-02  0.350182E-02  0.327860E-02  0.311879E-02  0.301601E-02
  0.296580E-02  0.296580E-02  0.301601E-02  0.311879E-02  0.327860E-02  0.350182E-02
  0.379642E-02  0.417145E-02  0.463575E-02  0.519619E-02  0.585595E-02  0.661297E-02
  0.745836E-02  0.837460E-02  0.933392E-02  0.102980E-01  0.112196E-01  0.120460E-01
  0.127241E-01  0.132064E-01  0.151622E-01  0.153148E-01  0.151622E-01  0.147163E-01
  0.140115E-01  0.130995E-01  0.120424E-01  0.109055E-01  0.975009E-02  0.862824E-02
  0.757943E-02  0.662971E-02  0.579302E-02  0.507397E-02  0.447058E-02  0.397652E-02
  0.358268E-02  0.327860E-02  0.305387E-02  0.289958E-02  0.280940E-02  0.277971E-02
  0.280940E-02  0.289958E-02  0.305387E-02  0.327860E-02  0.358268E-02  0.397652E-02
  0.447058E-02  0.507397E-02  0.579302E-02  0.662971E-02  0.757943E-02  0.862824E-02
  0.975009E-02  0.109055E-01  0.120424E-01  0.130995E-01  0.140115E-01  0.147163E-01
  0.151622E-01  0.175410E-01  0.175410E-01  0.171756E-01  0.164741E-01  0.154904E-01
  0.142955E-01  0.129681E-01  0.115863E-01  0.102192E-01  0.892219E-02  0.773443E-02
  0.667868E-02  0.576403E-02  0.498963E-02  0.434865E-02  0.383112E-02  0.342534E-02
  0.311879E-02  0.289958E-02  0.275826E-02  0.268891E-02  0.268891E-02  0.275826E-02
  0.289958E-02  0.311879E-02  0.342534E-02  0.383112E-02  0.434865E-02  0.498963E-02
  0.576403E-02  0.667868E-02  0.773443E-02  0.892219E-02  0.102192E-01  0.115863E-01
  0.129681E-01  0.142955E-01  0.154904E-01  0.164741E-01  0.171756E-01  0.175410E-01
  0.203709E-01  0.201472E-01  0.194946E-01  0.184657E-01  0.171392E-01  0.156087E-01
  0.139713E-01  0.123167E-01  0.107203E-01  0.923869E-02  0.790852E-02  0.674772E-02
  0.575898E-02  0.493489E-02  0.426297E-02  0.372901E-02  0.331823E-02  0.301601E-02
  0.280940E-02  0.268891E-02  0.264927E-02  0.268891E-02  0.280940E-02  0.301601E-02
  0.331823E-02  0.372901E-02  0.426297E-02  0.493489E-02  0.575898E-02  0.674772E-02
  0.790852E-02  0.923869E-02  0.107203E-01  0.123167E-01  0.139713E-01  0.156087E-01
  0.171392E-01  0.184657E-01  0.194946E-01  0.201472E-01  0.203709E-01  0.236600E-01
  0.231230E-01  0.220940E-01  0.206562E-01  0.189181E-01  0.169990E-01  0.150140E-01
  0.130634E-01  0.112255E-01  0.955532E-02  0.808439E-02  0.682365E-02  0.576789E-02
  0.490207E-02  0.420736E-02  0.366477E-02  0.325636E-02  0.296580E-02  0.277971E-02
  0.268891E-02  0.268891E-02  0.277971E-02  0.296580E-02  0.325636E-02  0.366477E-02
  0.420736E-02  0.490207E-02  0.576789E-02  0.682365E-02  0.808439E-02  0.955532E-02
  0.112255E-01  0.130634E-01  0.150140E-01  0.169990E-01  0.189181E-01  0.206562E-01
  0.220940E-01  0.231230E-01  0.236600E-01  0.236600E-01  0.273783E-01  0.264215E-01
  0.249165E-01  0.229837E-01  0.207659E-01  0.184095E-01  0.160469E-01  0.137853E-01
  0.117025E-01  0.984773E-02  0.824434E-02  0.689386E-02  0.578174E-02  0.488453E-02
  0.417655E-02  0.363398E-02  0.323617E-02  0.296580E-02  0.280940E-02  0.275826E-02
  0.280940E-02  0.296580E-02  0.323617E-02  0.363398E-02  0.417655E-02  0.488453E-02
  0.578174E-02  0.689386E-02  0.824434E-02  0.984773E-02  0.117025E-01  0.137853E-01
  0.160469E-01  0.184095E-01  0.207659E-01  0.229837E-01  0.249165E-01  0.264215E-01
  0.273783E-01  0.277066E-01  0.273783E-01  0.314366E-01  0.299446E-01  0.278629E-01
  0.253543E-01  0.225987E-01  0.197689E-01  0.170118E-01  0.144373E-01  0.121178E-01
  0.100922E-01  0.837211E-02  0.694743E-02  0.579324E-02  0.487716E-02  0.416675E-02
  0.363398E-02  0.325636E-02  0.301601E-02  0.289958E-02  0.289958E-02  0.301601E-02
  0.325636E-02  0.363398E-02  0.416675E-02  0.487716E-02  0.579324E-02  0.694743E-02
  0.837211E-02  0.100922E-01  0.121178E-01  0.144373E-01  0.170118E-01  0.197689E-01
  0.225987E-01  0.253543E-01  0.278629E-01  0.299446E-01  0.314366E-01  0.322157E-01
  0.322157E-01  0.314366E-01  0.356751E-01  0.335376E-01  0.307916E-01  0.276449E-01
  0.243140E-01  0.209958E-01  0.178470E-01  0.149749E-01  0.124406E-01  0.102683E-01
  0.845454E-02  0.697635E-02  0.579763E-02  0.487716E-02  0.417655E-02  0.366477E-02
  0.331823E-02  0.311879E-02  0.305387E-02  0.311879E-02  0.331823E-02  0.366477E-02
  0.417655E-02  0.487716E-02  0.579763E-02  0.697635E-02  0.845454E-02  0.102683E-01
  0.124406E-01  0.149749E-01  0.178470E-01  0.209958E-01  0.243140E-01  0.276449E-01
  0.307916E-01  0.335376E-01  0.356751E-01  0.370327E-01  0.374983E-01  0.370327E-01
  0.356751E-01  0.398713E-01  0.370004E-01  0.335305E-01  0.297139E-01  0.258010E-01
  0.220076E-01  0.184939E-01  0.153585E-01  0.126455E-01  0.103604E-01  0.848302E-02
  0.697635E-02  0.579324E-02  0.488453E-02  0.420736E-02  0.372901E-02  0.342534E-02
  0.327860E-02  0.327860E-02  0.342534E-02  0.372901E-02  0.420736E-02  0.488453E-02
  0.579324E-02  0.697635E-02  0.848302E-02  0.103604E-01  0.126455E-01  0.153585E-01
  0.184939E-01  0.220076E-01  0.258010E-01  0.297139E-01  0.335305E-01  0.370004E-01
  0.398713E-01  0.419220E-01  0.429902E-01  0.429902E-01  0.419220E-01  0.398713E-01
  0.437665E-01  0.401117E-01  0.358980E-01  0.314191E-01  0.269537E-01  0.227299E-01
  0.189039E-01  0.155583E-01  0.127157E-01  0.103604E-01  0.845454E-02  0.694743E-02
  0.578174E-02  0.490207E-02  0.426297E-02  0.383112E-02  0.358268E-02  0.350182E-02
  0.358268E-02  0.383112E-02  0.426297E-02  0.490207E-02  0.578174E-02  0.694743E-02
  0.845454E-02  0.103604E-01  0.127157E-01  0.155583E-01  0.189039E-01  0.227299E-01
  0.269537E-01  0.314191E-01  0.358980E-01  0.401117E-01  0.437665E-01  0.465927E-01
  0.483779E-01  0.489882E-01  0.483779E-01  0.465927E-01  0.437665E-01  0.471020E-01
  0.426591E-01  0.377266E-01  0.326350E-01  0.276844E-01  0.231063E-01  0.190444E-01
  0.155583E-01  0.126455E-01  0.102683E-01  0.837211E-02  0.689386E-02  0.576789E-02
  0.493489E-02  0.434865E-02  0.397652E-02  0.379642E-02  0.379642E-02  0.397652E-02
  0.434865E-02  0.493489E-02  0.576789E-02  0.689386E-02  0.837211E-02  0.102683E-01
  0.126455E-01  0.155583E-01  0.190444E-01  0.231063E-01  0.276844E-01  0.326350E-01
  0.377266E-01  0.426591E-01  0.471020E-01  0.507399E-01  0.533135E-01  0.546448E-01
  0.546448E-01  0.533135E-01  0.507399E-01  0.471020E-01  0.496528E-01  0.444640E-01
  0.388818E-01  0.332681E-01  0.279348E-01  0.231063E-01  0.189039E-01  0.153585E-01
  0.124406E-01  0.100922E-01  0.824434E-02  0.682365E-02  0.575898E-02  0.498963E-02
  0.447058E-02  0.417145E-02  0.407387E-02  0.417145E-02  0.447058E-02  0.498963E-02
  0.575898E-02  0.682365E-02  0.824434E-02  0.100922E-01  0.124406E-01  0.153585E-01
  0.189039E-01  0.231063E-01  0.279348E-01  0.332681E-01  0.388818E-01  0.444640E-01
  0.496528E-01  0.540894E-01  0.574703E-01  0.595795E-01  0.602953E-01  0.595795E-01
  0.574703E-01  0.540894E-01  0.496528E-01  0.512508E-01  0.453993E-01  0.392769E-01
  0.332681E-01  0.276844E-01  0.227299E-01  0.184939E-01  0.149749E-01  0.121178E-01
  0.984773E-02  0.808439E-02  0.674772E-02  0.576403E-02  0.507397E-02  0.463575E-02
  0.442313E-02  0.442313E-02  0.463575E-02  0.507397E-02  0.576403E-02  0.674772E-02
  0.808439E-02  0.984773E-02  0.121178E-01  0.149749E-01  0.184939E-01  0.227299E-01
  0.276844E-01  0.332681E-01  0.392769E-01  0.453993E-01  0.512508E-01  0.564317E-01
  0.605922E-01  0.634809E-01  0.649545E-01  0.649545E-01  0.634809E-01  0.605922E-01
  0.564317E-01  0.512508E-01  0.517947E-01  0.453993E-01  0.388818E-01  0.326350E-01
  0.269537E-01  0.220076E-01  0.178470E-01  0.144373E-01  0.117025E-01  0.955532E-02
  0.790852E-02  0.667868E-02  0.579302E-02  0.519619E-02  0.485169E-02  0.473907E-02
  0.485169E-02  0.519619E-02  0.579302E-02  0.667868E-02  0.790852E-02  0.955532E-02
  0.117025E-01  0.144373E-01  0.178470E-01  0.220076E-01  0.269537E-01  0.326350E-01
  0.388818E-01  0.453993E-01  0.517947E-01  0.576338E-01  0.625173E-01  0.661508E-01
  0.683705E-01  0.691144E-01  0.683705E-01  0.661508E-01  0.625173E-01  0.576338E-01
  0.517947E-01  0.512508E-01  0.444640E-01  0.377266E-01  0.314191E-01  0.258010E-01
  0.209958E-01  0.170118E-01  0.137853E-01  0.112255E-01  0.923869E-02  0.773443E-02
  0.662971E-02  0.585595E-02  0.536439E-02  0.512546E-02  0.512546E-02  0.536439E-02
  0.585595E-02  0.662971E-02  0.773443E-02  0.923869E-02  0.112255E-01  0.137853E-01
  0.170118E-01  0.209958E-01  0.258010E-01  0.314191E-01  0.377266E-01  0.444640E-01
  0.512508E-01  0.576338E-01  0.631664E-01  0.674985E-01  0.704309E-01  0.718981E-01
  0.718981E-01  0.704309E-01  0.674985E-01  0.631664E-01  0.576338E-01  0.512508E-01
  0.496528E-01  0.426591E-01  0.358980E-01  0.297139E-01  0.243140E-01  0.197689E-01
  0.160469E-01  0.130634E-01  0.107203E-01  0.892219E-02  0.757943E-02  0.661297E-02
  0.596162E-02  0.558518E-02  0.546195E-02  0.558518E-02  0.596162E-02  0.661297E-02
  0.757943E-02  0.892219E-02  0.107203E-01  0.130634E-01  0.160469E-01  0.197689E-01
  0.243140E-01  0.297139E-01  0.358980E-01  0.426591E-01  0.496528E-01  0.564317E-01
  0.625173E-01  0.674985E-01  0.711164E-01  0.732786E-01  0.739938E-01  0.732786E-01
  0.711164E-01  0.674985E-01  0.625173E-01  0.564317E-01  0.496528E-01  0.471020E-01
  0.401117E-01  0.335305E-01  0.276449E-01  0.225987E-01  0.184095E-01  0.150140E-01
  0.123167E-01  0.102192E-01  0.862824E-02  0.745836E-02  0.663810E-02  0.611628E-02
  0.586227E-02  0.586227E-02  0.611628E-02  0.663810E-02  0.745836E-02  0.862824E-02
  0.102192E-01  0.123167E-01  0.150140E-01  0.184095E-01  0.225987E-01  0.276449E-01
  0.335305E-01  0.401117E-01  0.471020E-01  0.540894E-01  0.605922E-01  0.661508E-01
  0.704309E-01  0.732786E-01  0.746844E-01  0.746844E-01  0.732786E-01  0.704309E-01
  0.661508E-01  0.605922E-01  0.540894E-01  0.471020E-01  0.437665E-01  0.370004E-01
  0.307916E-01  0.253543E-01  0.207659E-01  0.169990E-01  0.139713E-01  0.115863E-01
  0.975009E-02  0.837460E-02  0.738181E-02  0.671112E-02  0.632273E-02  0.619545E-02
  0.632273E-02  0.671112E-02  0.738181E-02  0.837460E-02  0.975009E-02  0.115863E-01
  0.139713E-01  0.169990E-01  0.207659E-01  0.253543E-01  0.307916E-01  0.370004E-01
  0.437665E-01  0.507399E-01  0.574703E-01  0.634809E-01  0.683705E-01  0.718981E-01
  0.739938E-01  0.746844E-01  0.739938E-01  0.718981E-01  0.683705E-01  0.634809E-01
  0.574703E-01  0.507399E-01  0.437665E-01  0.398713E-01  0.335376E-01  0.278629E-01
  0.229837E-01  0.189181E-01  0.156087E-01  0.129681E-01  0.109055E-01  0.933392E-02
  0.817299E-02  0.735570E-02  0.683422E-02  0.657996E-02  0.657996E-02  0.683422E-02
  0.735570E-02  0.817299E-02  0.933392E-02  0.109055E-01  0.129681E-01  0.156087E-01
  0.189181E-01  0.229837E-01  0.278629E-01  0.335376E-01  0.398713E-01  0.465927E-01
  0.533135E-01  0.595795E-01  0.649545E-01  0.691144E-01  0.718981E-01  0.732786E-01
  0.732786E-01  0.718981E-01  0.691144E-01  0.649545E-01  0.595795E-01  0.533135E-01
  0.465927E-01  0.398713E-01  0.356751E-01  0.299446E-01  0.249165E-01  0.206562E-01
  0.171392E-01  0.142955E-01  0.120424E-01  0.102980E-01  0.898353E-02  0.802931E-02
  0.738181E-02  0.700599E-02  0.688272E-02  0.700599E-02  0.738181E-02  0.802931E-02
  0.898353E-02  0.102980E-01  0.120424E-01  0.142955E-01  0.171392E-01  0.206562E-01
  0.249165E-01  0.299446E-01  0.356751E-01  0.419220E-01  0.483779E-01  0.546448E-01
  0.602953E-01  0.649545E-01  0.683705E-01  0.704309E-01  0.711164E-01  0.704309E-01
  0.683705E-01  0.649545E-01  0.602953E-01  0.546448E-01  0.483779E-01  0.419220E-01
  0.356751E-01  0.314366E-01  0.264215E-01  0.220940E-01  0.184657E-01  0.154904E-01
  0.130995E-01  0.112196E-01  0.977755E-02  0.870471E-02  0.794486E-02  0.745836E-02
  0.722094E-02  0.722094E-02  0.745836E-02  0.794486E-02  0.870471E-02  0.977755E-02
  0.112196E-01  0.130995E-01  0.154904E-01  0.184657E-01  0.220940E-01  0.264215E-01
  0.314366E-01  0.370327E-01  0.429902E-01  0.489882E-01  0.546448E-01  0.595795E-01
  0.634809E-01  0.661508E-01  0.674985E-01  0.674985E-01  0.661508E-01  0.634809E-01
  0.595795E-01  0.546448E-01  0.489882E-01  0.429902E-01  0.370327E-01  0.314366E-01
  0.273783E-01  0.231230E-01  0.194946E-01  0.164741E-01  0.140115E-01  0.120460E-01
  0.105132E-01  0.934907E-02  0.849757E-02  0.791693E-02  0.757943E-02  0.746879E-02
  0.757943E-02  0.791693E-02  0.849757E-02  0.934907E-02  0.105132E-01  0.120460E-01
  0.140115E-01  0.164741E-01  0.194946E-01  0.231230E-01  0.273783E-01  0.322157E-01
  0.374983E-01  0.429902E-01  0.483779E-01  0.533135E-01  0.574703E-01  0.605922E-01
  0.625173E-01  0.631664E-01  0.625173E-01  0.605922E-01  0.574703E-01  0.533135E-01
  0.483779E-01  0.429902E-01  0.374983E-01  0.322157E-01  0.273783E-01  0.236600E-01
  0.201472E-01  0.171756E-01  0.147163E-01  0.127241E-01  0.111462E-01  0.992596E-02
  0.901037E-02  0.835765E-02  0.793873E-02  0.773443E-02  0.773443E-02  0.793873E-02
  0.835765E-02  0.901037E-02  0.992596E-02  0.111462E-01  0.127241E-01  0.147163E-01
  0.171756E-01  0.201472E-01  0.236600E-01  0.277066E-01  0.322157E-01  0.370327E-01
  0.419220E-01  0.465927E-01  0.507399E-01  0.540894E-01  0.564317E-01  0.576338E-01
  0.576338E-01  0.564317E-01  0.540894E-01  0.507399E-01  0.465927E-01  0.419220E-01
  0.370327E-01  0.322157E-01  0.277066E-01  0.236600E-01  0.203709E-01  0.175410E-01
  0.151622E-01  0.132064E-01  0.116342E-01  0.103987E-01  0.945202E-02  0.875431E-02
  0.827676E-02  0.799931E-02  0.790852E-02  0.799931E-02  0.827676E-02  0.875431E-02
  0.945202E-02  0.103987E-01  0.116342E-01  0.132064E-01  0.151622E-01  0.175410E-01
  0.203709E-01  0.236600E-01  0.273783E-01  0.314366E-01  0.356751E-01  0.398713E-01
  0.437665E-01  0.471020E-01  0.496528E-01  0.512508E-01  0.517947E-01  0.512508E-01
  0.496528E-01  0.471020E-01  0.437665E-01  0.398713E-01  0.356751E-01  0.314366E-01
  0.273783E-01  0.236600E-01  0.203709E-01  0.206061E-01  0.180005E-01  0.158266E-01
  0.140532E-01  0.126403E-01  0.115421E-01  0.107145E-01  0.101223E-01  0.974131E-02
  0.955532E-02  0.955532E-02  0.974131E-02  0.101223E-01  0.107145E-01  0.115421E-01
  0.126403E-01  0.140532E-01  0.158266E-01  0.180005E-01  0.206061E-01  0.236600E-01
  0.271465E-01  0.309936E-01  0.350585E-01  0.391331E-01  0.429721E-01  0.463310E-01
  0.490050E-01  0.508513E-01  0.517906E-01  0.517906E-01  0.508513E-01  0.490050E-01
  0.463310E-01  0.429721E-01  0.391331E-01  0.350585E-01  0.309936E-01  0.271465E-01
  0.236600E-01  0.206061E-01  0.180005E-01  0.159863E-01  0.143208E-01  0.129762E-01
  0.119162E-01  0.111017E-01  0.104999E-01  0.100874E-01  0.984773E-02  0.976934E-02
  0.984773E-02  0.100874E-01  0.104999E-01  0.111017E-01  0.119162E-01  0.129762E-01
  0.143208E-01  0.159863E-01  0.180005E-01  0.203796E-01  0.231230E-01  0.261991E-01
  0.295281E-01  0.329736E-01  0.363524E-01  0.394581E-01  0.420918E-01  0.440882E-01
  0.453305E-01  0.457517E-01  0.453305E-01  0.440882E-01  0.420918E-01  0.394581E-01
  0.363524E-01  0.329736E-01  0.295281E-01  0.261991E-01  0.231230E-01  0.203796E-01
  0.180005E-01  0.158266E-01  0.143208E-01  0.130911E-01  0.121106E-01  0.113467E-01
  0.107695E-01  0.103566E-01  0.100922E-01  0.996398E-02  0.996398E-02  0.100922E-01
  0.103566E-01  0.107695E-01  0.113467E-01  0.121106E-01  0.130911E-01  0.143208E-01
  0.158266E-01  0.176249E-01  0.197188E-01  0.220940E-01  0.247085E-01  0.274815E-01
  0.302900E-01  0.329785E-01  0.353784E-01  0.373312E-01  0.387075E-01  0.394182E-01
  0.394182E-01  0.387075E-01  0.373312E-01  0.353784E-01  0.329785E-01  0.302900E-01
  0.274815E-01  0.247085E-01  0.220940E-01  0.197188E-01  0.176249E-01  0.158266E-01
  0.140532E-01  0.129762E-01  0.121106E-01  0.114306E-01  0.109100E-01  0.105277E-01
  0.102683E-01  0.101191E-01  0.100707E-01  0.101191E-01  0.102683E-01  0.105277E-01
  0.109100E-01  0.114306E-01  0.121106E-01  0.129762E-01  0.140532E-01  0.153602E-01
  0.169039E-01  0.186773E-01  0.206562E-01  0.227935E-01  0.250130E-01  0.272087E-01
  0.292532E-01  0.310132E-01  0.323673E-01  0.332200E-01  0.335111E-01  0.332200E-01
  0.323673E-01  0.310132E-01  0.292532E-01  0.272087E-01  0.250130E-01  0.227935E-01
  0.206562E-01  0.186773E-01  0.169039E-01  0.153602E-01  0.140532E-01  0.126403E-01
  0.119162E-01  0.113467E-01  0.109100E-01  0.105865E-01  0.103604E-01  0.102188E-01
  0.101512E-01  0.101512E-01  0.102188E-01  0.103604E-01  0.105865E-01  0.109100E-01
  0.113467E-01  0.119162E-01  0.126403E-01  0.135388E-01  0.146233E-01  0.158934E-01
  0.173348E-01  0.189181E-01  0.205956E-01  0.222992E-01  0.239410E-01  0.254203E-01
  0.266364E-01  0.275013E-01  0.279506E-01  0.279506E-01  0.275013E-01  0.266364E-01
  0.254203E-01  0.239410E-01  0.222992E-01  0.205956E-01  0.189181E-01  0.173348E-01
  0.158934E-01  0.146233E-01  0.135388E-01  0.126403E-01  0.115421E-01  0.111017E-01
  0.107695E-01  0.105277E-01  0.103604E-01  0.102532E-01  0.101942E-01  0.101755E-01
  0.101942E-01  0.102532E-01  0.103604E-01  0.105277E-01  0.107695E-01  0.111017E-01
  0.115421E-01  0.121087E-01  0.128159E-01  0.136703E-01  0.146665E-01  0.157864E-01
  0.169990E-01  0.182599E-01  0.195108E-01  0.206810E-01  0.216945E-01  0.224788E-01
  0.229751E-01  0.231449E-01  0.229751E-01  0.224788E-01  0.216945E-01  0.206810E-01
  0.195108E-01  0.182599E-01  0.169990E-01  0.157864E-01  0.146665E-01  0.136703E-01
  0.128159E-01  0.121087E-01  0.115421E-01  0.107145E-01  0.104999E-01  0.103566E-01
  0.102683E-01  0.102188E-01  0.101942E-01  0.101844E-01  0.101844E-01  0.101942E-01
  0.102188E-01  0.102683E-01  0.103566E-01  0.104999E-01  0.107145E-01  0.110163E-01
  0.114199E-01  0.119360E-01  0.125668E-01  0.133044E-01  0.141299E-01  0.150140E-01
  0.159177E-01  0.167925E-01  0.175840E-01  0.182371E-01  0.187029E-01  0.189454E-01
  0.189454E-01  0.187029E-01  0.182371E-01  0.175840E-01  0.167925E-01  0.159177E-01
  0.150140E-01  0.141299E-01  0.133044E-01  0.125668E-01  0.119360E-01  0.114199E-01
  0.110163E-01  0.107145E-01  0.101223E-01  0.100874E-01  0.100922E-01  0.101191E-01
  0.101512E-01  0.101755E-01  0.101844E-01  0.101755E-01  0.101512E-01  0.101191E-01
  0.100922E-01  0.100874E-01  0.101223E-01  0.102135E-01  0.103757E-01  0.106209E-01
  0.109561E-01  0.113810E-01  0.118869E-01  0.124563E-01  0.130634E-01  0.136752E-01
  0.142532E-01  0.147570E-01  0.151483E-01  0.153965E-01  0.154815E-01  0.153965E-01
  0.151483E-01  0.147570E-01  0.142532E-01  0.136752E-01  0.130634E-01  0.124563E-01
  0.118869E-01  0.113810E-01  0.109561E-01  0.106209E-01  0.103757E-01  0.102135E-01
  0.101223E-01  0.974131E-02  0.984773E-02  0.996398E-02  0.100707E-01  0.101512E-01
  0.101942E-01  0.101942E-01  0.101512E-01  0.100707E-01  0.996398E-02  0.984773E-02
  0.974131E-02  0.966398E-02  0.963287E-02  0.966180E-02  0.976028E-02  0.993257E-02
  0.101769E-01  0.104851E-01  0.108418E-01  0.112255E-01  0.116095E-01  0.119642E-01
  0.122607E-01  0.124737E-01  0.125849E-01  0.125849E-01  0.124737E-01  0.122607E-01
  0.119642E-01  0.116095E-01  0.112255E-01  0.108418E-01  0.104851E-01  0.101769E-01
  0.993257E-02  0.976028E-02  0.966180E-02  0.963287E-02  0.966398E-02  0.974131E-02
  0.955532E-02  0.976934E-02  0.996398E-02  0.101191E-01  0.102188E-01  0.102532E-01
  0.102188E-01  0.101191E-01  0.996398E-02  0.976934E-02  0.955532E-02  0.934379E-02
  0.915565E-02  0.900858E-02  0.891540E-02  0.888355E-02  0.891540E-02  0.900858E-02
  0.915565E-02  0.934379E-02  0.955532E-02  0.976934E-02  0.996398E-02  0.101191E-01
  0.102188E-01  0.102532E-01  0.102188E-01  0.101191E-01  0.996398E-02  0.976934E-02
  0.955532E-02  0.934379E-02  0.915565E-02  0.900858E-02  0.891540E-02  0.888355E-02
  0.891540E-02  0.900858E-02  0.915565E-02  0.934379E-02  0.955532E-02  0.955532E-02
  0.984773E-02  0.100922E-01  0.102683E-01  0.103604E-01  0.103604E-01  0.102683E-01
  0.100922E-01  0.984773E-02  0.955532E-02  0.923869E-02  0.892219E-02  0.862824E-02
  0.837460E-02  0.817299E-02  0.802931E-02  0.794486E-02  0.791693E-02  0.793873E-02
  0.799931E-02  0.808439E-02  0.817790E-02  0.826403E-02  0.832931E-02  0.836431E-02
  0.836431E-02  0.832931E-02  0.826403E-02  0.817790E-02  0.808439E-02  0.799931E-02
  0.793873E-02  0.791693E-02  0.794486E-02  0.802931E-02  0.817299E-02  0.837460E-02
  0.862824E-02  0.892219E-02  0.923869E-02  0.955532E-02  0.974131E-02  0.100874E-01
  0.103566E-01  0.105277E-01  0.105865E-01  0.105277E-01  0.103566E-01  0.100874E-01
  0.974131E-02  0.934379E-02  0.892219E-02  0.850324E-02  0.811017E-02  0.776033E-02
  0.746443E-02  0.722746E-02  0.705002E-02  0.692898E-02  0.685770E-02  0.682649E-02
  0.682365E-02  0.683691E-02  0.685504E-02  0.686938E-02  0.687473E-02  0.686938E-02
  0.685504E-02  0.683691E-02  0.682365E-02  0.682649E-02  0.685770E-02  0.692898E-02
  0.705002E-02  0.722746E-02  0.746443E-02  0.776033E-02  0.811017E-02  0.850324E-02
  0.892219E-02  0.934379E-02  0.974131E-02  0.101223E-01  0.104999E-01  0.107695E-01
  0.109100E-01  0.109100E-01  0.107695E-01  0.104999E-01  0.101223E-01  0.966398E-02
  0.915565E-02  0.862824E-02  0.811017E-02  0.762478E-02  0.718874E-02  0.681200E-02
  0.649892E-02  0.624935E-02  0.605933E-02  0.592187E-02  0.582799E-02  0.576789E-02
  0.573219E-02  0.571299E-02  0.570477E-02  0.570477E-02  0.571299E-02  0.573219E-02
  0.576789E-02  0.582799E-02  0.592187E-02  0.605933E-02  0.624935E-02  0.649892E-02
  0.681200E-02  0.718874E-02  0.762478E-02  0.811017E-02  0.862824E-02  0.915565E-02
  0.966398E-02  0.101223E-01  0.107145E-01  0.111017E-01  0.113467E-01  0.114306E-01
  0.113467E-01  0.111017E-01  0.107145E-01  0.102135E-01  0.963287E-02  0.900858E-02
  0.837460E-02  0.776033E-02  0.718874E-02  0.667571E-02  0.623045E-02  0.585644E-02
  0.555230E-02  0.531282E-02  0.513030E-02  0.499615E-02  0.490207E-02  0.484078E-02
  0.480651E-02  0.479552E-02  0.480651E-02  0.484078E-02  0.490207E-02  0.499615E-02
  0.513030E-02  0.531282E-02  0.555230E-02  0.585644E-02  0.623045E-02  0.667571E-02
  0.718874E-02  0.776033E-02  0.837460E-02  0.900858E-02  0.963287E-02  0.102135E-01
  0.107145E-01  0.115421E-01  0.119162E-01  0.121106E-01  0.121106E-01  0.119162E-01
  0.115421E-01  0.110163E-01  0.103757E-01  0.966180E-02  0.891540E-02  0.817299E-02
  0.746443E-02  0.681200E-02  0.623045E-02  0.572769E-02  0.530563E-02  0.496110E-02
  0.468726E-02  0.447568E-02  0.431811E-02  0.420736E-02  0.413745E-02  0.410378E-02
  0.410378E-02  0.413745E-02  0.420736E-02  0.431811E-02  0.447568E-02  0.468726E-02
  0.496110E-02  0.530563E-02  0.572769E-02  0.623045E-02  0.681200E-02  0.746443E-02
  0.817299E-02  0.891540E-02  0.966180E-02  0.103757E-01  0.110163E-01  0.115421E-01
  0.126403E-01  0.129762E-01  0.130911E-01  0.129762E-01  0.126403E-01  0.121087E-01
  0.114199E-01  0.106209E-01  0.976028E-02  0.888355E-02  0.802931E-02  0.722746E-02
  0.649892E-02  0.585644E-02  0.530563E-02  0.484601E-02  0.447212E-02  0.417557E-02
  0.394730E-02  0.377924E-02  0.366477E-02  0.359859E-02  0.357699E-02  0.359859E-02
  0.366477E-02  0.377924E-02  0.394730E-02  0.417557E-02  0.447212E-02  0.484601E-02
  0.530563E-02  0.585644E-02  0.649892E-02  0.722746E-02  0.802931E-02  0.888355E-02
  0.976028E-02  0.106209E-01  0.114199E-01  0.121087E-01  0.126403E-01  0.140532E-01
  0.143208E-01  0.143208E-01  0.140532E-01  0.135388E-01  0.128159E-01  0.119360E-01
  0.109561E-01  0.993257E-02  0.891540E-02  0.794486E-02  0.705002E-02  0.624935E-02
  0.555230E-02  0.496110E-02  0.447212E-02  0.407759E-02  0.376770E-02  0.353276E-02
  0.336450E-02  0.325636E-02  0.320359E-02  0.320359E-02  0.325636E-02  0.336450E-02
  0.353276E-02  0.376770E-02  0.407759E-02  0.447212E-02  0.496110E-02  0.555230E-02
  0.624935E-02  0.705002E-02  0.794486E-02  0.891540E-02  0.993257E-02  0.109561E-01
  0.119360E-01  0.128159E-01  0.135388E-01  0.140532E-01  0.158266E-01  0.159863E-01
  0.158266E-01  0.153602E-01  0.146233E-01  0.136703E-01  0.125668E-01  0.113810E-01
  0.101769E-01  0.900858E-02  0.791693E-02  0.692898E-02  0.605933E-02  0.531282E-02
  0.468726E-02  0.417557E-02  0.376770E-02  0.345248E-02  0.321928E-02  0.305923E-02
  0.296580E-02  0.293510E-02  0.296580E-02  0.305923E-02  0.321928E-02  0.345248E-02
  0.376770E-02  0.417557E-02  0.468726E-02  0.531282E-02  0.605933E-02  0.692898E-02
  0.791693E-02  0.900858E-02  0.101769E-01  0.113810E-01  0.125668E-01  0.136703E-01
  0.146233E-01  0.153602E-01  0.158266E-01  0.180005E-01  0.180005E-01  0.176249E-01
  0.169039E-01  0.158934E-01  0.146665E-01  0.133044E-01  0.118869E-01  0.104851E-01
  0.915565E-02  0.793873E-02  0.685770E-02  0.592187E-02  0.513030E-02  0.447568E-02
  0.394730E-02  0.353276E-02  0.321928E-02  0.299501E-02  0.285053E-02  0.277971E-02
  0.277971E-02  0.285053E-02  0.299501E-02  0.321928E-02  0.353276E-02  0.394730E-02
  0.447568E-02  0.513030E-02  0.592187E-02  0.685770E-02  0.793873E-02  0.915565E-02
  0.104851E-01  0.118869E-01  0.133044E-01  0.146665E-01  0.158934E-01  0.169039E-01
  0.176249E-01  0.180005E-01  0.206061E-01  0.203796E-01  0.197188E-01  0.186773E-01
  0.173348E-01  0.157864E-01  0.141299E-01  0.124563E-01  0.108418E-01  0.934379E-02
  0.799931E-02  0.682649E-02  0.582799E-02  0.499615E-02  0.431811E-02  0.377924E-02
  0.336450E-02  0.305923E-02  0.285053E-02  0.272889E-02  0.268891E-02  0.272889E-02
  0.285053E-02  0.305923E-02  0.336450E-02  0.377924E-02  0.431811E-02  0.499615E-02
  0.582799E-02  0.682649E-02  0.799931E-02  0.934379E-02  0.108418E-01  0.124563E-01
  0.141299E-01  0.157864E-01  0.173348E-01  0.186773E-01  0.197188E-01  0.203796E-01
  0.206061E-01  0.236600E-01  0.231230E-01  0.220940E-01  0.206562E-01  0.189181E-01
  0.169990E-01  0.150140E-01  0.130634E-01  0.112255E-01  0.955532E-02  0.808439E-02
  0.682365E-02  0.576789E-02  0.490207E-02  0.420736E-02  0.366477E-02  0.325636E-02
  0.296580E-02  0.277971E-02  0.268891E-02  0.268891E-02  0.277971E-02  0.296580E-02
  0.325636E-02  0.366477E-02  0.420736E-02  0.490207E-02  0.576789E-02  0.682365E-02
  0.808439E-02  0.955532E-02  0.112255E-01  0.130634E-01  0.150140E-01  0.169990E-01
  0.189181E-01  0.206562E-01  0.220940E-01  0.231230E-01  0.236600E-01  0.236600E-01
  0.271465E-01  0.261991E-01  0.247085E-01  0.227935E-01  0.205956E-01  0.182599E-01
  0.159177E-01  0.136752E-01  0.116095E-01  0.976934E-02  0.817790E-02  0.683691E-02
  0.573219E-02  0.484078E-02  0.413745E-02  0.359859E-02  0.320359E-02  0.293510E-02
  0.277971E-02  0.272889E-02  0.277971E-02  0.293510E-02  0.320359E-02  0.359859E-02
  0.413745E-02  0.484078E-02  0.573219E-02  0.683691E-02  0.817790E-02  0.976934E-02
  0.116095E-01  0.136752E-01  0.159177E-01  0.182599E-01  0.205956E-01  0.227935E-01
  0.247085E-01  0.261991E-01  0.271465E-01  0.274715E-01  0.271465E-01  0.309936E-01
  0.295281E-01  0.274815E-01  0.250130E-01  0.222992E-01  0.195108E-01  0.167925E-01
  0.142532E-01  0.119642E-01  0.996398E-02  0.826403E-02  0.685504E-02  0.571299E-02
  0.480651E-02  0.410378E-02  0.357699E-02  0.320359E-02  0.296580E-02  0.285053E-02
  0.285053E-02  0.296580E-02  0.320359E-02  0.357699E-02  0.410378E-02  0.480651E-02
  0.571299E-02  0.685504E-02  0.826403E-02  0.996398E-02  0.119642E-01  0.142532E-01
  0.167925E-01  0.195108E-01  0.222992E-01  0.250130E-01  0.274815E-01  0.295281E-01
  0.309936E-01  0.317585E-01  0.317585E-01  0.309936E-01  0.350585E-01  0.329736E-01
  0.302900E-01  0.272087E-01  0.239410E-01  0.206810E-01  0.175840E-01  0.147570E-01
  0.122607E-01  0.101191E-01  0.832931E-02  0.686938E-02  0.570477E-02  0.479552E-02
  0.410378E-02  0.359859E-02  0.325636E-02  0.305923E-02  0.299501E-02  0.305923E-02
  0.325636E-02  0.359859E-02  0.410378E-02  0.479552E-02  0.570477E-02  0.686938E-02
  0.832931E-02  0.101191E-01  0.122607E-01  0.147570E-01  0.175840E-01  0.206810E-01
  0.239410E-01  0.272087E-01  0.302900E-01  0.329736E-01  0.350585E-01  0.363807E-01
  0.368338E-01  0.363807E-01  0.350585E-01  0.391331E-01  0.363524E-01  0.329785E-01
  0.292532E-01  0.254203E-01  0.216945E-01  0.182371E-01  0.151483E-01  0.124737E-01
  0.102188E-01  0.836431E-02  0.687473E-02  0.570477E-02  0.480651E-02  0.413745E-02
  0.366477E-02  0.336450E-02  0.321928E-02  0.321928E-02  0.336450E-02  0.366477E-02
  0.413745E-02  0.480651E-02  0.570477E-02  0.687473E-02  0.836431E-02  0.102188E-01
  0.124737E-01  0.151483E-01  0.182371E-01  0.216945E-01  0.254203E-01  0.292532E-01
  0.329785E-01  0.363524E-01  0.391331E-01  0.411129E-01  0.421418E-01  0.421418E-01
  0.411129E-01  0.391331E-01  0.429721E-01  0.394581E-01  0.353784E-01  0.310132E-01
  0.266364E-01  0.224788E-01  0.187029E-01  0.153965E-01  0.125849E-01  0.102532E-01
  0.836431E-02  0.686938E-02  0.571299E-02  0.484078E-02  0.420736E-02  0.377924E-02
  0.353276E-02  0.345248E-02  0.353276E-02  0.377924E-02  0.420736E-02  0.484078E-02
  0.571299E-02  0.686938E-02  0.836431E-02  0.102532E-01  0.125849E-01  0.153965E-01
  0.187029E-01  0.224788E-01  0.266364E-01  0.310132E-01  0.353784E-01  0.394581E-01
  0.429721E-01  0.456717E-01  0.473681E-01  0.479464E-01  0.473681E-01  0.456717E-01
  0.429721E-01  0.463310E-01  0.420918E-01  0.373312E-01  0.323673E-01  0.275013E-01
  0.229751E-01  0.189454E-01  0.154815E-01  0.125849E-01  0.102188E-01  0.832931E-02
  0.685504E-02  0.573219E-02  0.490207E-02  0.431811E-02  0.394730E-02  0.376770E-02
  0.376770E-02  0.394730E-02  0.431811E-02  0.490207E-02  0.573219E-02  0.685504E-02
  0.832931E-02  0.102188E-01  0.125849E-01  0.154815E-01  0.189454E-01  0.229751E-01
  0.275013E-01  0.323673E-01  0.373312E-01  0.420918E-01  0.463310E-01  0.497615E-01
  0.521627E-01  0.533955E-01  0.533955E-01  0.521627E-01  0.497615E-01  0.463310E-01
  0.490050E-01  0.440882E-01  0.387075E-01  0.332200E-01  0.279506E-01  0.231449E-01
  0.189454E-01  0.153965E-01  0.124737E-01  0.101191E-01  0.826403E-02  0.683691E-02
  0.576789E-02  0.499615E-02  0.447568E-02  0.417557E-02  0.407759E-02  0.417557E-02
  0.447568E-02  0.499615E-02  0.576789E-02  0.683691E-02  0.826403E-02  0.101191E-01
  0.124737E-01  0.153965E-01  0.189454E-01  0.231449E-01  0.279506E-01  0.332200E-01
  0.387075E-01  0.440882E-01  0.490050E-01  0.531285E-01  0.562095E-01  0.581001E-01
  0.587356E-01  0.581001E-01  0.562095E-01  0.531285E-01  0.490050E-01  0.508513E-01
  0.453305E-01  0.394182E-01  0.335111E-01  0.279506E-01  0.229751E-01  0.187029E-01
  0.151483E-01  0.122607E-01  0.996398E-02  0.817790E-02  0.682365E-02  0.582799E-02
  0.513030E-02  0.468726E-02  0.447212E-02  0.447212E-02  0.468726E-02  0.513030E-02
  0.582799E-02  0.682365E-02  0.817790E-02  0.996398E-02  0.122607E-01  0.151483E-01
  0.187029E-01  0.229751E-01  0.279506E-01  0.335111E-01  0.394182E-01  0.453305E-01
  0.508513E-01  0.556012E-01  0.592937E-01  0.617775E-01  0.630146E-01  0.630146E-01
  0.617775E-01  0.592937E-01  0.556012E-01  0.508513E-01  0.517906E-01  0.457517E-01
  0.394182E-01  0.332200E-01  0.275013E-01  0.224788E-01  0.182371E-01  0.147570E-01
  0.119642E-01  0.976934E-02  0.808439E-02  0.682649E-02  0.592187E-02  0.531282E-02
  0.496110E-02  0.484601E-02  0.496110E-02  0.531282E-02  0.592187E-02  0.682649E-02
  0.808439E-02  0.976934E-02  0.119642E-01  0.147570E-01  0.182371E-01  0.224788E-01
  0.275013E-01  0.332200E-01  0.394182E-01  0.457517E-01  0.517906E-01  0.570977E-01
  0.613304E-01  0.643180E-01  0.660576E-01  0.666237E-01  0.660576E-01  0.643180E-01
  0.613304E-01  0.570977E-01  0.517906E-01  0.517906E-01  0.453305E-01  0.387075E-01
  0.323673E-01  0.266364E-01  0.216945E-01  0.175840E-01  0.142532E-01  0.116095E-01
  0.955532E-02  0.799931E-02  0.685770E-02  0.605933E-02  0.555230E-02  0.530563E-02
  0.530563E-02  0.555230E-02  0.605933E-02  0.685770E-02  0.799931E-02  0.955532E-02
  0.116095E-01  0.142532E-01  0.175840E-01  0.216945E-01  0.266364E-01  0.323673E-01
  0.387075E-01  0.453305E-01  0.517906E-01  0.575969E-01  0.623312E-01  0.657687E-01
  0.679156E-01  0.689216E-01  0.689216E-01  0.679156E-01  0.657687E-01  0.623312E-01
  0.575969E-01  0.517906E-01  0.508513E-01  0.440882E-01  0.373312E-01  0.310132E-01
  0.254203E-01  0.206810E-01  0.167925E-01  0.136752E-01  0.112255E-01  0.934379E-02
  0.793873E-02  0.692898E-02  0.624935E-02  0.585644E-02  0.572769E-02  0.585644E-02
  0.624935E-02  0.692898E-02  0.793873E-02  0.934379E-02  0.112255E-01  0.136752E-01
  0.167925E-01  0.206810E-01  0.254203E-01  0.310132E-01  0.373312E-01  0.440882E-01
  0.508513E-01  0.570977E-01  0.623312E-01  0.662352E-01  0.687698E-01  0.701241E-01
  0.705399E-01  0.701241E-01  0.687698E-01  0.662352E-01  0.623312E-01  0.570977E-01
  0.508513E-01  0.490050E-01  0.420918E-01  0.353784E-01  0.292532E-01  0.239410E-01
  0.195108E-01  0.159177E-01  0.130634E-01  0.108418E-01  0.915565E-02  0.791693E-02
  0.705002E-02  0.649892E-02  0.623045E-02  0.623045E-02  0.649892E-02  0.705002E-02
  0.791693E-02  0.915565E-02  0.108418E-01  0.130634E-01  0.159177E-01  0.195108E-01
  0.239410E-01  0.292532E-01  0.353784E-01  0.420918E-01  0.490050E-01  0.556012E-01
  0.613304E-01  0.657687E-01  0.687698E-01  0.704877E-01  0.712299E-01  0.712299E-01
  0.704877E-01  0.687698E-01  0.657687E-01  0.613304E-01  0.556012E-01  0.490050E-01
  0.463310E-01  0.394581E-01  0.329785E-01  0.272087E-01  0.222992E-01  0.182599E-01
  0.150140E-01  0.124563E-01  0.104851E-01  0.900858E-02  0.794486E-02  0.722746E-02
  0.681200E-02  0.667571E-02  0.681200E-02  0.722746E-02  0.794486E-02  0.900858E-02
  0.104851E-01  0.124563E-01  0.150140E-01  0.182599E-01  0.222992E-01  0.272087E-01
  0.329785E-01  0.394581E-01  0.463310E-01  0.531285E-01  0.592937E-01  0.643180E-01
  0.679156E-01  0.701241E-01  0.712299E-01  0.715532E-01  0.712299E-01  0.701241E-01
  0.679156E-01  0.643180E-01  0.592937E-01  0.531285E-01  0.463310E-01  0.429721E-01
  0.363524E-01  0.302900E-01  0.250130E-01  0.205956E-01  0.169990E-01  0.141299E-01
  0.118869E-01  0.101769E-01  0.891540E-02  0.802931E-02  0.746443E-02  0.718874E-02
  0.718874E-02  0.746443E-02  0.802931E-02  0.891540E-02  0.101769E-01  0.118869E-01
  0.141299E-01  0.169990E-01  0.205956E-01  0.250130E-01  0.302900E-01  0.363524E-01
  0.429721E-01  0.497615E-01  0.562095E-01  0.617775E-01  0.660576E-01  0.689216E-01
  0.705399E-01  0.712299E-01  0.712299E-01  0.705399E-01  0.689216E-01  0.660576E-01
  0.617775E-01  0.562095E-01  0.497615E-01  0.429721E-01  0.391331E-01  0.329736E-01
  0.274815E-01  0.227935E-01  0.189181E-01  0.157864E-01  0.133044E-01  0.113810E-01
  0.993257E-02  0.888355E-02  0.817299E-02  0.776033E-02  0.762478E-02  0.776033E-02
  0.817299E-02  0.888355E-02  0.993257E-02  0.113810E-01  0.133044E-01  0.157864E-01
  0.189181E-01  0.227935E-01  0.274815E-01  0.329736E-01  0.391331E-01  0.456717E-01
  0.521627E-01  0.581001E-01  0.630146E-01  0.666237E-01  0.689216E-01  0.701241E-01
  0.704877E-01  0.701241E-01  0.689216E-01  0.666237E-01  0.630146E-01  0.581001E-01
  0.521627E-01  0.456717E-01  0.391331E-01  0.350585E-01  0.295281E-01  0.247085E-01
  0.206562E-01  0.173348E-01  0.146665E-01  0.125668E-01  0.109561E-01  0.976028E-02
  0.891540E-02  0.837460E-02  0.811017E-02  0.811017E-02  0.837460E-02  0.891540E-02
  0.976028E-02  0.109561E-01  0.125668E-01  0.146665E-01  0.173348E-01  0.206562E-01
  0.247085E-01  0.295281E-01  0.350585E-01  0.411129E-01  0.473681E-01  0.533955E-01
  0.587356E-01  0.630146E-01  0.660576E-01  0.679156E-01  0.687698E-01  0.687698E-01
  0.679156E-01  0.660576E-01  0.630146E-01  0.587356E-01  0.533955E-01  0.473681E-01
  0.411129E-01  0.350585E-01  0.309936E-01  0.261991E-01  0.220940E-01  0.186773E-01
  0.158934E-01  0.136703E-01  0.119360E-01  0.106209E-01  0.966180E-02  0.900858E-02
  0.862824E-02  0.850324E-02  0.862824E-02  0.900858E-02  0.966180E-02  0.106209E-01
  0.119360E-01  0.136703E-01  0.158934E-01  0.186773E-01  0.220940E-01  0.261991E-01
  0.309936E-01  0.363807E-01  0.421418E-01  0.479464E-01  0.533955E-01  0.581001E-01
  0.617775E-01  0.643180E-01  0.657687E-01  0.662352E-01  0.657687E-01  0.643180E-01
  0.617775E-01  0.581001E-01  0.533955E-01  0.479464E-01  0.421418E-01  0.363807E-01
  0.309936E-01  0.271465E-01  0.231230E-01  0.197188E-01  0.169039E-01  0.146233E-01
  0.128159E-01  0.114199E-01  0.103757E-01  0.963287E-02  0.915565E-02  0.892219E-02
  0.892219E-02  0.915565E-02  0.963287E-02  0.103757E-01  0.114199E-01  0.128159E-01
  0.146233E-01  0.169039E-01  0.197188E-01  0.231230E-01  0.271465E-01  0.317585E-01
  0.368338E-01  0.421418E-01  0.473681E-01  0.521627E-01  0.562095E-01  0.592937E-01
  0.613304E-01  0.623312E-01  0.623312E-01  0.613304E-01  0.592937E-01  0.562095E-01
  0.521627E-01  0.473681E-01  0.421418E-01  0.368338E-01  0.317585E-01  0.271465E-01
  0.236600E-01  0.203796E-01  0.176249E-01  0.153602E-01  0.135388E-01  0.121087E-01
  0.110163E-01  0.102135E-01  0.966398E-02  0.934379E-02  0.923869E-02  0.934379E-02
  0.966398E-02  0.102135E-01  0.110163E-01  0.121087E-01  0.135388E-01  0.153602E-01
  0.176249E-01  0.203796E-01  0.236600E-01  0.274715E-01  0.317585E-01  0.363807E-01
  0.411129E-01  0.456717E-01  0.497615E-01  0.531285E-01  0.556012E-01  0.570977E-01
  0.575969E-01  0.570977E-01  0.556012E-01  0.531285E-01  0.497615E-01  0.456717E-01
  0.411129E-01  0.363807E-01  0.317585E-01  0.274715E-01  0.236600E-01  0.206061E-01
  0.180005E-01  0.158266E-01  0.140532E-01  0.126403E-01  0.115421E-01  0.107145E-01
  0.101223E-01  0.974131E-02  0.955532E-02  0.955532E-02  0.974131E-02  0.101223E-01
  0.107145E-01  0.115421E-01  0.126403E-01  0.140532E-01  0.158266E-01  0.180005E-01
  0.206061E-01  0.236600E-01  0.271465E-01  0.309936E-01  0.350585E-01  0.391331E-01
  0.429721E-01  0.463310E-01  0.490050E-01  0.508513E-01  0.517906E-01  0.517906E-01
  0.508513E-01  0.490050E-01  0.463310E-01  0.429721E-01  0.391331E-01  0.350585E-01
  0.309936E-01  0.271465E-01  0.236600E-01  0.206061E-01  0.213229E-01  0.189441E-01
  0.169768E-01  0.153877E-01  0.141361E-01  0.131774E-01  0.124707E-01  0.119857E-01
  0.117025E-01  0.116095E-01  0.117025E-01  0.119857E-01  0.124707E-01  0.131774E-01
  0.141361E-01  0.153877E-01  0.169768E-01  0.189441E-01  0.213229E-01  0.241357E-01
  0.273783E-01  0.309936E-01  0.348526E-01  0.387577E-01  0.424704E-01  0.457528E-01
  0.484132E-01  0.503363E-01  0.514845E-01  0.518644E-01  0.514845E-01  0.503363E-01
  0.484132E-01  0.457528E-01  0.424704E-01  0.387577E-01  0.348526E-01  0.309936E-01
  0.273783E-01  0.241357E-01  0.213229E-01  0.189441E-01  0.171491E-01  0.156824E-01
  0.145141E-01  0.136066E-01  0.129226E-01  0.124328E-01  0.121178E-01  0.119642E-01
  0.119642E-01  0.121178E-01  0.124328E-01  0.129226E-01  0.136066E-01  0.145141E-01
  0.156824E-01  0.171491E-01  0.189441E-01  0.210876E-01  0.235865E-01  0.264215E-01
  0.295281E-01  0.327855E-01  0.360244E-01  0.390504E-01  0.416756E-01  0.437480E-01
  0.451683E-01  0.458868E-01  0.458868E-01  0.451683E-01  0.437480E-01  0.416756E-01
  0.390504E-01  0.360244E-01  0.327855E-01  0.295281E-01  0.264215E-01  0.235865E-01
  0.210876E-01  0.189441E-01  0.169768E-01  0.156824E-01  0.146435E-01  0.138300E-01
  0.132088E-01  0.127520E-01  0.124406E-01  0.122607E-01  0.122021E-01  0.122607E-01
  0.124406E-01  0.127520E-01  0.132088E-01  0.138300E-01  0.146435E-01  0.156824E-01
  0.169768E-01  0.185470E-01  0.204015E-01  0.225346E-01  0.249165E-01  0.274815E-01
  0.301229E-01  0.327008E-01  0.350597E-01  0.370511E-01  0.385541E-01  0.394858E-01
  0.398010E-01  0.394858E-01  0.385541E-01  0.370511E-01  0.350597E-01  0.327008E-01
  0.301229E-01  0.274815E-01  0.249165E-01  0.225346E-01  0.204015E-01  0.185470E-01
  0.169768E-01  0.153877E-01  0.145141E-01  0.138300E-01  0.133068E-01  0.129185E-01
  0.126455E-01  0.124737E-01  0.123915E-01  0.123915E-01  0.124737E-01  0.126455E-01
  0.129185E-01  0.133068E-01  0.138300E-01  0.145141E-01  0.153877E-01  0.164739E-01
  0.177851E-01  0.193208E-01  0.210656E-01  0.229837E-01  0.250130E-01  0.270636E-01
  0.290231E-01  0.307694E-01  0.321876E-01  0.331849E-01  0.336987E-01  0.336987E-01
  0.331849E-01  0.321876E-01  0.307694E-01  0.290231E-01  0.270636E-01  0.250130E-01
  0.229837E-01  0.210656E-01  0.193208E-01  0.177851E-01  0.164739E-01  0.153877E-01
  0.141361E-01  0.136066E-01  0.132088E-01  0.129185E-01  0.127157E-01  0.125849E-01
  0.125131E-01  0.124904E-01  0.125131E-01  0.125849E-01  0.127157E-01  0.129185E-01
  0.132088E-01  0.136066E-01  0.141361E-01  0.148213E-01  0.156798E-01  0.167181E-01
  0.179289E-01  0.192907E-01  0.207659E-01  0.222992E-01  0.238172E-01  0.252319E-01
  0.264504E-01  0.273873E-01  0.279766E-01  0.281776E-01  0.279766E-01  0.273873E-01
  0.264504E-01  0.252319E-01  0.238172E-01  0.222992E-01  0.207659E-01  0.192907E-01
  0.179289E-01  0.167181E-01  0.156798E-01  0.148213E-01  0.141361E-01  0.131774E-01
  0.129226E-01  0.127520E-01  0.126455E-01  0.125849E-01  0.125549E-01  0.125433E-01
  0.125433E-01  0.125549E-01  0.125849E-01  0.126455E-01  0.127520E-01  0.129226E-01
  0.131774E-01  0.135387E-01  0.140265E-01  0.146544E-01  0.154243E-01  0.163248E-01
  0.173318E-01  0.184095E-01  0.195108E-01  0.205769E-01  0.215410E-01  0.223351E-01
  0.229001E-01  0.231935E-01  0.231935E-01  0.229001E-01  0.223351E-01  0.215410E-01
  0.205769E-01  0.195108E-01  0.184095E-01  0.173318E-01  0.163248E-01  0.154243E-01
  0.146544E-01  0.140265E-01  0.135387E-01  0.131774E-01  0.124707E-01  0.124328E-01
  0.124406E-01  0.124737E-01  0.125131E-01  0.125433E-01  0.125545E-01  0.125433E-01
  0.125131E-01  0.124737E-01  0.124406E-01  0.124328E-01  0.124707E-01  0.125751E-01
  0.127660E-01  0.130606E-01  0.134690E-01  0.139899E-01  0.146102E-01  0.153064E-01
  0.160469E-01  0.167925E-01  0.174974E-01  0.181123E-01  0.185901E-01  0.188928E-01
  0.189963E-01  0.188928E-01  0.185901E-01  0.181123E-01  0.174974E-01  0.167925E-01
  0.160469E-01  0.153064E-01  0.146102E-01  0.139899E-01  0.134690E-01  0.130606E-01
  0.127660E-01  0.125751E-01  0.124707E-01  0.119857E-01  0.121178E-01  0.122607E-01
  0.123915E-01  0.124904E-01  0.125433E-01  0.125433E-01  0.124904E-01  0.123915E-01
  0.122607E-01  0.121178E-01  0.119857E-01  0.118868E-01  0.118424E-01  0.118711E-01
  0.119873E-01  0.121978E-01  0.124993E-01  0.128792E-01  0.133168E-01  0.137853E-01
  0.142532E-01  0.146856E-01  0.150472E-01  0.153069E-01  0.154425E-01  0.154425E-01
  0.153069E-01  0.150472E-01  0.146856E-01  0.142532E-01  0.137853E-01  0.133168E-01
  0.128792E-01  0.124993E-01  0.121978E-01  0.119873E-01  0.118711E-01  0.118424E-01
  0.118868E-01  0.119857E-01  0.117025E-01  0.119642E-01  0.122021E-01  0.123915E-01
  0.125131E-01  0.125549E-01  0.125131E-01  0.123915E-01  0.122021E-01  0.119642E-01
  0.117025E-01  0.114431E-01  0.112108E-01  0.110272E-01  0.109095E-01  0.108690E-01
  0.109095E-01  0.110272E-01  0.112108E-01  0.114431E-01  0.117025E-01  0.119642E-01
  0.122021E-01  0.123915E-01  0.125131E-01  0.125549E-01  0.125131E-01  0.123915E-01
  0.122021E-01  0.119642E-01  0.117025E-01  0.114431E-01  0.112108E-01  0.110272E-01
  0.109095E-01  0.108690E-01  0.109095E-01  0.110272E-01  0.112108E-01  0.114431E-01
  0.117025E-01  0.116095E-01  0.119642E-01  0.122607E-01  0.124737E-01  0.125849E-01
  0.125849E-01  0.124737E-01  0.122607E-01  0.119642E-01  0.116095E-01  0.112255E-01
  0.108418E-01  0.104851E-01  0.101769E-01  0.993257E-02  0.976028E-02  0.966180E-02
  0.963287E-02  0.966398E-02  0.974131E-02  0.984773E-02  0.996398E-02  0.100707E-01
  0.101512E-01  0.101942E-01  0.101942E-01  0.101512E-01  0.100707E-01  0.996398E-02
  0.984773E-02  0.974131E-02  0.966398E-02  0.963287E-02  0.966180E-02  0.976028E-02
  0.993257E-02  0.101769E-01  0.104851E-01  0.108418E-01  0.112255E-01  0.116095E-01
  0.117025E-01  0.121178E-01  0.124406E-01  0.126455E-01  0.127157E-01  0.126455E-01
  0.124406E-01  0.121178E-01  0.117025E-01  0.112255E-01  0.107203E-01  0.102192E-01
  0.975009E-02  0.933392E-02  0.898353E-02  0.870471E-02  0.849757E-02  0.835765E-02
  0.827676E-02  0.824357E-02  0.824434E-02  0.826403E-02  0.828859E-02  0.830734E-02
  0.831421E-02  0.830734E-02  0.828859E-02  0.826403E-02  0.824434E-02  0.824357E-02
  0.827676E-02  0.835765E-02  0.849757E-02  0.870471E-02  0.898353E-02  0.933392E-02
  0.975009E-02  0.102192E-01  0.107203E-01  0.112255E-01  0.117025E-01  0.119857E-01
  0.124328E-01  0.127520E-01  0.129185E-01  0.129185E-01  0.127520E-01  0.124328E-01
  0.119857E-01  0.114431E-01  0.108418E-01  0.102192E-01  0.960958E-02  0.904098E-02
  0.853268E-02  0.809547E-02  0.773329E-02  0.744496E-02  0.722561E-02  0.706753E-02
  0.696078E-02  0.689386E-02  0.685504E-02  0.683443E-02  0.682557E-02  0.682557E-02
  0.683443E-02  0.685504E-02  0.689386E-02  0.696078E-02  0.706753E-02  0.722561E-02
  0.744496E-02  0.773329E-02  0.809547E-02  0.853268E-02  0.904098E-02  0.960958E-02
  0.102192E-01  0.108418E-01  0.114431E-01  0.119857E-01  0.124707E-01  0.129226E-01
  0.132088E-01  0.133068E-01  0.132088E-01  0.129226E-01  0.124707E-01  0.118868E-01
  0.112108E-01  0.104851E-01  0.975009E-02  0.904098E-02  0.838449E-02  0.779810E-02
  0.729089E-02  0.686535E-02  0.651908E-02  0.624628E-02  0.603886E-02  0.588733E-02
  0.578174E-02  0.571299E-02  0.567428E-02  0.566177E-02  0.567428E-02  0.571299E-02
  0.578174E-02  0.588733E-02  0.603886E-02  0.624628E-02  0.651908E-02  0.686535E-02
  0.729089E-02  0.779810E-02  0.838449E-02  0.904098E-02  0.975009E-02  0.104851E-01
  0.112108E-01  0.118868E-01  0.124707E-01  0.131774E-01  0.136066E-01  0.138300E-01
  0.138300E-01  0.136066E-01  0.131774E-01  0.125751E-01  0.118424E-01  0.110272E-01
  0.101769E-01  0.933392E-02  0.853268E-02  0.779810E-02  0.714569E-02  0.658288E-02
  0.611065E-02  0.572503E-02  0.541874E-02  0.518272E-02  0.500756E-02  0.488453E-02
  0.480651E-02  0.476869E-02  0.476869E-02  0.480651E-02  0.488453E-02  0.500756E-02
  0.518272E-02  0.541874E-02  0.572503E-02  0.611065E-02  0.658288E-02  0.714569E-02
  0.779810E-02  0.853268E-02  0.933392E-02  0.101769E-01  0.110272E-01  0.118424E-01
  0.125751E-01  0.131774E-01  0.141361E-01  0.145141E-01  0.146435E-01  0.145141E-01
  0.141361E-01  0.135387E-01  0.127660E-01  0.118711E-01  0.109095E-01  0.993257E-02
  0.898353E-02  0.809547E-02  0.729089E-02  0.658288E-02  0.597671E-02  0.547127E-02
  0.506048E-02  0.473525E-02  0.448550E-02  0.430185E-02  0.417655E-02  0.410378E-02
  0.407994E-02  0.410378E-02  0.417655E-02  0.430185E-02  0.448550E-02  0.473525E-02
  0.506048E-02  0.547127E-02  0.597671E-02  0.658288E-02  0.729089E-02  0.809547E-02
  0.898353E-02  0.993257E-02  0.109095E-01  0.118711E-01  0.127660E-01  0.135387E-01
  0.141361E-01  0.153877E-01  0.156824E-01  0.156824E-01  0.153877E-01  0.148213E-01
  0.140265E-01  0.130606E-01  0.119873E-01  0.108690E-01  0.976028E-02  0.870471E-02
  0.773329E-02  0.686535E-02  0.611065E-02  0.547127E-02  0.494315E-02  0.451774E-02
  0.418416E-02  0.393153E-02  0.375052E-02  0.363398E-02  0.357699E-02  0.357699E-02
  0.363398E-02  0.375052E-02  0.393153E-02  0.418416E-02  0.451774E-02  0.494315E-02
  0.547127E-02  0.611065E-02  0.686535E-02  0.773329E-02  0.870471E-02  0.976028E-02
  0.108690E-01  0.119873E-01  0.130606E-01  0.140265E-01  0.148213E-01  0.153877E-01
  0.169768E-01  0.171491E-01  0.169768E-01  0.164739E-01  0.156798E-01  0.146544E-01
  0.134690E-01  0.121978E-01  0.109095E-01  0.966180E-02  0.849757E-02  0.744496E-02
  0.651908E-02  0.572503E-02  0.506048E-02  0.451774E-02  0.408568E-02  0.375193E-02
  0.350493E-02  0.333527E-02  0.323617E-02  0.320359E-02  0.323617E-02  0.333527E-02
  0.350493E-02  0.375193E-02  0.408568E-02  0.451774E-02  0.506048E-02  0.572503E-02
  0.651908E-02  0.744496E-02  0.849757E-02  0.966180E-02  0.109095E-01  0.121978E-01
  0.134690E-01  0.146544E-01  0.156798E-01  0.164739E-01  0.169768E-01  0.189441E-01
  0.189441E-01  0.185470E-01  0.177851E-01  0.167181E-01  0.154243E-01  0.139899E-01
  0.124993E-01  0.110272E-01  0.963287E-02  0.835765E-02  0.722561E-02  0.624628E-02
  0.541874E-02  0.473525E-02  0.418416E-02  0.375193E-02  0.342485E-02  0.319066E-02
  0.303974E-02  0.296580E-02  0.296580E-02  0.303974E-02  0.319066E-02  0.342485E-02
  0.375193E-02  0.418416E-02  0.473525E-02  0.541874E-02  0.624628E-02  0.722561E-02
  0.835765E-02  0.963287E-02  0.110272E-01  0.124993E-01  0.139899E-01  0.154243E-01
  0.167181E-01  0.177851E-01  0.185470E-01  0.189441E-01  0.213229E-01  0.210876E-01
  0.204015E-01  0.193208E-01  0.179289E-01  0.163248E-01  0.146102E-01  0.128792E-01
  0.112108E-01  0.966398E-02  0.827676E-02  0.706753E-02  0.603886E-02  0.518272E-02
  0.448550E-02  0.393153E-02  0.350493E-02  0.319066E-02  0.297573E-02  0.285053E-02
  0.280940E-02  0.285053E-02  0.297573E-02  0.319066E-02  0.350493E-02  0.393153E-02
  0.448550E-02  0.518272E-02  0.603886E-02  0.706753E-02  0.827676E-02  0.966398E-02
  0.112108E-01  0.128792E-01  0.146102E-01  0.163248E-01  0.179289E-01  0.193208E-01
  0.204015E-01  0.210876E-01  0.213229E-01  0.241357E-01  0.235865E-01  0.225346E-01
  0.210656E-01  0.192907E-01  0.173318E-01  0.153064E-01  0.133168E-01  0.114431E-01
  0.974131E-02  0.824357E-02  0.696078E-02  0.588733E-02  0.500756E-02  0.430185E-02
  0.375052E-02  0.333527E-02  0.303974E-02  0.285053E-02  0.275826E-02  0.275826E-02
  0.285053E-02  0.303974E-02  0.333527E-02  0.375052E-02  0.430185E-02  0.500756E-02
  0.588733E-02  0.696078E-02  0.824357E-02  0.974131E-02  0.114431E-01  0.133168E-01
  0.153064E-01  0.173318E-01  0.192907E-01  0.210656E-01  0.225346E-01  0.235865E-01
  0.241357E-01  0.241357E-01  0.273783E-01  0.264215E-01  0.249165E-01  0.229837E-01
  0.207659E-01  0.184095E-01  0.160469E-01  0.137853E-01  0.117025E-01  0.984773E-02
  0.824434E-02  0.689386E-02  0.578174E-02  0.488453E-02  0.417655E-02  0.363398E-02
  0.323617E-02  0.296580E-02  0.280940E-02  0.275826E-02  0.280940E-02  0.296580E-02
  0.323617E-02  0.363398E-02  0.417655E-02  0.488453E-02  0.578174E-02  0.689386E-02
  0.824434E-02  0.984773E-02  0.117025E-01  0.137853E-01  0.160469E-01  0.184095E-01
  0.207659E-01  0.229837E-01  0.249165E-01  0.264215E-01  0.273783E-01  0.277066E-01
  0.273783E-01  0.309936E-01  0.295281E-01  0.274815E-01  0.250130E-01  0.222992E-01
  0.195108E-01  0.167925E-01  0.142532E-01  0.119642E-01  0.996398E-02  0.826403E-02
  0.685504E-02  0.571299E-02  0.480651E-02  0.410378E-02  0.357699E-02  0.320359E-02
  0.296580E-02  0.285053E-02  0.285053E-02  0.296580E-02  0.320359E-02  0.357699E-02
  0.410378E-02  0.480651E-02  0.571299E-02  0.685504E-02  0.826403E-02  0.996398E-02
  0.119642E-01  0.142532E-01  0.167925E-01  0.195108E-01  0.222992E-01  0.250130E-01
  0.274815E-01  0.295281E-01  0.309936E-01  0.317585E-01  0.317585E-01  0.309936E-01
  0.348526E-01  0.327855E-01  0.301229E-01  0.270636E-01  0.238172E-01  0.205769E-01
  0.174974E-01  0.146856E-01  0.122021E-01  0.100707E-01  0.828859E-02  0.683443E-02
  0.567428E-02  0.476869E-02  0.407994E-02  0.357699E-02  0.323617E-02  0.303974E-02
  0.297573E-02  0.303974E-02  0.323617E-02  0.357699E-02  0.407994E-02  0.476869E-02
  0.567428E-02  0.683443E-02  0.828859E-02  0.100707E-01  0.122021E-01  0.146856E-01
  0.174974E-01  0.205769E-01  0.238172E-01  0.270636E-01  0.301229E-01  0.327855E-01
  0.348526E-01  0.361630E-01  0.366118E-01  0.361630E-01  0.348526E-01  0.387577E-01
  0.360244E-01  0.327008E-01  0.290231E-01  0.252319E-01  0.215410E-01  0.181123E-01
  0.150472E-01  0.123915E-01  0.101512E-01  0.830734E-02  0.682557E-02  0.566177E-02
  0.476869E-02  0.410378E-02  0.363398E-02  0.333527E-02  0.319066E-02  0.319066E-02
  0.333527E-02  0.363398E-02  0.410378E-02  0.476869E-02  0.566177E-02  0.682557E-02
  0.830734E-02  0.101512E-01  0.123915E-01  0.150472E-01  0.181123E-01  0.215410E-01
  0.252319E-01  0.290231E-01  0.327008E-01  0.360244E-01  0.387577E-01  0.407002E-01
  0.417085E-01  0.417085E-01  0.407002E-01  0.387577E-01  0.424704E-01  0.390504E-01
  0.350597E-01  0.307694E-01  0.264504E-01  0.223351E-01  0.185901E-01  0.153069E-01
  0.125131E-01  0.101942E-01  0.831421E-02  0.682557E-02  0.567428E-02  0.480651E-02
  0.417655E-02  0.375052E-02  0.350493E-02  0.342485E-02  0.350493E-02  0.375052E-02
  0.417655E-02  0.480651E-02  0.567428E-02  0.682557E-02  0.831421E-02  0.101942E-01
  0.125131E-01  0.153069E-01  0.185901E-01  0.223351E-01  0.264504E-01  0.307694E-01
  0.350597E-01  0.390504E-01  0.424704E-01  0.450852E-01  0.467221E-01  0.472789E-01
  0.467221E-01  0.450852E-01  0.424704E-01  0.457528E-01  0.416756E-01  0.370511E-01
  0.321876E-01  0.273873E-01  0.229001E-01  0.188928E-01  0.154425E-01  0.125549E-01
  0.101942E-01  0.830734E-02  0.683443E-02  0.571299E-02  0.488453E-02  0.430185E-02
  0.393153E-02  0.375193E-02  0.375193E-02  0.393153E-02  0.430185E-02  0.488453E-02
  0.571299E-02  0.683443E-02  0.830734E-02  0.101942E-01  0.125549E-01  0.154425E-01
  0.188928E-01  0.229001E-01  0.273873E-01  0.321876E-01  0.370511E-01  0.416756E-01
  0.457528E-01  0.490175E-01  0.512805E-01  0.524341E-01  0.524341E-01  0.512805E-01
  0.490175E-01  0.457528E-01  0.484132E-01  0.437480E-01  0.385541E-01  0.331849E-01
  0.279766E-01  0.231935E-01  0.189963E-01  0.154425E-01  0.125131E-01  0.101512E-01
  0.828859E-02  0.685504E-02  0.578174E-02  0.500756E-02  0.448550E-02  0.418416E-02
  0.408568E-02  0.418416E-02  0.448550E-02  0.500756E-02  0.578174E-02  0.685504E-02
  0.828859E-02  0.101512E-01  0.125131E-01  0.154425E-01  0.189963E-01  0.231935E-01
  0.279766E-01  0.331849E-01  0.385541E-01  0.437480E-01  0.484132E-01  0.522465E-01
  0.550493E-01  0.567368E-01  0.572976E-01  0.567368E-01  0.550493E-01  0.522465E-01
  0.484132E-01  0.503363E-01  0.451683E-01  0.394858E-01  0.336987E-01  0.281776E-01
  0.231935E-01  0.188928E-01  0.153069E-01  0.123915E-01  0.100707E-01  0.826403E-02
  0.689386E-02  0.588733E-02  0.518272E-02  0.473525E-02  0.451774E-02  0.451774E-02
  0.473525E-02  0.518272E-02  0.588733E-02  0.689386E-02  0.826403E-02  0.100707E-01
  0.123915E-01  0.153069E-01  0.188928E-01  0.231935E-01  0.281776E-01  0.336987E-01
  0.394858E-01  0.451683E-01  0.503363E-01  0.546304E-01  0.578306E-01  0.598902E-01
  0.608806E-01  0.608806E-01  0.598902E-01  0.578306E-01  0.546304E-01  0.503363E-01
  0.514845E-01  0.458868E-01  0.398010E-01  0.336987E-01  0.279766E-01  0.229001E-01
  0.185901E-01  0.150472E-01  0.122021E-01  0.996398E-02  0.824434E-02  0.696078E-02
  0.603886E-02  0.541874E-02  0.506048E-02  0.494315E-02  0.506048E-02  0.541874E-02
  0.603886E-02  0.696078E-02  0.824434E-02  0.996398E-02  0.122021E-01  0.150472E-01
  0.185901E-01  0.229001E-01  0.279766E-01  0.336987E-01  0.398010E-01  0.458868E-01
  0.514845E-01  0.561538E-01  0.596200E-01  0.618579E-01  0.630464E-01  0.634098E-01
  0.630464E-01  0.618579E-01  0.596200E-01  0.561538E-01  0.514845E-01  0.518644E-01
  0.458868E-01  0.394858E-01  0.331849E-01  0.273873E-01  0.223351E-01  0.181123E-01
  0.146856E-01  0.119642E-01  0.984773E-02  0.824357E-02  0.706753E-02  0.624628E-02
  0.572503E-02  0.547127E-02  0.547127E-02  0.572503E-02  0.624628E-02  0.706753E-02
  0.824357E-02  0.984773E-02  0.119642E-01  0.146856E-01  0.181123E-01  0.223351E-01
  0.273873E-01  0.331849E-01  0.394858E-01  0.458868E-01  0.518644E-01  0.568829E-01
  0.605687E-01  0.628642E-01  0.640315E-01  0.644719E-01  0.644719E-01  0.640315E-01
  0.628642E-01  0.605687E-01  0.568829E-01  0.518644E-01  0.514845E-01  0.451683E-01
  0.385541E-01  0.321876E-01  0.264504E-01  0.215410E-01  0.174974E-01  0.142532E-01
  0.117025E-01  0.974131E-02  0.827676E-02  0.722561E-02  0.651908E-02  0.611065E-02
  0.597671E-02  0.611065E-02  0.651908E-02  0.722561E-02  0.827676E-02  0.974131E-02
  0.117025E-01  0.142532E-01  0.174974E-01  0.215410E-01  0.264504E-01  0.321876E-01
  0.385541E-01  0.451683E-01  0.514845E-01  0.568829E-01  0.608584E-01  0.632468E-01
  0.643148E-01  0.646071E-01  0.646360E-01  0.646071E-01  0.643148E-01  0.632468E-01
  0.608584E-01  0.568829E-01  0.514845E-01  0.503363E-01  0.437480E-01  0.370511E-01
  0.307694E-01  0.252319E-01  0.205769E-01  0.167925E-01  0.137853E-01  0.114431E-01
  0.966398E-02  0.835765E-02  0.744496E-02  0.686535E-02  0.658288E-02  0.658288E-02
  0.686535E-02  0.744496E-02  0.835765E-02  0.966398E-02  0.114431E-01  0.137853E-01
  0.167925E-01  0.205769E-01  0.252319E-01  0.307694E-01  0.370511E-01  0.437480E-01
  0.503363E-01  0.561538E-01  0.605687E-01  0.632468E-01  0.643485E-01  0.644628E-01
  0.642914E-01  0.642914E-01  0.644628E-01  0.643485E-01  0.632468E-01  0.605687E-01
  0.561538E-01  0.503363E-01  0.484132E-01  0.416756E-01  0.350597E-01  0.290231E-01
  0.238172E-01  0.195108E-01  0.160469E-01  0.133168E-01  0.112108E-01  0.963287E-02
  0.849757E-02  0.773329E-02  0.729089E-02  0.714569E-02  0.729089E-02  0.773329E-02
  0.849757E-02  0.963287E-02  0.112108E-01  0.133168E-01  0.160469E-01  0.195108E-01
  0.238172E-01  0.290231E-01  0.350597E-01  0.416756E-01  0.484132E-01  0.546304E-01
  0.596200E-01  0.628642E-01  0.643148E-01  0.644628E-01  0.640920E-01  0.638809E-01
  0.640920E-01  0.644628E-01  0.643148E-01  0.628642E-01  0.596200E-01  0.546304E-01
  0.484132E-01  0.457528E-01  0.390504E-01  0.327008E-01  0.270636E-01  0.222992E-01
  0.184095E-01  0.153064E-01  0.128792E-01  0.110272E-01  0.966180E-02  0.870471E-02
  0.809547E-02  0.779810E-02  0.779810E-02  0.809547E-02  0.870471E-02  0.966180E-02
  0.110272E-01  0.128792E-01  0.153064E-01  0.184095E-01  0.222992E-01  0.270636E-01
  0.327008E-01  0.390504E-01  0.457528E-01  0.522465E-01  0.578306E-01  0.618579E-01
  0.640315E-01  0.646071E-01  0.642914E-01  0.638809E-01  0.638809E-01  0.642914E-01
  0.646071E-01  0.640315E-01  0.618579E-01  0.578306E-01  0.522465E-01  0.457528E-01
  0.424704E-01  0.360244E-01  0.301229E-01  0.250130E-01  0.207659E-01  0.173318E-01
  0.146102E-01  0.124993E-01  0.109095E-01  0.976028E-02  0.898353E-02  0.853268E-02
  0.838449E-02  0.853268E-02  0.898353E-02  0.976028E-02  0.109095E-01  0.124993E-01
  0.146102E-01  0.173318E-01  0.207659E-01  0.250130E-01  0.301229E-01  0.360244E-01
  0.424704E-01  0.490175E-01  0.550493E-01  0.598902E-01  0.630464E-01  0.644719E-01
  0.646360E-01  0.642914E-01  0.640920E-01  0.642914E-01  0.646360E-01  0.644719E-01
  0.630464E-01  0.598902E-01  0.550493E-01  0.490175E-01  0.424704E-01  0.387577E-01
  0.327855E-01  0.274815E-01  0.229837E-01  0.192907E-01  0.163248E-01  0.139899E-01
  0.121978E-01  0.108690E-01  0.993257E-02  0.933392E-02  0.904098E-02  0.904098E-02
  0.933392E-02  0.993257E-02  0.108690E-01  0.121978E-01  0.139899E-01  0.163248E-01
  0.192907E-01  0.229837E-01  0.274815E-01  0.327855E-01  0.387577E-01  0.450852E-01
  0.512805E-01  0.567368E-01  0.608806E-01  0.634098E-01  0.644719E-01  0.646071E-01
  0.644628E-01  0.644628E-01  0.646071E-01  0.644719E-01  0.634098E-01  0.608806E-01
  0.567368E-01  0.512805E-01  0.450852E-01  0.387577E-01  0.348526E-01  0.295281E-01
  0.249165E-01  0.210656E-01  0.179289E-01  0.154243E-01  0.134690E-01  0.119873E-01
  0.109095E-01  0.101769E-01  0.975009E-02  0.960958E-02  0.975009E-02  0.101769E-01
  0.109095E-01  0.119873E-01  0.134690E-01  0.154243E-01  0.179289E-01  0.210656E-01
  0.249165E-01  0.295281E-01  0.348526E-01  0.407002E-01  0.467221E-01  0.524341E-01
  0.572976E-01  0.608806E-01  0.630464E-01  0.640315E-01  0.643148E-01  0.643485E-01
  0.643148E-01  0.640315E-01  0.630464E-01  0.608806E-01  0.572976E-01  0.524341E-01
  0.467221E-01  0.407002E-01  0.348526E-01  0.309936E-01  0.264215E-01  0.225346E-01
  0.193208E-01  0.167181E-01  0.146544E-01  0.130606E-01  0.118711E-01  0.110272E-01
  0.104851E-01  0.102192E-01  0.102192E-01  0.104851E-01  0.110272E-01  0.118711E-01
  0.130606E-01  0.146544E-01  0.167181E-01  0.193208E-01  0.225346E-01  0.264215E-01
  0.309936E-01  0.361630E-01  0.417085E-01  0.472789E-01  0.524341E-01  0.567368E-01
  0.598902E-01  0.618579E-01  0.628642E-01  0.632468E-01  0.632468E-01  0.628642E-01
  0.618579E-01  0.598902E-01  0.567368E-01  0.524341E-01  0.472789E-01  0.417085E-01
  0.361630E-01  0.309936E-01  0.273783E-01  0.235865E-01  0.204015E-01  0.177851E-01
  0.156798E-01  0.140265E-01  0.127660E-01  0.118424E-01  0.112108E-01  0.108418E-01
  0.107203E-01  0.108418E-01  0.112108E-01  0.118424E-01  0.127660E-01  0.140265E-01
  0.156798E-01  0.177851E-01  0.204015E-01  0.235865E-01  0.273783E-01  0.317585E-01
  0.366118E-01  0.417085E-01  0.467221E-01  0.512805E-01  0.550493E-01  0.578306E-01
  0.596200E-01  0.605687E-01  0.608584E-01  0.605687E-01  0.596200E-01  0.578306E-01
  0.550493E-01  0.512805E-01  0.467221E-01  0.417085E-01  0.366118E-01  0.317585E-01
  0.273783E-01  0.241357E-01  0.210876E-01  0.185470E-01  0.164739E-01  0.148213E-01
  0.135387E-01  0.125751E-01  0.118868E-01  0.114431E-01  0.112255E-01  0.112255E-01
  0.114431E-01  0.118868E-01  0.125751E-01  0.135387E-01  0.148213E-01  0.164739E-01
  0.185470E-01  0.210876E-01  0.241357E-01  0.277066E-01  0.317585E-01  0.361630E-01
  0.407002E-01  0.450852E-01  0.490175E-01  0.522465E-01  0.546304E-01  0.561538E-01
  0.568829E-01  0.568829E-01  0.561538E-01  0.546304E-01  0.522465E-01  0.490175E-01
  0.450852E-01  0.407002E-01  0.361630E-01  0.317585E-01  0.277066E-01  0.241357E-01
  0.213229E-01  0.189441E-01  0.169768E-01  0.153877E-01  0.141361E-01  0.131774E-01
  0.124707E-01  0.119857E-01  0.117025E-01  0.116095E-01  0.117025E-01  0.119857E-01
  0.124707E-01  0.131774E-01  0.141361E-01  0.153877E-01  0.169768E-01  0.189441E-01
  0.213229E-01  0.241357E-01  0.273783E-01  0.309936E-01  0.348526E-01  0.387577E-01
  0.424704E-01  0.457528E-01  0.484132E-01  0.503363E-01  0.514845E-01  0.518644E-01
  0.514845E-01  0.503363E-01  0.484132E-01  0.457528E-01  0.424704E-01  0.387577E-01
  0.348526E-01  0.309936E-01  0.273783E-01  0.241357E-01  0.213229E-01  0.225592E-01
  0.204255E-01  0.186802E-01  0.172879E-01  0.162071E-01  0.153943E-01  0.148127E-01
  0.144373E-01  0.142532E-01  0.142532E-01  0.144373E-01  0.148127E-01  0.153943E-01
  0.162071E-01  0.172879E-01  0.186802E-01  0.204255E-01  0.225592E-01  0.251089E-01
  0.280818E-01  0.314366E-01  0.350585E-01  0.387577E-01  0.422971E-01  0.454365E-01
  0.479848E-01  0.498431E-01  0.510155E-01  0.515706E-01  0.515706E-01  0.510155E-01
  0.498431E-01  0.479848E-01  0.454365E-01  0.422971E-01  0.387577E-01  0.350585E-01
  0.314366E-01  0.280818E-01  0.251089E-01  0.225592E-01  0.204255E-01  0.188712E-01
  0.176214E-01  0.166430E-01  0.158974E-01  0.153496E-01  0.149749E-01  0.147570E-01
  0.146856E-01  0.147570E-01  0.149749E-01  0.153496E-01  0.158974E-01  0.166430E-01
  0.176214E-01  0.188712E-01  0.204255E-01  0.223085E-01  0.245344E-01  0.270961E-01
  0.299446E-01  0.329736E-01  0.360244E-01  0.389104E-01  0.414504E-01  0.435011E-01
  0.449788E-01  0.458587E-01  0.461493E-01  0.458587E-01  0.449788E-01  0.435011E-01
  0.414504E-01  0.389104E-01  0.360244E-01  0.329736E-01  0.299446E-01  0.270961E-01
  0.245344E-01  0.223085E-01  0.204255E-01  0.186802E-01  0.176214E-01  0.167923E-01
  0.161595E-01  0.156899E-01  0.153585E-01  0.151483E-01  0.150472E-01  0.150472E-01
  0.151483E-01  0.153585E-01  0.156899E-01  0.161595E-01  0.167923E-01  0.176214E-01
  0.186802E-01  0.199941E-01  0.215780E-01  0.234348E-01  0.255469E-01  0.278629E-01
  0.302900E-01  0.327008E-01  0.349512E-01  0.369025E-01  0.384425E-01  0.394975E-01
  0.400311E-01  0.400311E-01  0.394975E-01  0.384425E-01  0.369025E-01  0.349512E-01
  0.327008E-01  0.302900E-01  0.278629E-01  0.255469E-01  0.234348E-01  0.215780E-01
  0.199941E-01  0.186802E-01  0.172879E-01  0.166430E-01  0.161595E-01  0.158065E-01
  0.155583E-01  0.153965E-01  0.153069E-01  0.152786E-01  0.153069E-01  0.153965E-01
  0.155583E-01  0.158065E-01  0.161595E-01  0.166430E-01  0.172879E-01  0.181228E-01
  0.191670E-01  0.204283E-01  0.219006E-01  0.235593E-01  0.253543E-01  0.272087E-01
  0.290231E-01  0.306875E-01  0.320957E-01  0.331601E-01  0.338203E-01  0.340437E-01
  0.338203E-01  0.331601E-01  0.320957E-01  0.306875E-01  0.290231E-01  0.272087E-01
  0.253543E-01  0.235593E-01  0.219006E-01  0.204283E-01  0.191670E-01  0.181228E-01
  0.172879E-01  0.162071E-01  0.158974E-01  0.156899E-01  0.155583E-01  0.154815E-01
  0.154425E-01  0.154274E-01  0.154274E-01  0.154425E-01  0.154815E-01  0.155583E-01
  0.156899E-01  0.158974E-01  0.162071E-01  0.166476E-01  0.172436E-01  0.180100E-01
  0.189493E-01  0.200490E-01  0.212807E-01  0.225987E-01  0.239410E-01  0.252319E-01
  0.263889E-01  0.273325E-01  0.279978E-01  0.283411E-01  0.283411E-01  0.279978E-01
  0.273325E-01  0.263889E-01  0.252319E-01  0.239410E-01  0.225987E-01  0.212807E-01
  0.200490E-01  0.189493E-01  0.180100E-01  0.172436E-01  0.166476E-01  0.162071E-01
  0.153943E-01  0.153496E-01  0.153585E-01  0.153965E-01  0.154425E-01  0.154786E-01
  0.154922E-01  0.154786E-01  0.154425E-01  0.153965E-01  0.153585E-01  0.153496E-01
  0.153943E-01  0.155190E-01  0.157502E-01  0.161097E-01  0.166093E-01  0.172475E-01
  0.180079E-01  0.188616E-01  0.197689E-01  0.206810E-01  0.215410E-01  0.222884E-01
  0.228670E-01  0.232322E-01  0.233570E-01  0.232322E-01  0.228670E-01  0.222884E-01
  0.215410E-01  0.206810E-01  0.197689E-01  0.188616E-01  0.180079E-01  0.172475E-01
  0.166093E-01  0.161097E-01  0.157502E-01  0.155190E-01  0.153943E-01  0.148127E-01
  0.149749E-01  0.151483E-01  0.153069E-01  0.154274E-01  0.154922E-01  0.154922E-01
  0.154274E-01  0.153069E-01  0.151483E-01  0.149749E-01  0.148127E-01  0.146890E-01
  0.146302E-01  0.146613E-01  0.148014E-01  0.150598E-01  0.154318E-01  0.159000E-01
  0.164378E-01  0.170118E-01  0.175840E-01  0.181123E-01  0.185540E-01  0.188713E-01
  0.190369E-01  0.190369E-01  0.188713E-01  0.185540E-01  0.181123E-01  0.175840E-01
  0.170118E-01  0.164378E-01  0.159000E-01  0.154318E-01  0.150598E-01  0.148014E-01
  0.146613E-01  0.146302E-01  0.146890E-01  0.148127E-01  0.144373E-01  0.147570E-01
  0.150472E-01  0.152786E-01  0.154274E-01  0.154786E-01  0.154274E-01  0.152786E-01
  0.150472E-01  0.147570E-01  0.144373E-01  0.141192E-01  0.138319E-01  0.136023E-01
  0.134535E-01  0.134019E-01  0.134535E-01  0.136023E-01  0.138319E-01  0.141192E-01
  0.144373E-01  0.147570E-01  0.150472E-01  0.152786E-01  0.154274E-01  0.154786E-01
  0.154274E-01  0.152786E-01  0.150472E-01  0.147570E-01  0.144373E-01  0.141192E-01
  0.138319E-01  0.136023E-01  0.134535E-01  0.134019E-01  0.134535E-01  0.136023E-01
  0.138319E-01  0.141192E-01  0.144373E-01  0.142532E-01  0.146856E-01  0.150472E-01
  0.153069E-01  0.154425E-01  0.154425E-01  0.153069E-01  0.150472E-01  0.146856E-01
  0.142532E-01  0.137853E-01  0.133168E-01  0.128792E-01  0.124993E-01  0.121978E-01
  0.119873E-01  0.118711E-01  0.118424E-01  0.118868E-01  0.119857E-01  0.121178E-01
  0.122607E-01  0.123915E-01  0.124904E-01  0.125433E-01  0.125433E-01  0.124904E-01
  0.123915E-01  0.122607E-01  0.121178E-01  0.119857E-01  0.118868E-01  0.118424E-01
  0.118711E-01  0.119873E-01  0.121978E-01  0.124993E-01  0.128792E-01  0.133168E-01
  0.137853E-01  0.142532E-01  0.142532E-01  0.147570E-01  0.151483E-01  0.153965E-01
  0.154815E-01  0.153965E-01  0.151483E-01  0.147570E-01  0.142532E-01  0.136752E-01
  0.130634E-01  0.124563E-01  0.118869E-01  0.113810E-01  0.109561E-01  0.106209E-01
  0.103757E-01  0.102135E-01  0.101223E-01  0.100874E-01  0.100922E-01  0.101191E-01
  0.101512E-01  0.101755E-01  0.101844E-01  0.101755E-01  0.101512E-01  0.101191E-01
  0.100922E-01  0.100874E-01  0.101223E-01  0.102135E-01  0.103757E-01  0.106209E-01
  0.109561E-01  0.113810E-01  0.118869E-01  0.124563E-01  0.130634E-01  0.136752E-01
  0.142532E-01  0.144373E-01  0.149749E-01  0.153585E-01  0.155583E-01  0.155583E-01
  0.153585E-01  0.149749E-01  0.144373E-01  0.137853E-01  0.130634E-01  0.123167E-01
  0.115863E-01  0.109055E-01  0.102980E-01  0.977755E-02  0.934907E-02  0.901037E-02
  0.875431E-02  0.857080E-02  0.844791E-02  0.837211E-02  0.832931E-02  0.830734E-02
  0.829815E-02  0.829815E-02  0.830734E-02  0.832931E-02  0.837211E-02  0.844791E-02
  0.857080E-02  0.875431E-02  0.901037E-02  0.934907E-02  0.977755E-02  0.102980E-01
  0.109055E-01  0.115863E-01  0.123167E-01  0.130634E-01  0.137853E-01  0.144373E-01
  0.148127E-01  0.153496E-01  0.156899E-01  0.158065E-01  0.156899E-01  0.153496E-01
  0.148127E-01  0.141192E-01  0.133168E-01  0.124563E-01  0.115863E-01  0.107489E-01
  0.997613E-02  0.928862E-02  0.869654E-02  0.820161E-02  0.779965E-02  0.748316E-02
  0.724288E-02  0.706820E-02  0.694743E-02  0.686938E-02  0.682557E-02  0.681141E-02
  0.682557E-02  0.686938E-02  0.694743E-02  0.706820E-02  0.724288E-02  0.748316E-02
  0.779965E-02  0.820161E-02  0.869654E-02  0.928862E-02  0.997613E-02  0.107489E-01
  0.115863E-01  0.124563E-01  0.133168E-01  0.141192E-01  0.148127E-01  0.153943E-01
  0.158974E-01  0.161595E-01  0.161595E-01  0.158974E-01  0.153943E-01  0.146890E-01
  0.138319E-01  0.128792E-01  0.118869E-01  0.109055E-01  0.997613E-02  0.912794E-02
  0.837818E-02  0.773381E-02  0.719398E-02  0.675291E-02  0.640224E-02  0.613237E-02
  0.593285E-02  0.579324E-02  0.570477E-02  0.566177E-02  0.566177E-02  0.570477E-02
  0.579324E-02  0.593285E-02  0.613237E-02  0.640224E-02  0.675291E-02  0.719398E-02
  0.773381E-02  0.837818E-02  0.912794E-02  0.997613E-02  0.109055E-01  0.118869E-01
  0.128792E-01  0.138319E-01  0.146890E-01  0.153943E-01  0.162071E-01  0.166430E-01
  0.167923E-01  0.166430E-01  0.162071E-01  0.155190E-01  0.146302E-01  0.136023E-01
  0.124993E-01  0.113810E-01  0.102980E-01  0.928862E-02  0.837818E-02  0.758025E-02
  0.689880E-02  0.633084E-02  0.586892E-02  0.550322E-02  0.522294E-02  0.501737E-02
  0.487716E-02  0.479552E-02  0.476869E-02  0.479552E-02  0.487716E-02  0.501737E-02
  0.522294E-02  0.550322E-02  0.586892E-02  0.633084E-02  0.689880E-02  0.758025E-02
  0.837818E-02  0.928862E-02  0.102980E-01  0.113810E-01  0.124993E-01  0.136023E-01
  0.146302E-01  0.155190E-01  0.162071E-01  0.172879E-01  0.176214E-01  0.176214E-01
  0.172879E-01  0.166476E-01  0.157502E-01  0.146613E-01  0.134535E-01  0.121978E-01
  0.109561E-01  0.977755E-02  0.869654E-02  0.773381E-02  0.689880E-02  0.619237E-02
  0.560915E-02  0.513959E-02  0.477193E-02  0.449404E-02  0.429508E-02  0.416675E-02
  0.410378E-02  0.410378E-02  0.416675E-02  0.429508E-02  0.449404E-02  0.477193E-02
  0.513959E-02  0.560915E-02  0.619237E-02  0.689880E-02  0.773381E-02  0.869654E-02
  0.977755E-02  0.109561E-01  0.121978E-01  0.134535E-01  0.146613E-01  0.157502E-01
  0.166476E-01  0.172879E-01  0.186802E-01  0.188712E-01  0.186802E-01  0.181228E-01
  0.172436E-01  0.161097E-01  0.148014E-01  0.134019E-01  0.119873E-01  0.106209E-01
  0.934907E-02  0.820161E-02  0.719398E-02  0.633084E-02  0.560915E-02  0.502040E-02
  0.455246E-02  0.419164E-02  0.392483E-02  0.374139E-02  0.363398E-02  0.359859E-02
  0.363398E-02  0.374139E-02  0.392483E-02  0.419164E-02  0.455246E-02  0.502040E-02
  0.560915E-02  0.633084E-02  0.719398E-02  0.820161E-02  0.934907E-02  0.106209E-01
  0.119873E-01  0.134019E-01  0.148014E-01  0.161097E-01  0.172436E-01  0.181228E-01
  0.186802E-01  0.204255E-01  0.204255E-01  0.199941E-01  0.191670E-01  0.180100E-01
  0.166093E-01  0.150598E-01  0.134535E-01  0.118711E-01  0.103757E-01  0.901037E-02
  0.779965E-02  0.675291E-02  0.586892E-02  0.513959E-02  0.455246E-02  0.409270E-02
  0.374508E-02  0.349603E-02  0.333527E-02  0.325636E-02  0.325636E-02  0.333527E-02
  0.349603E-02  0.374508E-02  0.409270E-02  0.455246E-02  0.513959E-02  0.586892E-02
  0.675291E-02  0.779965E-02  0.901037E-02  0.103757E-01  0.118711E-01  0.134535E-01
  0.150598E-01  0.166093E-01  0.180100E-01  0.191670E-01  0.199941E-01  0.204255E-01
  0.225592E-01  0.223085E-01  0.215780E-01  0.204283E-01  0.189493E-01  0.172475E-01
  0.154318E-01  0.136023E-01  0.118424E-01  0.102135E-01  0.875431E-02  0.748316E-02
  0.640224E-02  0.550322E-02  0.477193E-02  0.419164E-02  0.374508E-02  0.341598E-02
  0.319066E-02  0.305923E-02  0.301601E-02  0.305923E-02  0.319066E-02  0.341598E-02
  0.374508E-02  0.419164E-02  0.477193E-02  0.550322E-02  0.640224E-02  0.748316E-02
  0.875431E-02  0.102135E-01  0.118424E-01  0.136023E-01  0.154318E-01  0.172475E-01
  0.189493E-01  0.204283E-01  0.215780E-01  0.223085E-01  0.225592E-01  0.251089E-01
  0.245344E-01  0.234348E-01  0.219006E-01  0.200490E-01  0.180079E-01  0.159000E-01
  0.138319E-01  0.118868E-01  0.101223E-01  0.857080E-02  0.724288E-02  0.613237E-02
  0.522294E-02  0.449404E-02  0.392483E-02  0.349603E-02  0.319066E-02  0.299501E-02
  0.289958E-02  0.289958E-02  0.299501E-02  0.319066E-02  0.349603E-02  0.392483E-02
  0.449404E-02  0.522294E-02  0.613237E-02  0.724288E-02  0.857080E-02  0.101223E-01
  0.118868E-01  0.138319E-01  0.159000E-01  0.180079E-01  0.200490E-01  0.219006E-01
  0.234348E-01  0.245344E-01  0.251089E-01  0.251089E-01  0.280818E-01  0.270961E-01
  0.255469E-01  0.235593E-01  0.212807E-01  0.188616E-01  0.164378E-01  0.141192E-01
  0.119857E-01  0.100874E-01  0.844791E-02  0.706820E-02  0.593285E-02  0.501737E-02
  0.429508E-02  0.374139E-02  0.333527E-02  0.305923E-02  0.289958E-02  0.284741E-02
  0.289958E-02  0.305923E-02  0.333527E-02  0.374139E-02  0.429508E-02  0.501737E-02
  0.593285E-02  0.706820E-02  0.844791E-02  0.100874E-01  0.119857E-01  0.141192E-01
  0.164378E-01  0.188616E-01  0.212807E-01  0.235593E-01  0.255469E-01  0.270961E-01
  0.280818E-01  0.284202E-01  0.280818E-01  0.314366E-01  0.299446E-01  0.278629E-01
  0.253543E-01  0.225987E-01  0.197689E-01  0.170118E-01  0.144373E-01  0.121178E-01
  0.100922E-01  0.837211E-02  0.694743E-02  0.579324E-02  0.487716E-02  0.416675E-02
  0.363398E-02  0.325636E-02  0.301601E-02  0.289958E-02  0.289958E-02  0.301601E-02
  0.325636E-02  0.363398E-02  0.416675E-02  0.487716E-02  0.579324E-02  0.694743E-02
  0.837211E-02  0.100922E-01  0.121178E-01  0.144373E-01  0.170118E-01  0.197689E-01
  0.225987E-01  0.253543E-01  0.278629E-01  0.299446E-01  0.314366E-01  0.322157E-01
  0.322157E-01  0.314366E-01  0.350585E-01  0.329736E-01  0.302900E-01  0.272087E-01
  0.239410E-01  0.206810E-01  0.175840E-01  0.147570E-01  0.122607E-01  0.101191E-01
  0.832931E-02  0.686938E-02  0.570477E-02  0.479552E-02  0.410378E-02  0.359859E-02
  0.325636E-02  0.305923E-02  0.299501E-02  0.305923E-02  0.325636E-02  0.359859E-02
  0.410378E-02  0.479552E-02  0.570477E-02  0.686938E-02  0.832931E-02  0.101191E-01
  0.122607E-01  0.147570E-01  0.175840E-01  0.206810E-01  0.239410E-01  0.272087E-01
  0.302900E-01  0.329736E-01  0.350585E-01  0.363807E-01  0.368338E-01  0.363807E-01
  0.350585E-01  0.387577E-01  0.360244E-01  0.327008E-01  0.290231E-01  0.252319E-01
  0.215410E-01  0.181123E-01  0.150472E-01  0.123915E-01  0.101512E-01  0.830734E-02
  0.682557E-02  0.566177E-02  0.476869E-02  0.410378E-02  0.363398E-02  0.333527E-02
  0.319066E-02  0.319066E-02  0.333527E-02  0.363398E-02  0.410378E-02  0.476869E-02
  0.566177E-02  0.682557E-02  0.830734E-02  0.101512E-01  0.123915E-01  0.150472E-01
  0.181123E-01  0.215410E-01  0.252319E-01  0.290231E-01  0.327008E-01  0.360244E-01
  0.387577E-01  0.407002E-01  0.417085E-01  0.417085E-01  0.407002E-01  0.387577E-01
  0.422971E-01  0.389104E-01  0.349512E-01  0.306875E-01  0.263889E-01  0.222884E-01
  0.185540E-01  0.152786E-01  0.124904E-01  0.101755E-01  0.829815E-02  0.681141E-02
  0.566177E-02  0.479552E-02  0.416675E-02  0.374139E-02  0.349603E-02  0.341598E-02
  0.349603E-02  0.374139E-02  0.416675E-02  0.479552E-02  0.566177E-02  0.681141E-02
  0.829815E-02  0.101755E-01  0.124904E-01  0.152786E-01  0.185540E-01  0.222884E-01
  0.263889E-01  0.306875E-01  0.349512E-01  0.389104E-01  0.422971E-01  0.448819E-01
  0.464977E-01  0.470469E-01  0.464977E-01  0.448819E-01  0.422971E-01  0.454365E-01
  0.414504E-01  0.369025E-01  0.320957E-01  0.273325E-01  0.228670E-01  0.188713E-01
  0.154274E-01  0.125433E-01  0.101844E-01  0.829815E-02  0.682557E-02  0.570477E-02
  0.487716E-02  0.429508E-02  0.392483E-02  0.374508E-02  0.374508E-02  0.392483E-02
  0.429508E-02  0.487716E-02  0.570477E-02  0.682557E-02  0.829815E-02  0.101844E-01
  0.125433E-01  0.154274E-01  0.188713E-01  0.228670E-01  0.273325E-01  0.320957E-01
  0.369025E-01  0.414504E-01  0.454365E-01  0.486079E-01  0.507931E-01  0.519023E-01
  0.519023E-01  0.507931E-01  0.486079E-01  0.454365E-01  0.479848E-01  0.435011E-01
  0.384425E-01  0.331601E-01  0.279978E-01  0.232322E-01  0.190369E-01  0.154786E-01
  0.125433E-01  0.101755E-01  0.830734E-02  0.686938E-02  0.579324E-02  0.501737E-02
  0.449404E-02  0.419164E-02  0.409270E-02  0.419164E-02  0.449404E-02  0.501737E-02
  0.579324E-02  0.686938E-02  0.830734E-02  0.101755E-01  0.125433E-01  0.154786E-01
  0.190369E-01  0.232322E-01  0.279978E-01  0.331601E-01  0.384425E-01  0.435011E-01
  0.479848E-01  0.516094E-01  0.542123E-01  0.557541E-01  0.562615E-01  0.557541E-01
  0.542123E-01  0.516094E-01  0.479848E-01  0.498431E-01  0.449788E-01  0.394975E-01
  0.338203E-01  0.283411E-01  0.233570E-01  0.190369E-01  0.154274E-01  0.124904E-01
  0.101512E-01  0.832931E-02  0.694743E-02  0.593285E-02  0.522294E-02  0.477193E-02
  0.455246E-02  0.455246E-02  0.477193E-02  0.522294E-02  0.593285E-02  0.694743E-02
  0.832931E-02  0.101512E-01  0.124904E-01  0.154274E-01  0.190369E-01  0.233570E-01
  0.283411E-01  0.338203E-01  0.394975E-01  0.449788E-01  0.498431E-01  0.537481E-01
  0.565307E-01  0.582328E-01  0.590161E-01  0.590161E-01  0.582328E-01  0.565307E-01
  0.537481E-01  0.498431E-01  0.510155E-01  0.458587E-01  0.400311E-01  0.340437E-01
  0.283411E-01  0.232322E-01  0.188713E-01  0.152786E-01  0.123915E-01  0.101191E-01
  0.837211E-02  0.706820E-02  0.613237E-02  0.550322E-02  0.513959E-02  0.502040E-02
  0.513959E-02  0.550322E-02  0.613237E-02  0.706820E-02  0.837211E-02  0.101191E-01
  0.123915E-01  0.152786E-01  0.188713E-01  0.232322E-01  0.283411E-01  0.340437E-01
  0.400311E-01  0.458587E-01  0.510155E-01  0.550604E-01  0.577883E-01  0.593150E-01
  0.599877E-01  0.601627E-01  0.599877E-01  0.593150E-01  0.577883E-01  0.550604E-01
  0.510155E-01  0.515706E-01  0.461493E-01  0.400311E-01  0.338203E-01  0.279978E-01
  0.228670E-01  0.185540E-01  0.150472E-01  0.122607E-01  0.100922E-01  0.844791E-02
  0.724288E-02  0.640224E-02  0.586892E-02  0.560915E-02  0.560915E-02  0.586892E-02
  0.640224E-02  0.724288E-02  0.844791E-02  0.100922E-01  0.122607E-01  0.150472E-01
  0.185540E-01  0.228670E-01  0.279978E-01  0.338203E-01  0.400311E-01  0.461493E-01
  0.515706E-01  0.557180E-01  0.582785E-01  0.593826E-01  0.595544E-01  0.594306E-01
  0.594306E-01  0.595544E-01  0.593826E-01  0.582785E-01  0.557180E-01  0.515706E-01
  0.515706E-01  0.458587E-01  0.394975E-01  0.331601E-01  0.273325E-01  0.222884E-01
  0.181123E-01  0.147570E-01  0.121178E-01  0.100874E-01  0.857080E-02  0.748316E-02
  0.675291E-02  0.633084E-02  0.619237E-02  0.633084E-02  0.675291E-02  0.748316E-02
  0.857080E-02  0.100874E-01  0.121178E-01  0.147570E-01  0.181123E-01  0.222884E-01
  0.273325E-01  0.331601E-01  0.394975E-01  0.458587E-01  0.515706E-01  0.559102E-01
  0.583896E-01  0.590528E-01  0.585206E-01  0.576945E-01  0.573242E-01  0.576945E-01
  0.585206E-01  0.590528E-01  0.583896E-01  0.559102E-01  0.515706E-01  0.510155E-01
  0.449788E-01  0.384425E-01  0.320957E-01  0.263889E-01  0.215410E-01  0.175840E-01
  0.144373E-01  0.119857E-01  0.101223E-01  0.875431E-02  0.779965E-02  0.719398E-02
  0.689880E-02  0.689880E-02  0.719398E-02  0.779965E-02  0.875431E-02  0.101223E-01
  0.119857E-01  0.144373E-01  0.175840E-01  0.215410E-01  0.263889E-01  0.320957E-01
  0.384425E-01  0.449788E-01  0.510155E-01  0.557180E-01  0.583896E-01  0.588714E-01
  0.577399E-01  0.560688E-01  0.549204E-01  0.549204E-01  0.560688E-01  0.577399E-01
  0.588714E-01  0.583896E-01  0.557180E-01  0.510155E-01  0.498431E-01  0.435011E-01
  0.369025E-01  0.306875E-01  0.252319E-01  0.206810E-01  0.170118E-01  0.141192E-01
  0.118868E-01  0.102135E-01  0.901037E-02  0.820161E-02  0.773381E-02  0.758025E-02
  0.773381E-02  0.820161E-02  0.901037E-02  0.102135E-01  0.118868E-01  0.141192E-01
  0.170118E-01  0.206810E-01  0.252319E-01  0.306875E-01  0.369025E-01  0.435011E-01
  0.498431E-01  0.550604E-01  0.582785E-01  0.590528E-01  0.577399E-01  0.554209E-01
  0.533873E-01  0.525960E-01  0.533873E-01  0.554209E-01  0.577399E-01  0.590528E-01
  0.582785E-01  0.550604E-01  0.498431E-01  0.479848E-01  0.414504E-01  0.349512E-01
  0.290231E-01  0.239410E-01  0.197689E-01  0.164378E-01  0.138319E-01  0.118424E-01
  0.103757E-01  0.934907E-02  0.869654E-02  0.837818E-02  0.837818E-02  0.869654E-02
  0.934907E-02  0.103757E-01  0.118424E-01  0.138319E-01  0.164378E-01  0.197689E-01
  0.239410E-01  0.290231E-01  0.349512E-01  0.414504E-01  0.479848E-01  0.537481E-01
  0.577883E-01  0.593826E-01  0.585206E-01  0.560688E-01  0.533873E-01  0.517061E-01
  0.517061E-01  0.533873E-01  0.560688E-01  0.585206E-01  0.593826E-01  0.577883E-01
  0.537481E-01  0.479848E-01  0.454365E-01  0.389104E-01  0.327008E-01  0.272087E-01
  0.225987E-01  0.188616E-01  0.159000E-01  0.136023E-01  0.118711E-01  0.106209E-01
  0.977755E-02  0.928862E-02  0.912794E-02  0.928862E-02  0.977755E-02  0.106209E-01
  0.118711E-01  0.136023E-01  0.159000E-01  0.188616E-01  0.225987E-01  0.272087E-01
  0.327008E-01  0.389104E-01  0.454365E-01  0.516094E-01  0.565307E-01  0.593150E-01
  0.595544E-01  0.576945E-01  0.549204E-01  0.525960E-01  0.517061E-01  0.525960E-01
  0.549204E-01  0.576945E-01  0.595544E-01  0.593150E-01  0.565307E-01  0.516094E-01
  0.454365E-01  0.422971E-01  0.360244E-01  0.302900E-01  0.253543E-01  0.212807E-01
  0.180079E-01  0.154318E-01  0.134535E-01  0.119873E-01  0.109561E-01  0.102980E-01
  0.997613E-02  0.997613E-02  0.102980E-01  0.109561E-01  0.119873E-01  0.134535E-01
  0.154318E-01  0.180079E-01  0.212807E-01  0.253543E-01  0.302900E-01  0.360244E-01
  0.422971E-01  0.486079E-01  0.542123E-01  0.582328E-01  0.599877E-01  0.594306E-01
  0.573242E-01  0.549204E-01  0.533873E-01  0.533873E-01  0.549204E-01  0.573242E-01
  0.594306E-01  0.599877E-01  0.582328E-01  0.542123E-01  0.486079E-01  0.422971E-01
  0.387577E-01  0.329736E-01  0.278629E-01  0.235593E-01  0.200490E-01  0.172475E-01
  0.150598E-01  0.134019E-01  0.121978E-01  0.113810E-01  0.109055E-01  0.107489E-01
  0.109055E-01  0.113810E-01  0.121978E-01  0.134019E-01  0.150598E-01  0.172475E-01
  0.200490E-01  0.235593E-01  0.278629E-01  0.329736E-01  0.387577E-01  0.448819E-01
  0.507931E-01  0.557541E-01  0.590161E-01  0.601627E-01  0.594306E-01  0.576945E-01
  0.560688E-01  0.554209E-01  0.560688E-01  0.576945E-01  0.594306E-01  0.601627E-01
  0.590161E-01  0.557541E-01  0.507931E-01  0.448819E-01  0.387577E-01  0.350585E-01
  0.299446E-01  0.255469E-01  0.219006E-01  0.189493E-01  0.166093E-01  0.148014E-01
  0.134535E-01  0.124993E-01  0.118869E-01  0.115863E-01  0.115863E-01  0.118869E-01
  0.124993E-01  0.134535E-01  0.148014E-01  0.166093E-01  0.189493E-01  0.219006E-01
  0.255469E-01  0.299446E-01  0.350585E-01  0.407002E-01  0.464977E-01  0.519023E-01
  0.562615E-01  0.590161E-01  0.599877E-01  0.595544E-01  0.585206E-01  0.577399E-01
  0.577399E-01  0.585206E-01  0.595544E-01  0.599877E-01  0.590161E-01  0.562615E-01
  0.519023E-01  0.464977E-01  0.407002E-01  0.350585E-01  0.314366E-01  0.270961E-01
  0.234348E-01  0.204283E-01  0.180100E-01  0.161097E-01  0.146613E-01  0.136023E-01
  0.128792E-01  0.124563E-01  0.123167E-01  0.124563E-01  0.128792E-01  0.136023E-01
  0.146613E-01  0.161097E-01  0.180100E-01  0.204283E-01  0.234348E-01  0.270961E-01
  0.314366E-01  0.363807E-01  0.417085E-01  0.470469E-01  0.519023E-01  0.557541E-01
  0.582328E-01  0.593150E-01  0.593826E-01  0.590528E-01  0.588714E-01  0.590528E-01
  0.593826E-01  0.593150E-01  0.582328E-01  0.557541E-01  0.519023E-01  0.470469E-01
  0.417085E-01  0.363807E-01  0.314366E-01  0.280818E-01  0.245344E-01  0.215780E-01
  0.191670E-01  0.172436E-01  0.157502E-01  0.146302E-01  0.138319E-01  0.133168E-01
  0.130634E-01  0.130634E-01  0.133168E-01  0.138319E-01  0.146302E-01  0.157502E-01
  0.172436E-01  0.191670E-01  0.215780E-01  0.245344E-01  0.280818E-01  0.322157E-01
  0.368338E-01  0.417085E-01  0.464977E-01  0.507931E-01  0.542123E-01  0.565307E-01
  0.577883E-01  0.582785E-01  0.583896E-01  0.583896E-01  0.582785E-01  0.577883E-01
  0.565307E-01  0.542123E-01  0.507931E-01  0.464977E-01  0.417085E-01  0.368338E-01
  0.322157E-01  0.280818E-01  0.251089E-01  0.223085E-01  0.199941E-01  0.181228E-01
  0.166476E-01  0.155190E-01  0.146890E-01  0.141192E-01  0.137853E-01  0.136752E-01
  0.137853E-01  0.141192E-01  0.146890E-01  0.155190E-01  0.166476E-01  0.181228E-01
  0.199941E-01  0.223085E-01  0.251089E-01  0.284202E-01  0.322157E-01  0.363807E-01
  0.407002E-01  0.448819E-01  0.486079E-01  0.516094E-01  0.537481E-01  0.550604E-01
  0.557180E-01  0.559102E-01  0.557180E-01  0.550604E-01  0.537481E-01  0.516094E-01
  0.486079E-01  0.448819E-01  0.407002E-01  0.363807E-01  0.322157E-01  0.284202E-01
  0.251089E-01  0.225592E-01  0.204255E-01  0.186802E-01  0.172879E-01  0.162071E-01
  0.153943E-01  0.148127E-01  0.144373E-01  0.142532E-01  0.142532E-01  0.144373E-01
  0.148127E-01  0.153943E-01  0.162071E-01  0.172879E-01  0.186802E-01  0.204255E-01
  0.225592E-01  0.251089E-01  0.280818E-01  0.314366E-01  0.350585E-01  0.387577E-01
  0.422971E-01  0.454365E-01  0.479848E-01  0.498431E-01  0.510155E-01  0.515706E-01
  0.515706E-01  0.510155E-01  0.498431E-01  0.479848E-01  0.454365E-01  0.422971E-01
  0.387577E-01  0.350585E-01  0.314366E-01  0.280818E-01  0.251089E-01  0.225592E-01
  0.243794E-01  0.225217E-01  0.210236E-01  0.198482E-01  0.189531E-01  0.182967E-01
  0.178470E-01  0.175840E-01  0.174974E-01  0.175840E-01  0.178470E-01  0.182967E-01
  0.189531E-01  0.198482E-01  0.210236E-01  0.225217E-01  0.243794E-01  0.266284E-01
  0.292871E-01  0.323339E-01  0.356751E-01  0.391331E-01  0.424704E-01  0.454365E-01
  0.478271E-01  0.495394E-01  0.506011E-01  0.511406E-01  0.513000E-01  0.511406E-01
  0.506011E-01  0.495394E-01  0.478271E-01  0.454365E-01  0.424704E-01  0.391331E-01
  0.356751E-01  0.323339E-01  0.292871E-01  0.266284E-01  0.243794E-01  0.225217E-01
  0.212403E-01  0.202337E-01  0.194655E-01  0.188963E-01  0.184939E-01  0.182371E-01
  0.181123E-01  0.181123E-01  0.182371E-01  0.184939E-01  0.188963E-01  0.194655E-01
  0.202337E-01  0.212403E-01  0.225217E-01  0.241062E-01  0.260143E-01  0.282516E-01
  0.307885E-01  0.335376E-01  0.363524E-01  0.390504E-01  0.414504E-01  0.434099E-01
  0.448526E-01  0.457740E-01  0.462150E-01  0.462150E-01  0.457740E-01  0.448526E-01
  0.434099E-01  0.414504E-01  0.390504E-01  0.363524E-01  0.335376E-01  0.307885E-01
  0.282516E-01  0.260143E-01  0.241062E-01  0.225217E-01  0.210236E-01  0.202337E-01
  0.196412E-01  0.192089E-01  0.189039E-01  0.187029E-01  0.185901E-01  0.185540E-01
  0.185901E-01  0.187029E-01  0.189039E-01  0.192089E-01  0.196412E-01  0.202337E-01
  0.210236E-01  0.220422E-01  0.233103E-01  0.248396E-01  0.266260E-01  0.286355E-01
  0.307916E-01  0.329785E-01  0.350597E-01  0.369025E-01  0.384012E-01  0.394901E-01
  0.401437E-01  0.403607E-01  0.401437E-01  0.394901E-01  0.384012E-01  0.369025E-01
  0.350597E-01  0.329785E-01  0.307916E-01  0.286355E-01  0.266260E-01  0.248396E-01
  0.233103E-01  0.220422E-01  0.210236E-01  0.198482E-01  0.194655E-01  0.192089E-01
  0.190444E-01  0.189454E-01  0.188928E-01  0.188713E-01  0.188713E-01  0.188928E-01
  0.189454E-01  0.190444E-01  0.192089E-01  0.194655E-01  0.198482E-01  0.203918E-01
  0.211233E-01  0.220586E-01  0.232023E-01  0.245431E-01  0.260454E-01  0.276449E-01
  0.292532E-01  0.307694E-01  0.320957E-01  0.331509E-01  0.338790E-01  0.342493E-01
  0.342493E-01  0.338790E-01  0.331509E-01  0.320957E-01  0.307694E-01  0.292532E-01
  0.276449E-01  0.260454E-01  0.245431E-01  0.232023E-01  0.220586E-01  0.211233E-01
  0.203918E-01  0.198482E-01  0.189531E-01  0.188963E-01  0.189039E-01  0.189454E-01
  0.189963E-01  0.190369E-01  0.190524E-01  0.190369E-01  0.189963E-01  0.189454E-01
  0.189039E-01  0.188963E-01  0.189531E-01  0.191089E-01  0.193962E-01  0.198391E-01
  0.204504E-01  0.212293E-01  0.221590E-01  0.232048E-01  0.243140E-01  0.254203E-01
  0.264504E-01  0.273325E-01  0.280059E-01  0.284268E-01  0.285698E-01  0.284268E-01
  0.280059E-01  0.273325E-01  0.264504E-01  0.254203E-01  0.243140E-01  0.232048E-01
  0.221590E-01  0.212293E-01  0.204504E-01  0.198391E-01  0.193962E-01  0.191089E-01
  0.189531E-01  0.182967E-01  0.184939E-01  0.187029E-01  0.188928E-01  0.190369E-01
  0.191149E-01  0.191149E-01  0.190369E-01  0.188928E-01  0.187029E-01  0.184939E-01
  0.182967E-01  0.181454E-01  0.180743E-01  0.181140E-01  0.182869E-01  0.186032E-01
  0.190581E-01  0.196318E-01  0.202918E-01  0.209958E-01  0.216945E-01  0.223351E-01
  0.228670E-01  0.232470E-01  0.234449E-01  0.234449E-01  0.232470E-01  0.228670E-01
  0.223351E-01  0.216945E-01  0.209958E-01  0.202918E-01  0.196318E-01  0.190581E-01
  0.186032E-01  0.182869E-01  0.181140E-01  0.180743E-01  0.181454E-01  0.182967E-01
  0.178470E-01  0.182371E-01  0.185901E-01  0.188713E-01  0.190524E-01  0.191149E-01
  0.190524E-01  0.188713E-01  0.185901E-01  0.182371E-01  0.178470E-01  0.174570E-01
  0.171035E-01  0.168205E-01  0.166370E-01  0.165733E-01  0.166370E-01  0.168205E-01
  0.171035E-01  0.174570E-01  0.178470E-01  0.182371E-01  0.185901E-01  0.188713E-01
  0.190524E-01  0.191149E-01  0.190524E-01  0.188713E-01  0.185901E-01  0.182371E-01
  0.178470E-01  0.174570E-01  0.171035E-01  0.168205E-01  0.166370E-01  0.165733E-01
  0.166370E-01  0.168205E-01  0.171035E-01  0.174570E-01  0.178470E-01  0.175840E-01
  0.181123E-01  0.185540E-01  0.188713E-01  0.190369E-01  0.190369E-01  0.188713E-01
  0.185540E-01  0.181123E-01  0.175840E-01  0.170118E-01  0.164378E-01  0.159000E-01
  0.154318E-01  0.150598E-01  0.148014E-01  0.146613E-01  0.146302E-01  0.146890E-01
  0.148127E-01  0.149749E-01  0.151483E-01  0.153069E-01  0.154274E-01  0.154922E-01
  0.154922E-01  0.154274E-01  0.153069E-01  0.151483E-01  0.149749E-01  0.148127E-01
  0.146890E-01  0.146302E-01  0.146613E-01  0.148014E-01  0.150598E-01  0.154318E-01
  0.159000E-01  0.164378E-01  0.170118E-01  0.175840E-01  0.174974E-01  0.181123E-01
  0.185901E-01  0.188928E-01  0.189963E-01  0.188928E-01  0.185901E-01  0.181123E-01
  0.174974E-01  0.167925E-01  0.160469E-01  0.153064E-01  0.146102E-01  0.139899E-01
  0.134690E-01  0.130606E-01  0.127660E-01  0.125751E-01  0.124707E-01  0.124328E-01
  0.124406E-01  0.124737E-01  0.125131E-01  0.125433E-01  0.125545E-01  0.125433E-01
  0.125131E-01  0.124737E-01  0.124406E-01  0.124328E-01  0.124707E-01  0.125751E-01
  0.127660E-01  0.130606E-01  0.134690E-01  0.139899E-01  0.146102E-01  0.153064E-01
  0.160469E-01  0.167925E-01  0.174974E-01  0.175840E-01  0.182371E-01  0.187029E-01
  0.189454E-01  0.189454E-01  0.187029E-01  0.182371E-01  0.175840E-01  0.167925E-01
  0.159177E-01  0.150140E-01  0.141299E-01  0.133044E-01  0.125668E-01  0.119360E-01
  0.114199E-01  0.110163E-01  0.107145E-01  0.104999E-01  0.103566E-01  0.102683E-01
  0.102188E-01  0.101942E-01  0.101844E-01  0.101844E-01  0.101942E-01  0.102188E-01
  0.102683E-01  0.103566E-01  0.104999E-01  0.107145E-01  0.110163E-01  0.114199E-01
  0.119360E-01  0.125668E-01  0.133044E-01  0.141299E-01  0.150140E-01  0.159177E-01
  0.167925E-01  0.175840E-01  0.178470E-01  0.184939E-01  0.189039E-01  0.190444E-01
  0.189039E-01  0.184939E-01  0.178470E-01  0.170118E-01  0.160469E-01  0.150140E-01
  0.139713E-01  0.129681E-01  0.120424E-01  0.112196E-01  0.105132E-01  0.992596E-02
  0.945202E-02  0.908068E-02  0.879944E-02  0.859524E-02  0.845454E-02  0.836431E-02
  0.831421E-02  0.829815E-02  0.831421E-02  0.836431E-02  0.845454E-02  0.859524E-02
  0.879944E-02  0.908068E-02  0.945202E-02  0.992596E-02  0.105132E-01  0.112196E-01
  0.120424E-01  0.129681E-01  0.139713E-01  0.150140E-01  0.160469E-01  0.170118E-01
  0.178470E-01  0.182967E-01  0.188963E-01  0.192089E-01  0.192089E-01  0.188963E-01
  0.182967E-01  0.174570E-01  0.164378E-01  0.153064E-01  0.141299E-01  0.129681E-01
  0.118698E-01  0.108697E-01  0.998833E-02  0.923386E-02  0.860419E-02  0.809089E-02
  0.768303E-02  0.736922E-02  0.713765E-02  0.697635E-02  0.687473E-02  0.682557E-02
  0.682557E-02  0.687473E-02  0.697635E-02  0.713765E-02  0.736922E-02  0.768303E-02
  0.809089E-02  0.860419E-02  0.923386E-02  0.998833E-02  0.108697E-01  0.118698E-01
  0.129681E-01  0.141299E-01  0.153064E-01  0.164378E-01  0.174570E-01  0.182967E-01
  0.189531E-01  0.194655E-01  0.196412E-01  0.194655E-01  0.189531E-01  0.181454E-01
  0.171035E-01  0.159000E-01  0.146102E-01  0.133044E-01  0.120424E-01  0.108697E-01
  0.981594E-02  0.889648E-02  0.811422E-02  0.746345E-02  0.693399E-02  0.651433E-02
  0.619278E-02  0.595753E-02  0.579763E-02  0.570477E-02  0.567428E-02  0.570477E-02
  0.579763E-02  0.595753E-02  0.619278E-02  0.651433E-02  0.693399E-02  0.746345E-02
  0.811422E-02  0.889648E-02  0.981594E-02  0.108697E-01  0.120424E-01  0.133044E-01
  0.146102E-01  0.159000E-01  0.171035E-01  0.181454E-01  0.189531E-01  0.198482E-01
  0.202337E-01  0.202337E-01  0.198482E-01  0.191089E-01  0.180743E-01  0.168205E-01
  0.154318E-01  0.139899E-01  0.125668E-01  0.112196E-01  0.998833E-02  0.889648E-02
  0.795343E-02  0.715777E-02  0.650120E-02  0.597210E-02  0.555763E-02  0.524472E-02
  0.502117E-02  0.487716E-02  0.480651E-02  0.480651E-02  0.487716E-02  0.502117E-02
  0.524472E-02  0.555763E-02  0.597210E-02  0.650120E-02  0.715777E-02  0.795343E-02
  0.889648E-02  0.998833E-02  0.112196E-01  0.125668E-01  0.139899E-01  0.154318E-01
  0.168205E-01  0.180743E-01  0.191089E-01  0.198482E-01  0.210236E-01  0.212403E-01
  0.210236E-01  0.203918E-01  0.193962E-01  0.181140E-01  0.166370E-01  0.150598E-01
  0.134690E-01  0.119360E-01  0.105132E-01  0.923386E-02  0.811422E-02  0.715777E-02
  0.635920E-02  0.570792E-02  0.519038E-02  0.479170E-02  0.449734E-02  0.429508E-02
  0.417655E-02  0.413745E-02  0.417655E-02  0.429508E-02  0.449734E-02  0.479170E-02
  0.519038E-02  0.570792E-02  0.635920E-02  0.715777E-02  0.811422E-02  0.923386E-02
  0.105132E-01  0.119360E-01  0.134690E-01  0.150598E-01  0.166370E-01  0.181140E-01
  0.193962E-01  0.203918E-01  0.210236E-01  0.225217E-01  0.225217E-01  0.220422E-01
  0.211233E-01  0.198391E-01  0.182869E-01  0.165733E-01  0.148014E-01  0.130606E-01
  0.114199E-01  0.992596E-02  0.860419E-02  0.746345E-02  0.650120E-02  0.570792E-02
  0.506994E-02  0.457110E-02  0.419451E-02  0.392483E-02  0.375052E-02  0.366477E-02
  0.366477E-02  0.375052E-02  0.392483E-02  0.419451E-02  0.457110E-02  0.506994E-02
  0.570792E-02  0.650120E-02  0.746345E-02  0.860419E-02  0.992596E-02  0.114199E-01
  0.130606E-01  0.148014E-01  0.165733E-01  0.182869E-01  0.198391E-01  0.211233E-01
  0.220422E-01  0.225217E-01  0.243794E-01  0.241062E-01  0.233103E-01  0.220586E-01
  0.204504E-01  0.186032E-01  0.166370E-01  0.146613E-01  0.127660E-01  0.110163E-01
  0.945202E-02  0.809089E-02  0.693399E-02  0.597210E-02  0.519038E-02  0.457110E-02
  0.409540E-02  0.374508E-02  0.350493E-02  0.336450E-02  0.331823E-02  0.336450E-02
  0.350493E-02  0.374508E-02  0.409540E-02  0.457110E-02  0.519038E-02  0.597210E-02
  0.693399E-02  0.809089E-02  0.945202E-02  0.110163E-01  0.127660E-01  0.146613E-01
  0.166370E-01  0.186032E-01  0.204504E-01  0.220586E-01  0.233103E-01  0.241062E-01
  0.243794E-01  0.266284E-01  0.260143E-01  0.248396E-01  0.232023E-01  0.212293E-01
  0.190581E-01  0.168205E-01  0.146302E-01  0.125751E-01  0.107145E-01  0.908068E-02
  0.768303E-02  0.651433E-02  0.555763E-02  0.479170E-02  0.419451E-02  0.374508E-02
  0.342485E-02  0.321928E-02  0.311879E-02  0.311879E-02  0.321928E-02  0.342485E-02
  0.374508E-02  0.419451E-02  0.479170E-02  0.555763E-02  0.651433E-02  0.768303E-02
  0.908068E-02  0.107145E-01  0.125751E-01  0.146302E-01  0.168205E-01  0.190581E-01
  0.212293E-01  0.232023E-01  0.248396E-01  0.260143E-01  0.266284E-01  0.266284E-01
  0.292871E-01  0.282516E-01  0.266260E-01  0.245431E-01  0.221590E-01  0.196318E-01
  0.171035E-01  0.146890E-01  0.124707E-01  0.104999E-01  0.879944E-02  0.736922E-02
  0.619278E-02  0.524472E-02  0.449734E-02  0.392483E-02  0.350493E-02  0.321928E-02
  0.305387E-02  0.299975E-02  0.305387E-02  0.321928E-02  0.350493E-02  0.392483E-02
  0.449734E-02  0.524472E-02  0.619278E-02  0.736922E-02  0.879944E-02  0.104999E-01
  0.124707E-01  0.146890E-01  0.171035E-01  0.196318E-01  0.221590E-01  0.245431E-01
  0.266260E-01  0.282516E-01  0.292871E-01  0.296428E-01  0.292871E-01  0.323339E-01
  0.307885E-01  0.286355E-01  0.260454E-01  0.232048E-01  0.202918E-01  0.174570E-01
  0.148127E-01  0.124328E-01  0.103566E-01  0.859524E-02  0.713765E-02  0.595753E-02
  0.502117E-02  0.429508E-02  0.375052E-02  0.336450E-02  0.311879E-02  0.299975E-02
  0.299975E-02  0.311879E-02  0.336450E-02  0.375052E-02  0.429508E-02  0.502117E-02
  0.595753E-02  0.713765E-02  0.859524E-02  0.103566E-01  0.124328E-01  0.148127E-01
  0.174570E-01  0.202918E-01  0.232048E-01  0.260454E-01  0.286355E-01  0.307885E-01
  0.323339E-01  0.331418E-01  0.331418E-01  0.323339E-01  0.356751E-01  0.335376E-01
  0.307916E-01  0.276449E-01  0.243140E-01  0.209958E-01  0.178470E-01  0.149749E-01
  0.124406E-01  0.102683E-01  0.845454E-02  0.697635E-02  0.579763E-02  0.487716E-02
  0.417655E-02  0.366477E-02  0.331823E-02  0.311879E-02  0.305387E-02  0.311879E-02
  0.331823E-02  0.366477E-02  0.417655E-02  0.487716E-02  0.579763E-02  0.697635E-02
  0.845454E-02  0.102683E-01  0.124406E-01  0.149749E-01  0.178470E-01  0.209958E-01
  0.243140E-01  0.276449E-01  0.307916E-01  0.335376E-01  0.356751E-01  0.370327E-01
  0.374983E-01  0.370327E-01  0.356751E-01  0.391331E-01  0.363524E-01  0.329785E-01
  0.292532E-01  0.254203E-01  0.216945E-01  0.182371E-01  0.151483E-01  0.124737E-01
  0.102188E-01  0.836431E-02  0.687473E-02  0.570477E-02  0.480651E-02  0.413745E-02
  0.366477E-02  0.336450E-02  0.321928E-02  0.321928E-02  0.336450E-02  0.366477E-02
  0.413745E-02  0.480651E-02  0.570477E-02  0.687473E-02  0.836431E-02  0.102188E-01
  0.124737E-01  0.151483E-01  0.182371E-01  0.216945E-01  0.254203E-01  0.292532E-01
  0.329785E-01  0.363524E-01  0.391331E-01  0.411129E-01  0.421418E-01  0.421418E-01
  0.411129E-01  0.391331E-01  0.424704E-01  0.390504E-01  0.350597E-01  0.307694E-01
  0.264504E-01  0.223351E-01  0.185901E-01  0.153069E-01  0.125131E-01  0.101942E-01
  0.831421E-02  0.682557E-02  0.567428E-02  0.480651E-02  0.417655E-02  0.375052E-02
  0.350493E-02  0.342485E-02  0.350493E-02  0.375052E-02  0.417655E-02  0.480651E-02
  0.567428E-02  0.682557E-02  0.831421E-02  0.101942E-01  0.125131E-01  0.153069E-01
  0.185901E-01  0.223351E-01  0.264504E-01  0.307694E-01  0.350597E-01  0.390504E-01
  0.424704E-01  0.450852E-01  0.467221E-01  0.472789E-01  0.467221E-01  0.450852E-01
  0.424704E-01  0.454365E-01  0.414504E-01  0.369025E-01  0.320957E-01  0.273325E-01
  0.228670E-01  0.188713E-01  0.154274E-01  0.125433E-01  0.101844E-01  0.829815E-02
  0.682557E-02  0.570477E-02  0.487716E-02  0.429508E-02  0.392483E-02  0.374508E-02
  0.374508E-02  0.392483E-02  0.429508E-02  0.487716E-02  0.570477E-02  0.682557E-02
  0.829815E-02  0.101844E-01  0.125433E-01  0.154274E-01  0.188713E-01  0.228670E-01
  0.273325E-01  0.320957E-01  0.369025E-01  0.414504E-01  0.454365E-01  0.486079E-01
  0.507931E-01  0.519023E-01  0.519023E-01  0.507931E-01  0.486079E-01  0.454365E-01
  0.478271E-01  0.434099E-01  0.384012E-01  0.331509E-01  0.280059E-01  0.232470E-01
  0.190524E-01  0.154922E-01  0.125545E-01  0.101844E-01  0.831421E-02  0.687473E-02
  0.579763E-02  0.502117E-02  0.449734E-02  0.419451E-02  0.409540E-02  0.419451E-02
  0.449734E-02  0.502117E-02  0.579763E-02  0.687473E-02  0.831421E-02  0.101844E-01
  0.125545E-01  0.154922E-01  0.190524E-01  0.232470E-01  0.280059E-01  0.331509E-01
  0.384012E-01  0.434099E-01  0.478271E-01  0.513753E-01  0.539051E-01  0.553937E-01
  0.558816E-01  0.553937E-01  0.539051E-01  0.513753E-01  0.478271E-01  0.495394E-01
  0.448526E-01  0.394901E-01  0.338790E-01  0.284268E-01  0.234449E-01  0.191149E-01
  0.154922E-01  0.125433E-01  0.101942E-01  0.836431E-02  0.697635E-02  0.595753E-02
  0.524472E-02  0.479170E-02  0.457110E-02  0.457110E-02  0.479170E-02  0.524472E-02
  0.595753E-02  0.697635E-02  0.836431E-02  0.101942E-01  0.125433E-01  0.154922E-01
  0.191149E-01  0.234449E-01  0.284268E-01  0.338790E-01  0.394901E-01  0.448526E-01
  0.495394E-01  0.532184E-01  0.557599E-01  0.572566E-01  0.579216E-01  0.579216E-01
  0.572566E-01  0.557599E-01  0.532184E-01  0.495394E-01  0.506011E-01  0.457740E-01
  0.401437E-01  0.342493E-01  0.285698E-01  0.234449E-01  0.190524E-01  0.154274E-01
  0.125131E-01  0.102188E-01  0.845454E-02  0.713765E-02  0.619278E-02  0.555763E-02
  0.519038E-02  0.506994E-02  0.519038E-02  0.555763E-02  0.619278E-02  0.713765E-02
  0.845454E-02  0.102188E-01  0.125131E-01  0.154274E-01  0.190524E-01  0.234449E-01
  0.285698E-01  0.342493E-01  0.401437E-01  0.457740E-01  0.506011E-01  0.541857E-01
  0.563767E-01  0.573932E-01  0.577003E-01  0.577427E-01  0.577003E-01  0.573932E-01
  0.563767E-01  0.541857E-01  0.506011E-01  0.511406E-01  0.462150E-01  0.403607E-01
  0.342493E-01  0.284268E-01  0.232470E-01  0.188713E-01  0.153069E-01  0.124737E-01
  0.102683E-01  0.859524E-02  0.736922E-02  0.651433E-02  0.597210E-02  0.570792E-02
  0.570792E-02  0.597210E-02  0.651433E-02  0.736922E-02  0.859524E-02  0.102683E-01
  0.124737E-01  0.153069E-01  0.188713E-01  0.232470E-01  0.284268E-01  0.342493E-01
  0.403607E-01  0.462150E-01  0.511406E-01  0.545318E-01  0.561397E-01  0.562621E-01
  0.556342E-01  0.550659E-01  0.550659E-01  0.556342E-01  0.562621E-01  0.561397E-01
  0.545318E-01  0.511406E-01  0.513000E-01  0.462150E-01  0.401437E-01  0.338790E-01
  0.280059E-01  0.228670E-01  0.185901E-01  0.151483E-01  0.124406E-01  0.103566E-01
  0.879944E-02  0.768303E-02  0.693399E-02  0.650120E-02  0.635920E-02  0.650120E-02
  0.693399E-02  0.768303E-02  0.879944E-02  0.103566E-01  0.124406E-01  0.151483E-01
  0.185901E-01  0.228670E-01  0.280059E-01  0.338790E-01  0.401437E-01  0.462150E-01
  0.513000E-01  0.545897E-01  0.556429E-01  0.547312E-01  0.528033E-01  0.510403E-01
  0.503439E-01  0.510403E-01  0.528033E-01  0.547312E-01  0.556429E-01  0.545897E-01
  0.513000E-01  0.511406E-01  0.457740E-01  0.394901E-01  0.331509E-01  0.273325E-01
  0.223351E-01  0.182371E-01  0.149749E-01  0.124328E-01  0.104999E-01  0.908068E-02
  0.809089E-02  0.746345E-02  0.715777E-02  0.715777E-02  0.746345E-02  0.809089E-02
  0.908068E-02  0.104999E-01  0.124328E-01  0.149749E-01  0.182371E-01  0.223351E-01
  0.273325E-01  0.331509E-01  0.394901E-01  0.457740E-01  0.511406E-01  0.545897E-01
  0.554089E-01  0.536934E-01  0.504743E-01  0.472457E-01  0.452903E-01  0.452903E-01
  0.472457E-01  0.504743E-01  0.536934E-01  0.554089E-01  0.545897E-01  0.511406E-01
  0.506011E-01  0.448526E-01  0.384012E-01  0.320957E-01  0.264504E-01  0.216945E-01
  0.178470E-01  0.148127E-01  0.124707E-01  0.107145E-01  0.945202E-02  0.860419E-02
  0.811422E-02  0.795343E-02  0.811422E-02  0.860419E-02  0.945202E-02  0.107145E-01
  0.124707E-01  0.148127E-01  0.178470E-01  0.216945E-01  0.264504E-01  0.320957E-01
  0.384012E-01  0.448526E-01  0.506011E-01  0.545318E-01  0.556429E-01  0.536934E-01
  0.495863E-01  0.450034E-01  0.415779E-01  0.403287E-01  0.415779E-01  0.450034E-01
  0.495863E-01  0.536934E-01  0.556429E-01  0.545318E-01  0.506011E-01  0.495394E-01
  0.434099E-01  0.369025E-01  0.307694E-01  0.254203E-01  0.209958E-01  0.174570E-01
  0.146890E-01  0.125751E-01  0.110163E-01  0.992596E-02  0.923386E-02  0.889648E-02
  0.889648E-02  0.923386E-02  0.992596E-02  0.110163E-01  0.125751E-01  0.146890E-01
  0.174570E-01  0.209958E-01  0.254203E-01  0.307694E-01  0.369025E-01  0.434099E-01
  0.495394E-01  0.541857E-01  0.561397E-01  0.547312E-01  0.504743E-01  0.450034E-01
  0.402336E-01  0.375396E-01  0.375396E-01  0.402336E-01  0.450034E-01  0.504743E-01
  0.547312E-01  0.561397E-01  0.541857E-01  0.495394E-01  0.478271E-01  0.414504E-01
  0.350597E-01  0.292532E-01  0.243140E-01  0.202918E-01  0.171035E-01  0.146302E-01
  0.127660E-01  0.114199E-01  0.105132E-01  0.998833E-02  0.981594E-02  0.998833E-02
  0.105132E-01  0.114199E-01  0.127660E-01  0.146302E-01  0.171035E-01  0.202918E-01
  0.243140E-01  0.292532E-01  0.350597E-01  0.414504E-01  0.478271E-01  0.532184E-01
  0.563767E-01  0.562621E-01  0.528033E-01  0.472457E-01  0.415779E-01  0.375396E-01
  0.361006E-01  0.375396E-01  0.415779E-01  0.472457E-01  0.528033E-01  0.562621E-01
  0.563767E-01  0.532184E-01  0.478271E-01  0.454365E-01  0.390504E-01  0.329785E-01
  0.276449E-01  0.232048E-01  0.196318E-01  0.168205E-01  0.146613E-01  0.130606E-01
  0.119360E-01  0.112196E-01  0.108697E-01  0.108697E-01  0.112196E-01  0.119360E-01
  0.130606E-01  0.146613E-01  0.168205E-01  0.196318E-01  0.232048E-01  0.276449E-01
  0.329785E-01  0.390504E-01  0.454365E-01  0.513753E-01  0.557599E-01  0.573932E-01
  0.556342E-01  0.510403E-01  0.452903E-01  0.403287E-01  0.375396E-01  0.375396E-01
  0.403287E-01  0.452903E-01  0.510403E-01  0.556342E-01  0.573932E-01  0.557599E-01
  0.513753E-01  0.454365E-01  0.424704E-01  0.363524E-01  0.307916E-01  0.260454E-01
  0.221590E-01  0.190581E-01  0.166370E-01  0.148014E-01  0.134690E-01  0.125668E-01
  0.120424E-01  0.118698E-01  0.120424E-01  0.125668E-01  0.134690E-01  0.148014E-01
  0.166370E-01  0.190581E-01  0.221590E-01  0.260454E-01  0.307916E-01  0.363524E-01
  0.424704E-01  0.486079E-01  0.539051E-01  0.572566E-01  0.577003E-01  0.550659E-01
  0.503439E-01  0.452903E-01  0.415779E-01  0.402336E-01  0.415779E-01  0.452903E-01
  0.503439E-01  0.550659E-01  0.577003E-01  0.572566E-01  0.539051E-01  0.486079E-01
  0.424704E-01  0.391331E-01  0.335376E-01  0.286355E-01  0.245431E-01  0.212293E-01
  0.186032E-01  0.165733E-01  0.150598E-01  0.139899E-01  0.133044E-01  0.129681E-01
  0.129681E-01  0.133044E-01  0.139899E-01  0.150598E-01  0.165733E-01  0.186032E-01
  0.212293E-01  0.245431E-01  0.286355E-01  0.335376E-01  0.391331E-01  0.450852E-01
  0.507931E-01  0.553937E-01  0.579216E-01  0.577427E-01  0.550659E-01  0.510403E-01
  0.472457E-01  0.450034E-01  0.450034E-01  0.472457E-01  0.510403E-01  0.550659E-01
  0.577427E-01  0.579216E-01  0.553937E-01  0.507931E-01  0.450852E-01  0.391331E-01
  0.356751E-01  0.307885E-01  0.266260E-01  0.232023E-01  0.204504E-01  0.182869E-01
  0.166370E-01  0.154318E-01  0.146102E-01  0.141299E-01  0.139713E-01  0.141299E-01
  0.146102E-01  0.154318E-01  0.166370E-01  0.182869E-01  0.204504E-01  0.232023E-01
  0.266260E-01  0.307885E-01  0.356751E-01  0.411129E-01  0.467221E-01  0.519023E-01
  0.558816E-01  0.579216E-01  0.577003E-01  0.556342E-01  0.528033E-01  0.504743E-01
  0.495863E-01  0.504743E-01  0.528033E-01  0.556342E-01  0.577003E-01  0.579216E-01
  0.558816E-01  0.519023E-01  0.467221E-01  0.411129E-01  0.356751E-01  0.323339E-01
  0.282516E-01  0.248396E-01  0.220586E-01  0.198391E-01  0.181140E-01  0.168205E-01
  0.159000E-01  0.153064E-01  0.150140E-01  0.150140E-01  0.153064E-01  0.159000E-01
  0.168205E-01  0.181140E-01  0.198391E-01  0.220586E-01  0.248396E-01  0.282516E-01
  0.323339E-01  0.370327E-01  0.421418E-01  0.472789E-01  0.519023E-01  0.553937E-01
  0.572566E-01  0.573932E-01  0.562621E-01  0.547312E-01  0.536934E-01  0.536934E-01
  0.547312E-01  0.562621E-01  0.573932E-01  0.572566E-01  0.553937E-01  0.519023E-01
  0.472789E-01  0.421418E-01  0.370327E-01  0.323339E-01  0.292871E-01  0.260143E-01
  0.233103E-01  0.211233E-01  0.193962E-01  0.180743E-01  0.171035E-01  0.164378E-01
  0.160469E-01  0.159177E-01  0.160469E-01  0.164378E-01  0.171035E-01  0.180743E-01
  0.193962E-01  0.211233E-01  0.233103E-01  0.260143E-01  0.292871E-01  0.331418E-01
  0.374983E-01  0.421418E-01  0.467221E-01  0.507931E-01  0.539051E-01  0.557599E-01
  0.563767E-01  0.561397E-01  0.556429E-01  0.554089E-01  0.556429E-01  0.561397E-01
  0.563767E-01  0.557599E-01  0.539051E-01  0.507931E-01  0.467221E-01  0.421418E-01
  0.374983E-01  0.331418E-01  0.292871E-01  0.266284E-01  0.241062E-01  0.220422E-01
  0.203918E-01  0.191089E-01  0.181454E-01  0.174570E-01  0.170118E-01  0.167925E-01
  0.167925E-01  0.170118E-01  0.174570E-01  0.181454E-01  0.191089E-01  0.203918E-01
  0.220422E-01  0.241062E-01  0.266284E-01  0.296428E-01  0.331418E-01  0.370327E-01
  0.411129E-01  0.450852E-01  0.486079E-01  0.513753E-01  0.532184E-01  0.541857E-01
  0.545318E-01  0.545897E-01  0.545897E-01  0.545318E-01  0.541857E-01  0.532184E-01
  0.513753E-01  0.486079E-01  0.450852E-01  0.411129E-01  0.370327E-01  0.331418E-01
  0.296428E-01  0.266284E-01  0.243794E-01  0.225217E-01  0.210236E-01  0.198482E-01
  0.189531E-01  0.182967E-01  0.178470E-01  0.175840E-01  0.174974E-01  0.175840E-01
  0.178470E-01  0.182967E-01  0.189531E-01  0.198482E-01  0.210236E-01  0.225217E-01
  0.243794E-01  0.266284E-01  0.292871E-01  0.323339E-01  0.356751E-01  0.391331E-01
  0.424704E-01  0.454365E-01  0.478271E-01  0.495394E-01  0.506011E-01  0.511406E-01
  0.513000E-01  0.511406E-01  0.506011E-01  0.495394E-01  0.478271E-01  0.454365E-01
  0.424704E-01  0.391331E-01  0.356751E-01  0.323339E-01  0.292871E-01  0.266284E-01
  0.243794E-01  0.268656E-01  0.253260E-01  0.241118E-01  0.231829E-01  0.224947E-01
  0.220076E-01  0.216945E-01  0.215410E-01  0.215410E-01  0.216945E-01  0.220076E-01
  0.224947E-01  0.231829E-01  0.241118E-01  0.253260E-01  0.268656E-01  0.287646E-01
  0.310496E-01  0.337198E-01  0.367110E-01  0.398713E-01  0.429721E-01  0.457528E-01
  0.479848E-01  0.495394E-01  0.504371E-01  0.508390E-01  0.509634E-01  0.509634E-01
  0.508390E-01  0.504371E-01  0.495394E-01  0.479848E-01  0.457528E-01  0.429721E-01
  0.398713E-01  0.367110E-01  0.337198E-01  0.310496E-01  0.287646E-01  0.268656E-01
  0.253260E-01  0.243623E-01  0.236364E-01  0.231059E-01  0.227299E-01  0.224788E-01
  0.223351E-01  0.222884E-01  0.223351E-01  0.224788E-01  0.227299E-01  0.231059E-01
  0.236364E-01  0.243623E-01  0.253260E-01  0.265620E-01  0.280954E-01  0.299422E-01
  0.320930E-01  0.344873E-01  0.370004E-01  0.394581E-01  0.416756E-01  0.435011E-01
  0.448526E-01  0.457324E-01  0.462068E-01  0.463536E-01  0.462068E-01  0.457324E-01
  0.448526E-01  0.435011E-01  0.416756E-01  0.394581E-01  0.370004E-01  0.344873E-01
  0.320930E-01  0.299422E-01  0.280954E-01  0.265620E-01  0.253260E-01  0.241118E-01
  0.236364E-01  0.233155E-01  0.231063E-01  0.229751E-01  0.229001E-01  0.228670E-01
  0.228670E-01  0.229001E-01  0.229751E-01  0.231063E-01  0.233155E-01  0.236364E-01
  0.241118E-01  0.247824E-01  0.256776E-01  0.268160E-01  0.282053E-01  0.298307E-01
  0.316384E-01  0.335305E-01  0.353784E-01  0.370511E-01  0.384425E-01  0.394901E-01
  0.401762E-01  0.405119E-01  0.405119E-01  0.401762E-01  0.394901E-01  0.384425E-01
  0.370511E-01  0.353784E-01  0.335305E-01  0.316384E-01  0.298307E-01  0.282053E-01
  0.268160E-01  0.256776E-01  0.247824E-01  0.241118E-01  0.231829E-01  0.231059E-01
  0.231063E-01  0.231449E-01  0.231935E-01  0.232322E-01  0.232470E-01  0.232322E-01
  0.231935E-01  0.231449E-01  0.231063E-01  0.231059E-01  0.231829E-01  0.233819E-01
  0.237415E-01  0.242878E-01  0.250345E-01  0.259829E-01  0.271147E-01  0.283834E-01
  0.297139E-01  0.310132E-01  0.321876E-01  0.331601E-01  0.338790E-01  0.343174E-01
  0.344644E-01  0.343174E-01  0.338790E-01  0.331601E-01  0.321876E-01  0.310132E-01
  0.297139E-01  0.283834E-01  0.271147E-01  0.259829E-01  0.250345E-01  0.242878E-01
  0.237415E-01  0.233819E-01  0.231829E-01  0.224947E-01  0.227299E-01  0.229751E-01
  0.231935E-01  0.233570E-01  0.234449E-01  0.234449E-01  0.233570E-01  0.231935E-01
  0.229751E-01  0.227299E-01  0.224947E-01  0.223142E-01  0.222333E-01  0.222887E-01
  0.225043E-01  0.228904E-01  0.234433E-01  0.241423E-01  0.249472E-01  0.258010E-01
  0.266364E-01  0.273873E-01  0.279978E-01  0.284268E-01  0.286479E-01  0.286479E-01
  0.284268E-01  0.279978E-01  0.273873E-01  0.266364E-01  0.258010E-01  0.249472E-01
  0.241423E-01  0.234433E-01  0.228904E-01  0.225043E-01  0.222887E-01  0.222333E-01
  0.223142E-01  0.224947E-01  0.220076E-01  0.224788E-01  0.229001E-01  0.232322E-01
  0.234449E-01  0.235182E-01  0.234449E-01  0.232322E-01  0.229001E-01  0.224788E-01
  0.220076E-01  0.215320E-01  0.211002E-01  0.207564E-01  0.205354E-01  0.204592E-01
  0.205354E-01  0.207564E-01  0.211002E-01  0.215320E-01  0.220076E-01  0.224788E-01
  0.229001E-01  0.232322E-01  0.234449E-01  0.235182E-01  0.234449E-01  0.232322E-01
  0.229001E-01  0.224788E-01  0.220076E-01  0.215320E-01  0.211002E-01  0.207564E-01
  0.205354E-01  0.204592E-01  0.205354E-01  0.207564E-01  0.211002E-01  0.215320E-01
  0.220076E-01  0.216945E-01  0.223351E-01  0.228670E-01  0.232470E-01  0.234449E-01
  0.234449E-01  0.232470E-01  0.228670E-01  0.223351E-01  0.216945E-01  0.209958E-01
  0.202918E-01  0.196318E-01  0.190581E-01  0.186032E-01  0.182869E-01  0.181140E-01
  0.180743E-01  0.181454E-01  0.182967E-01  0.184939E-01  0.187029E-01  0.188928E-01
  0.190369E-01  0.191149E-01  0.191149E-01  0.190369E-01  0.188928E-01  0.187029E-01
  0.184939E-01  0.182967E-01  0.181454E-01  0.180743E-01  0.181140E-01  0.182869E-01
  0.186032E-01  0.190581E-01  0.196318E-01  0.202918E-01  0.209958E-01  0.216945E-01
  0.215410E-01  0.222884E-01  0.228670E-01  0.232322E-01  0.233570E-01  0.232322E-01
  0.228670E-01  0.222884E-01  0.215410E-01  0.206810E-01  0.197689E-01  0.188616E-01
  0.180079E-01  0.172475E-01  0.166093E-01  0.161097E-01  0.157502E-01  0.155190E-01
  0.153943E-01  0.153496E-01  0.153585E-01  0.153965E-01  0.154425E-01  0.154786E-01
  0.154922E-01  0.154786E-01  0.154425E-01  0.153965E-01  0.153585E-01  0.153496E-01
  0.153943E-01  0.155190E-01  0.157502E-01  0.161097E-01  0.166093E-01  0.172475E-01
  0.180079E-01  0.188616E-01  0.197689E-01  0.206810E-01  0.215410E-01  0.215410E-01
  0.223351E-01  0.229001E-01  0.231935E-01  0.231935E-01  0.229001E-01  0.223351E-01
  0.215410E-01  0.205769E-01  0.195108E-01  0.184095E-01  0.173318E-01  0.163248E-01
  0.154243E-01  0.146544E-01  0.140265E-01  0.135387E-01  0.131774E-01  0.129226E-01
  0.127520E-01  0.126455E-01  0.125849E-01  0.125549E-01  0.125433E-01  0.125433E-01
  0.125549E-01  0.125849E-01  0.126455E-01  0.127520E-01  0.129226E-01  0.131774E-01
  0.135387E-01  0.140265E-01  0.146544E-01  0.154243E-01  0.163248E-01  0.173318E-01
  0.184095E-01  0.195108E-01  0.205769E-01  0.215410E-01  0.216945E-01  0.224788E-01
  0.229751E-01  0.231449E-01  0.229751E-01  0.224788E-01  0.216945E-01  0.206810E-01
  0.195108E-01  0.182599E-01  0.169990E-01  0.157864E-01  0.146665E-01  0.136703E-01
  0.128159E-01  0.121087E-01  0.115421E-01  0.111017E-01  0.107695E-01  0.105277E-01
  0.103604E-01  0.102532E-01  0.101942E-01  0.101755E-01  0.101942E-01  0.102532E-01
  0.103604E-01  0.105277E-01  0.107695E-01  0.111017E-01  0.115421E-01  0.121087E-01
  0.128159E-01  0.136703E-01  0.146665E-01  0.157864E-01  0.169990E-01  0.182599E-01
  0.195108E-01  0.206810E-01  0.216945E-01  0.220076E-01  0.227299E-01  0.231063E-01
  0.231063E-01  0.227299E-01  0.220076E-01  0.209958E-01  0.197689E-01  0.184095E-01
  0.169990E-01  0.156087E-01  0.142955E-01  0.130995E-01  0.120460E-01  0.111462E-01
  0.103987E-01  0.979274E-02  0.931329E-02  0.894473E-02  0.867249E-02  0.848302E-02
  0.836431E-02  0.830734E-02  0.830734E-02  0.836431E-02  0.848302E-02  0.867249E-02
  0.894473E-02  0.931329E-02  0.979274E-02  0.103987E-01  0.111462E-01  0.120460E-01
  0.130995E-01  0.142955E-01  0.156087E-01  0.169990E-01  0.184095E-01  0.197689E-01
  0.209958E-01  0.220076E-01  0.224947E-01  0.231059E-01  0.233155E-01  0.231059E-01
  0.224947E-01  0.215320E-01  0.202918E-01  0.188616E-01  0.173318E-01  0.157864E-01
  0.142955E-01  0.129118E-01  0.116705E-01  0.105899E-01  0.967365E-02  0.891429E-02
  0.829803E-02  0.780979E-02  0.743542E-02  0.716169E-02  0.697635E-02  0.686938E-02
  0.683443E-02  0.686938E-02  0.697635E-02  0.716169E-02  0.743542E-02  0.780979E-02
  0.829803E-02  0.891429E-02  0.967365E-02  0.105899E-01  0.116705E-01  0.129118E-01
  0.142955E-01  0.157864E-01  0.173318E-01  0.188616E-01  0.202918E-01  0.215320E-01
  0.224947E-01  0.231829E-01  0.236364E-01  0.236364E-01  0.231829E-01  0.223142E-01
  0.211002E-01  0.196318E-01  0.180079E-01  0.163248E-01  0.146665E-01  0.130995E-01
  0.116705E-01  0.104073E-01  0.932061E-02  0.840714E-02  0.765492E-02  0.704860E-02
  0.657294E-02  0.621367E-02  0.595753E-02  0.579324E-02  0.571299E-02  0.571299E-02
  0.579324E-02  0.595753E-02  0.621367E-02  0.657294E-02  0.704860E-02  0.765492E-02
  0.840714E-02  0.932061E-02  0.104073E-01  0.116705E-01  0.130995E-01  0.146665E-01
  0.163248E-01  0.180079E-01  0.196318E-01  0.211002E-01  0.223142E-01  0.231829E-01
  0.241118E-01  0.243623E-01  0.241118E-01  0.233819E-01  0.222333E-01  0.207564E-01
  0.190581E-01  0.172475E-01  0.154243E-01  0.136703E-01  0.120460E-01  0.105899E-01
  0.932061E-02  0.824080E-02  0.734177E-02  0.660894E-02  0.602594E-02  0.557639E-02
  0.524472E-02  0.501737E-02  0.488453E-02  0.484078E-02  0.488453E-02  0.501737E-02
  0.524472E-02  0.557639E-02  0.602594E-02  0.660894E-02  0.734177E-02  0.824080E-02
  0.932061E-02  0.105899E-01  0.120460E-01  0.136703E-01  0.154243E-01  0.172475E-01
  0.190581E-01  0.207564E-01  0.222333E-01  0.233819E-01  0.241118E-01  0.253260E-01
  0.253260E-01  0.247824E-01  0.237415E-01  0.222887E-01  0.205354E-01  0.186032E-01
  0.166093E-01  0.146544E-01  0.128159E-01  0.111462E-01  0.967365E-02  0.840714E-02
  0.734177E-02  0.646470E-02  0.575941E-02  0.520786E-02  0.479170E-02  0.449404E-02
  0.430185E-02  0.420736E-02  0.420736E-02  0.430185E-02  0.449404E-02  0.479170E-02
  0.520786E-02  0.575941E-02  0.646470E-02  0.734177E-02  0.840714E-02  0.967365E-02
  0.111462E-01  0.128159E-01  0.146544E-01  0.166093E-01  0.186032E-01  0.205354E-01
  0.222887E-01  0.237415E-01  0.247824E-01  0.253260E-01  0.268656E-01  0.265620E-01
  0.256776E-01  0.242878E-01  0.225043E-01  0.204592E-01  0.182869E-01  0.161097E-01
  0.140265E-01  0.121087E-01  0.103987E-01  0.891429E-02  0.765492E-02  0.660894E-02
  0.575941E-02  0.508697E-02  0.457110E-02  0.419164E-02  0.393153E-02  0.377924E-02
  0.372901E-02  0.377924E-02  0.393153E-02  0.419164E-02  0.457110E-02  0.508697E-02
  0.575941E-02  0.660894E-02  0.765492E-02  0.891429E-02  0.103987E-01  0.121087E-01
  0.140265E-01  0.161097E-01  0.182869E-01  0.204592E-01  0.225043E-01  0.242878E-01
  0.256776E-01  0.265620E-01  0.268656E-01  0.287646E-01  0.280954E-01  0.268160E-01
  0.250345E-01  0.228904E-01  0.205354E-01  0.181140E-01  0.157502E-01  0.135387E-01
  0.115421E-01  0.979274E-02  0.829803E-02  0.704860E-02  0.602594E-02  0.520786E-02
  0.457110E-02  0.409270E-02  0.375193E-02  0.353276E-02  0.342534E-02  0.342534E-02
  0.353276E-02  0.375193E-02  0.409270E-02  0.457110E-02  0.520786E-02  0.602594E-02
  0.704860E-02  0.829803E-02  0.979274E-02  0.115421E-01  0.135387E-01  0.157502E-01
  0.181140E-01  0.205354E-01  0.228904E-01  0.250345E-01  0.268160E-01  0.280954E-01
  0.287646E-01  0.287646E-01  0.310496E-01  0.299422E-01  0.282053E-01  0.259829E-01
  0.234433E-01  0.207564E-01  0.180743E-01  0.155190E-01  0.131774E-01  0.111017E-01
  0.931329E-02  0.780979E-02  0.657294E-02  0.557639E-02  0.479170E-02  0.419164E-02
  0.375193E-02  0.345248E-02  0.327860E-02  0.322159E-02  0.327860E-02  0.345248E-02
  0.375193E-02  0.419164E-02  0.479170E-02  0.557639E-02  0.657294E-02  0.780979E-02
  0.931329E-02  0.111017E-01  0.131774E-01  0.155190E-01  0.180743E-01  0.207564E-01
  0.234433E-01  0.259829E-01  0.282053E-01  0.299422E-01  0.310496E-01  0.314302E-01
  0.310496E-01  0.337198E-01  0.320930E-01  0.298307E-01  0.271147E-01  0.241423E-01
  0.211002E-01  0.181454E-01  0.153943E-01  0.129226E-01  0.107695E-01  0.894473E-02
  0.743542E-02  0.621367E-02  0.524472E-02  0.449404E-02  0.393153E-02  0.353276E-02
  0.327860E-02  0.315524E-02  0.315524E-02  0.327860E-02  0.353276E-02  0.393153E-02
  0.449404E-02  0.524472E-02  0.621367E-02  0.743542E-02  0.894473E-02  0.107695E-01
  0.129226E-01  0.153943E-01  0.181454E-01  0.211002E-01  0.241423E-01  0.271147E-01
  0.298307E-01  0.320930E-01  0.337198E-01  0.345712E-01  0.345712E-01  0.337198E-01
  0.367110E-01  0.344873E-01  0.316384E-01  0.283834E-01  0.249472E-01  0.215320E-01
  0.182967E-01  0.153496E-01  0.127520E-01  0.105277E-01  0.867249E-02  0.716169E-02
  0.595753E-02  0.501737E-02  0.430185E-02  0.377924E-02  0.342534E-02  0.322159E-02
  0.315524E-02  0.322159E-02  0.342534E-02  0.377924E-02  0.430185E-02  0.501737E-02
  0.595753E-02  0.716169E-02  0.867249E-02  0.105277E-01  0.127520E-01  0.153496E-01
  0.182967E-01  0.215320E-01  0.249472E-01  0.283834E-01  0.316384E-01  0.344873E-01
  0.367110E-01  0.381263E-01  0.386122E-01  0.381263E-01  0.367110E-01  0.398713E-01
  0.370004E-01  0.335305E-01  0.297139E-01  0.258010E-01  0.220076E-01  0.184939E-01
  0.153585E-01  0.126455E-01  0.103604E-01  0.848302E-02  0.697635E-02  0.579324E-02
  0.488453E-02  0.420736E-02  0.372901E-02  0.342534E-02  0.327860E-02  0.327860E-02
  0.342534E-02  0.372901E-02  0.420736E-02  0.488453E-02  0.579324E-02  0.697635E-02
  0.848302E-02  0.103604E-01  0.126455E-01  0.153585E-01  0.184939E-01  0.220076E-01
  0.258010E-01  0.297139E-01  0.335305E-01  0.370004E-01  0.398713E-01  0.419220E-01
  0.429902E-01  0.429902E-01  0.419220E-01  0.398713E-01  0.429721E-01  0.394581E-01
  0.353784E-01  0.310132E-01  0.266364E-01  0.224788E-01  0.187029E-01  0.153965E-01
  0.125849E-01  0.102532E-01  0.836431E-02  0.686938E-02  0.571299E-02  0.484078E-02
  0.420736E-02  0.377924E-02  0.353276E-02  0.345248E-02  0.353276E-02  0.377924E-02
  0.420736E-02  0.484078E-02  0.571299E-02  0.686938E-02  0.836431E-02  0.102532E-01
  0.125849E-01  0.153965E-01  0.187029E-01  0.224788E-01  0.266364E-01  0.310132E-01
  0.353784E-01  0.394581E-01  0.429721E-01  0.456717E-01  0.473681E-01  0.479464E-01
  0.473681E-01  0.456717E-01  0.429721E-01  0.457528E-01  0.416756E-01  0.370511E-01
  0.321876E-01  0.273873E-01  0.229001E-01  0.188928E-01  0.154425E-01  0.125549E-01
  0.101942E-01  0.830734E-02  0.683443E-02  0.571299E-02  0.488453E-02  0.430185E-02
  0.393153E-02  0.375193E-02  0.375193E-02  0.393153E-02  0.430185E-02  0.488453E-02
  0.571299E-02  0.683443E-02  0.830734E-02  0.101942E-01  0.125549E-01  0.154425E-01
  0.188928E-01  0.229001E-01  0.273873E-01  0.321876E-01  0.370511E-01  0.416756E-01
  0.457528E-01  0.490175E-01  0.512805E-01  0.524341E-01  0.524341E-01  0.512805E-01
  0.490175E-01  0.457528E-01  0.479848E-01  0.435011E-01  0.384425E-01  0.331601E-01
  0.279978E-01  0.232322E-01  0.190369E-01  0.154786E-01  0.125433E-01  0.101755E-01
  0.830734E-02  0.686938E-02  0.579324E-02  0.501737E-02  0.449404E-02  0.419164E-02
  0.409270E-02  0.419164E-02  0.449404E-02  0.501737E-02  0.579324E-02  0.686938E-02
  0.830734E-02  0.101755E-01  0.125433E-01  0.154786E-01  0.190369E-01  0.232322E-01
  0.279978E-01  0.331601E-01  0.384425E-01  0.435011E-01  0.479848E-01  0.516094E-01
  0.542123E-01  0.557541E-01  0.562615E-01  0.557541E-01  0.542123E-01  0.516094E-01
  0.479848E-01  0.495394E-01  0.448526E-01  0.394901E-01  0.338790E-01  0.284268E-01
  0.234449E-01  0.191149E-01  0.154922E-01  0.125433E-01  0.101942E-01  0.836431E-02
  0.697635E-02  0.595753E-02  0.524472E-02  0.479170E-02  0.457110E-02  0.457110E-02
  0.479170E-02  0.524472E-02  0.595753E-02  0.697635E-02  0.836431E-02  0.101942E-01
  0.125433E-01  0.154922E-01  0.191149E-01  0.234449E-01  0.284268E-01  0.338790E-01
  0.394901E-01  0.448526E-01  0.495394E-01  0.532184E-01  0.557599E-01  0.572566E-01
  0.579216E-01  0.579216E-01  0.572566E-01  0.557599E-01  0.532184E-01  0.495394E-01
  0.504371E-01  0.457324E-01  0.401762E-01  0.343174E-01  0.286479E-01  0.235182E-01
  0.191149E-01  0.154786E-01  0.125549E-01  0.102532E-01  0.848302E-02  0.716169E-02
  0.621367E-02  0.557639E-02  0.520786E-02  0.508697E-02  0.520786E-02  0.557639E-02
  0.621367E-02  0.716169E-02  0.848302E-02  0.102532E-01  0.125549E-01  0.154786E-01
  0.191149E-01  0.235182E-01  0.286479E-01  0.343174E-01  0.401762E-01  0.457324E-01
  0.504371E-01  0.538518E-01  0.558462E-01  0.566775E-01  0.568528E-01  0.568476E-01
  0.568528E-01  0.566775E-01  0.558462E-01  0.538518E-01  0.504371E-01  0.508390E-01
  0.462068E-01  0.405119E-01  0.344644E-01  0.286479E-01  0.234449E-01  0.190369E-01
  0.154425E-01  0.125849E-01  0.103604E-01  0.867249E-02  0.743542E-02  0.657294E-02
  0.602594E-02  0.575941E-02  0.575941E-02  0.602594E-02  0.657294E-02  0.743542E-02
  0.867249E-02  0.103604E-01  0.125849E-01  0.154425E-01  0.190369E-01  0.234449E-01
  0.286479E-01  0.344644E-01  0.405119E-01  0.462068E-01  0.508390E-01  0.537899E-01
  0.548526E-01  0.544242E-01  0.533565E-01  0.525474E-01  0.525474E-01  0.533565E-01
  0.544242E-01  0.548526E-01  0.537899E-01  0.508390E-01  0.509634E-01  0.463536E-01
  0.405119E-01  0.343174E-01  0.284268E-01  0.232322E-01  0.188928E-01  0.153965E-01
  0.126455E-01  0.105277E-01  0.894473E-02  0.780979E-02  0.704860E-02  0.660894E-02
  0.646470E-02  0.660894E-02  0.704860E-02  0.780979E-02  0.894473E-02  0.105277E-01
  0.126455E-01  0.153965E-01  0.188928E-01  0.232322E-01  0.284268E-01  0.343174E-01
  0.405119E-01  0.463536E-01  0.509634E-01  0.534794E-01  0.535133E-01  0.515170E-01
  0.486672E-01  0.463092E-01  0.454105E-01  0.463092E-01  0.486672E-01  0.515170E-01
  0.535133E-01  0.534794E-01  0.509634E-01  0.509634E-01  0.462068E-01  0.401762E-01
  0.338790E-01  0.279978E-01  0.229001E-01  0.187029E-01  0.153585E-01  0.127520E-01
  0.107695E-01  0.931329E-02  0.829803E-02  0.765492E-02  0.734177E-02  0.734177E-02
  0.765492E-02  0.829803E-02  0.931329E-02  0.107695E-01  0.127520E-01  0.153585E-01
  0.187029E-01  0.229001E-01  0.279978E-01  0.338790E-01  0.401762E-01  0.462068E-01
  0.509634E-01  0.533225E-01  0.526024E-01  0.491626E-01  0.444181E-01  0.401387E-01
  0.376753E-01  0.376753E-01  0.401387E-01  0.444181E-01  0.491626E-01  0.526024E-01
  0.533225E-01  0.509634E-01  0.508390E-01  0.457324E-01  0.394901E-01  0.331601E-01
  0.273873E-01  0.224788E-01  0.184939E-01  0.153496E-01  0.129226E-01  0.111017E-01
  0.979274E-02  0.891429E-02  0.840714E-02  0.824080E-02  0.840714E-02  0.891429E-02
  0.979274E-02  0.111017E-01  0.129226E-01  0.153496E-01  0.184939E-01  0.224788E-01
  0.273873E-01  0.331601E-01  0.394901E-01  0.457324E-01  0.508390E-01  0.534794E-01
  0.526024E-01  0.482686E-01  0.419489E-01  0.357903E-01  0.315275E-01  0.300317E-01
  0.315275E-01  0.357903E-01  0.419489E-01  0.482686E-01  0.526024E-01  0.534794E-01
  0.508390E-01  0.504371E-01  0.448526E-01  0.384425E-01  0.321876E-01  0.266364E-01
  0.220076E-01  0.182967E-01  0.153943E-01  0.131774E-01  0.115421E-01  0.103987E-01
  0.967365E-02  0.932061E-02  0.932061E-02  0.967365E-02  0.103987E-01  0.115421E-01
  0.131774E-01  0.153943E-01  0.182967E-01  0.220076E-01  0.266364E-01  0.321876E-01
  0.384425E-01  0.448526E-01  0.504371E-01  0.537899E-01  0.535133E-01  0.491626E-01
  0.419489E-01  0.342465E-01  0.282389E-01  0.250749E-01  0.250749E-01  0.282389E-01
  0.342465E-01  0.419489E-01  0.491626E-01  0.535133E-01  0.537899E-01  0.504371E-01
  0.495394E-01  0.435011E-01  0.370511E-01  0.310132E-01  0.258010E-01  0.215320E-01
  0.181454E-01  0.155190E-01  0.135387E-01  0.121087E-01  0.111462E-01  0.105899E-01
  0.104073E-01  0.105899E-01  0.111462E-01  0.121087E-01  0.135387E-01  0.155190E-01
  0.181454E-01  0.215320E-01  0.258010E-01  0.310132E-01  0.370511E-01  0.435011E-01
  0.495394E-01  0.538518E-01  0.548526E-01  0.515170E-01  0.444181E-01  0.357903E-01
  0.282389E-01  0.233970E-01  0.217696E-01  0.233970E-01  0.282389E-01  0.357903E-01
  0.444181E-01  0.515170E-01  0.548526E-01  0.538518E-01  0.495394E-01  0.479848E-01
  0.416756E-01  0.353784E-01  0.297139E-01  0.249472E-01  0.211002E-01  0.180743E-01
  0.157502E-01  0.140265E-01  0.128159E-01  0.120460E-01  0.116705E-01  0.116705E-01
  0.120460E-01  0.128159E-01  0.140265E-01  0.157502E-01  0.180743E-01  0.211002E-01
  0.249472E-01  0.297139E-01  0.353784E-01  0.416756E-01  0.479848E-01  0.532184E-01
  0.558462E-01  0.544242E-01  0.486672E-01  0.401387E-01  0.315275E-01  0.250749E-01
  0.217696E-01  0.217696E-01  0.250749E-01  0.315275E-01  0.401387E-01  0.486672E-01
  0.544242E-01  0.558462E-01  0.532184E-01  0.479848E-01  0.457528E-01  0.394581E-01
  0.335305E-01  0.283834E-01  0.241423E-01  0.207564E-01  0.181140E-01  0.161097E-01
  0.146544E-01  0.136703E-01  0.130995E-01  0.129118E-01  0.130995E-01  0.136703E-01
  0.146544E-01  0.161097E-01  0.181140E-01  0.207564E-01  0.241423E-01  0.283834E-01
  0.335305E-01  0.394581E-01  0.457528E-01  0.516094E-01  0.557599E-01  0.566775E-01
  0.533565E-01  0.463092E-01  0.376753E-01  0.300317E-01  0.250749E-01  0.233970E-01
  0.250749E-01  0.300317E-01  0.376753E-01  0.463092E-01  0.533565E-01  0.566775E-01
  0.557599E-01  0.516094E-01  0.457528E-01  0.429721E-01  0.370004E-01  0.316384E-01
  0.271147E-01  0.234433E-01  0.205354E-01  0.182869E-01  0.166093E-01  0.154243E-01
  0.146665E-01  0.142955E-01  0.142955E-01  0.146665E-01  0.154243E-01  0.166093E-01
  0.182869E-01  0.205354E-01  0.234433E-01  0.271147E-01  0.316384E-01  0.370004E-01
  0.429721E-01  0.490175E-01  0.542123E-01  0.572566E-01  0.568528E-01  0.525474E-01
  0.454105E-01  0.376753E-01  0.315275E-01  0.282389E-01  0.282389E-01  0.315275E-01
  0.376753E-01  0.454105E-01  0.525474E-01  0.568528E-01  0.572566E-01  0.542123E-01
  0.490175E-01  0.429721E-01  0.398713E-01  0.344873E-01  0.298307E-01  0.259829E-01
  0.228904E-01  0.204592E-01  0.186032E-01  0.172475E-01  0.163248E-01  0.157864E-01
  0.156087E-01  0.157864E-01  0.163248E-01  0.172475E-01  0.186032E-01  0.204592E-01
  0.228904E-01  0.259829E-01  0.298307E-01  0.344873E-01  0.398713E-01  0.456717E-01
  0.512805E-01  0.557541E-01  0.579216E-01  0.568476E-01  0.525474E-01  0.463092E-01
  0.401387E-01  0.357903E-01  0.342465E-01  0.357903E-01  0.401387E-01  0.463092E-01
  0.525474E-01  0.568476E-01  0.579216E-01  0.557541E-01  0.512805E-01  0.456717E-01
  0.398713E-01  0.367110E-01  0.320930E-01  0.282053E-01  0.250345E-01  0.225043E-01
  0.205354E-01  0.190581E-01  0.180079E-01  0.173318E-01  0.169990E-01  0.169990E-01
  0.173318E-01  0.180079E-01  0.190581E-01  0.205354E-01  0.225043E-01  0.250345E-01
  0.282053E-01  0.320930E-01  0.367110E-01  0.419220E-01  0.473681E-01  0.524341E-01
  0.562615E-01  0.579216E-01  0.568528E-01  0.533565E-01  0.486672E-01  0.444181E-01
  0.419489E-01  0.419489E-01  0.444181E-01  0.486672E-01  0.533565E-01  0.568528E-01
  0.579216E-01  0.562615E-01  0.524341E-01  0.473681E-01  0.419220E-01  0.367110E-01
  0.337198E-01  0.299422E-01  0.268160E-01  0.242878E-01  0.222887E-01  0.207564E-01
  0.196318E-01  0.188616E-01  0.184095E-01  0.182599E-01  0.184095E-01  0.188616E-01
  0.196318E-01  0.207564E-01  0.222887E-01  0.242878E-01  0.268160E-01  0.299422E-01
  0.337198E-01  0.381263E-01  0.429902E-01  0.479464E-01  0.524341E-01  0.557541E-01
  0.572566E-01  0.566775E-01  0.544242E-01  0.515170E-01  0.491626E-01  0.482686E-01
  0.491626E-01  0.515170E-01  0.544242E-01  0.566775E-01  0.572566E-01  0.557541E-01
  0.524341E-01  0.479464E-01  0.429902E-01  0.381263E-01  0.337198E-01  0.310496E-01
  0.280954E-01  0.256776E-01  0.237415E-01  0.222333E-01  0.211002E-01  0.202918E-01
  0.197689E-01  0.195108E-01  0.195108E-01  0.197689E-01  0.202918E-01  0.211002E-01
  0.222333E-01  0.237415E-01  0.256776E-01  0.280954E-01  0.310496E-01  0.345712E-01
  0.386122E-01  0.429902E-01  0.473681E-01  0.512805E-01  0.542123E-01  0.557599E-01
  0.558462E-01  0.548526E-01  0.535133E-01  0.526024E-01  0.526024E-01  0.535133E-01
  0.548526E-01  0.558462E-01  0.557599E-01  0.542123E-01  0.512805E-01  0.473681E-01
  0.429902E-01  0.386122E-01  0.345712E-01  0.310496E-01  0.287646E-01  0.265620E-01
  0.247824E-01  0.233819E-01  0.223142E-01  0.215320E-01  0.209958E-01  0.206810E-01
  0.205769E-01  0.206810E-01  0.209958E-01  0.215320E-01  0.223142E-01  0.233819E-01
  0.247824E-01  0.265620E-01  0.287646E-01  0.314302E-01  0.345712E-01  0.381263E-01
  0.419220E-01  0.456717E-01  0.490175E-01  0.516094E-01  0.532184E-01  0.538518E-01
  0.537899E-01  0.534794E-01  0.533225E-01  0.534794E-01  0.537899E-01  0.538518E-01
  0.532184E-01  0.516094E-01  0.490175E-01  0.456717E-01  0.419220E-01  0.381263E-01
  0.345712E-01  0.314302E-01  0.287646E-01  0.268656E-01  0.253260E-01  0.241118E-01
  0.231829E-01  0.224947E-01  0.220076E-01  0.216945E-01  0.215410E-01  0.215410E-01
  0.216945E-01  0.220076E-01  0.224947E-01  0.231829E-01  0.241118E-01  0.253260E-01
  0.268656E-01  0.287646E-01  0.310496E-01  0.337198E-01  0.367110E-01  0.398713E-01
  0.429721E-01  0.457528E-01  0.479848E-01  0.495394E-01  0.504371E-01  0.508390E-01
  0.509634E-01  0.509634E-01  0.508390E-01  0.504371E-01  0.495394E-01  0.479848E-01
  0.457528E-01  0.429721E-01  0.398713E-01  0.367110E-01  0.337198E-01  0.310496E-01
  0.287646E-01  0.268656E-01  0.301182E-01  0.289549E-01  0.280717E-01  0.274205E-01
  0.269537E-01  0.266364E-01  0.264504E-01  0.263889E-01  0.264504E-01  0.266364E-01
  0.269537E-01  0.274205E-01  0.280717E-01  0.289549E-01  0.301182E-01  0.316026E-01
  0.334415E-01  0.356507E-01  0.381981E-01  0.409702E-01  0.437665E-01  0.463310E-01
  0.484132E-01  0.498431E-01  0.506011E-01  0.508390E-01  0.508174E-01  0.507777E-01
  0.508174E-01  0.508390E-01  0.506011E-01  0.498431E-01  0.484132E-01  0.463310E-01
  0.437665E-01  0.409702E-01  0.381981E-01  0.356507E-01  0.334415E-01  0.316026E-01
  0.301182E-01  0.289549E-01  0.283657E-01  0.279593E-01  0.276844E-01  0.275013E-01
  0.273873E-01  0.273325E-01  0.273325E-01  0.273873E-01  0.275013E-01  0.276844E-01
  0.279593E-01  0.283657E-01  0.289549E-01  0.297746E-01  0.308608E-01  0.322382E-01
  0.339140E-01  0.358563E-01  0.379727E-01  0.401117E-01  0.420918E-01  0.437480E-01
  0.449788E-01  0.457740E-01  0.462068E-01  0.463849E-01  0.463849E-01  0.462068E-01
  0.457740E-01  0.449788E-01  0.437480E-01  0.420918E-01  0.401117E-01  0.379727E-01
  0.358563E-01  0.339140E-01  0.322382E-01  0.308608E-01  0.297746E-01  0.289549E-01
  0.280717E-01  0.279593E-01  0.279348E-01  0.279506E-01  0.279766E-01  0.279978E-01
  0.280059E-01  0.279978E-01  0.279766E-01  0.279506E-01  0.279348E-01  0.279593E-01
  0.280717E-01  0.283278E-01  0.287745E-01  0.294434E-01  0.303524E-01  0.315026E-01
  0.328645E-01  0.343666E-01  0.358980E-01  0.373312E-01  0.385541E-01  0.394975E-01
  0.401437E-01  0.405119E-01  0.406305E-01  0.405119E-01  0.401437E-01  0.394975E-01
  0.385541E-01  0.373312E-01  0.358980E-01  0.343666E-01  0.328645E-01  0.315026E-01
  0.303524E-01  0.294434E-01  0.287745E-01  0.283278E-01  0.280717E-01  0.274205E-01
  0.276844E-01  0.279506E-01  0.281776E-01  0.283411E-01  0.284268E-01  0.284268E-01
  0.283411E-01  0.281776E-01  0.279506E-01  0.276844E-01  0.274205E-01  0.272156E-01
  0.271283E-01  0.272043E-01  0.274716E-01  0.279424E-01  0.286129E-01  0.294568E-01
  0.304189E-01  0.314191E-01  0.323673E-01  0.331849E-01  0.338203E-01  0.342493E-01
  0.344644E-01  0.344644E-01  0.342493E-01  0.338203E-01  0.331849E-01  0.323673E-01
  0.314191E-01  0.304189E-01  0.294568E-01  0.286129E-01  0.279424E-01  0.274716E-01
  0.272043E-01  0.271283E-01  0.272156E-01  0.274205E-01  0.269537E-01  0.275013E-01
  0.279766E-01  0.283411E-01  0.285698E-01  0.286479E-01  0.285698E-01  0.283411E-01
  0.279766E-01  0.275013E-01  0.269537E-01  0.263887E-01  0.258699E-01  0.254568E-01
  0.251927E-01  0.251021E-01  0.251927E-01  0.254568E-01  0.258699E-01  0.263887E-01
  0.269537E-01  0.275013E-01  0.279766E-01  0.283411E-01  0.285698E-01  0.286479E-01
  0.285698E-01  0.283411E-01  0.279766E-01  0.275013E-01  0.269537E-01  0.263887E-01
  0.258699E-01  0.254568E-01  0.251927E-01  0.251021E-01  0.251927E-01  0.254568E-01
  0.258699E-01  0.263887E-01  0.269537E-01  0.266364E-01  0.273873E-01  0.279978E-01
  0.284268E-01  0.286479E-01  0.286479E-01  0.284268E-01  0.279978E-01  0.273873E-01
  0.266364E-01  0.258010E-01  0.249472E-01  0.241423E-01  0.234433E-01  0.228904E-01
  0.225043E-01  0.222887E-01  0.222333E-01  0.223142E-01  0.224947E-01  0.227299E-01
  0.229751E-01  0.231935E-01  0.233570E-01  0.234449E-01  0.234449E-01  0.233570E-01
  0.231935E-01  0.229751E-01  0.227299E-01  0.224947E-01  0.223142E-01  0.222333E-01
  0.222887E-01  0.225043E-01  0.228904E-01  0.234433E-01  0.241423E-01  0.249472E-01
  0.258010E-01  0.266364E-01  0.264504E-01  0.273325E-01  0.280059E-01  0.284268E-01
  0.285698E-01  0.284268E-01  0.280059E-01  0.273325E-01  0.264504E-01  0.254203E-01
  0.243140E-01  0.232048E-01  0.221590E-01  0.212293E-01  0.204504E-01  0.198391E-01
  0.193962E-01  0.191089E-01  0.189531E-01  0.188963E-01  0.189039E-01  0.189454E-01
  0.189963E-01  0.190369E-01  0.190524E-01  0.190369E-01  0.189963E-01  0.189454E-01
  0.189039E-01  0.188963E-01  0.189531E-01  0.191089E-01  0.193962E-01  0.198391E-01
  0.204504E-01  0.212293E-01  0.221590E-01  0.232048E-01  0.243140E-01  0.254203E-01
  0.264504E-01  0.263889E-01  0.273325E-01  0.279978E-01  0.283411E-01  0.283411E-01
  0.279978E-01  0.273325E-01  0.263889E-01  0.252319E-01  0.239410E-01  0.225987E-01
  0.212807E-01  0.200490E-01  0.189493E-01  0.180100E-01  0.172436E-01  0.166476E-01
  0.162071E-01  0.158974E-01  0.156899E-01  0.155583E-01  0.154815E-01  0.154425E-01
  0.154274E-01  0.154274E-01  0.154425E-01  0.154815E-01  0.155583E-01  0.156899E-01
  0.158974E-01  0.162071E-01  0.166476E-01  0.172436E-01  0.180100E-01  0.189493E-01
  0.200490E-01  0.212807E-01  0.225987E-01  0.239410E-01  0.252319E-01  0.263889E-01
  0.264504E-01  0.273873E-01  0.279766E-01  0.281776E-01  0.279766E-01  0.273873E-01
  0.264504E-01  0.252319E-01  0.238172E-01  0.222992E-01  0.207659E-01  0.192907E-01
  0.179289E-01  0.167181E-01  0.156798E-01  0.148213E-01  0.141361E-01  0.136066E-01
  0.132088E-01  0.129185E-01  0.127157E-01  0.125849E-01  0.125131E-01  0.124904E-01
  0.125131E-01  0.125849E-01  0.127157E-01  0.129185E-01  0.132088E-01  0.136066E-01
  0.141361E-01  0.148213E-01  0.156798E-01  0.167181E-01  0.179289E-01  0.192907E-01
  0.207659E-01  0.222992E-01  0.238172E-01  0.252319E-01  0.264504E-01  0.266364E-01
  0.275013E-01  0.279506E-01  0.279506E-01  0.275013E-01  0.266364E-01  0.254203E-01
  0.239410E-01  0.222992E-01  0.205956E-01  0.189181E-01  0.173348E-01  0.158934E-01
  0.146233E-01  0.135388E-01  0.126403E-01  0.119162E-01  0.113467E-01  0.109100E-01
  0.105865E-01  0.103604E-01  0.102188E-01  0.101512E-01  0.101512E-01  0.102188E-01
  0.103604E-01  0.105865E-01  0.109100E-01  0.113467E-01  0.119162E-01  0.126403E-01
  0.135388E-01  0.146233E-01  0.158934E-01  0.173348E-01  0.189181E-01  0.205956E-01
  0.222992E-01  0.239410E-01  0.254203E-01  0.266364E-01  0.269537E-01  0.276844E-01
  0.279348E-01  0.276844E-01  0.269537E-01  0.258010E-01  0.243140E-01  0.225987E-01
  0.207659E-01  0.189181E-01  0.171392E-01  0.154904E-01  0.140115E-01  0.127241E-01
  0.116342E-01  0.107344E-01  0.100079E-01  0.943437E-02  0.899459E-02  0.867249E-02
  0.845454E-02  0.832931E-02  0.828859E-02  0.832931E-02  0.845454E-02  0.867249E-02
  0.899459E-02  0.943437E-02  0.100079E-01  0.107344E-01  0.116342E-01  0.127241E-01
  0.140115E-01  0.154904E-01  0.171392E-01  0.189181E-01  0.207659E-01  0.225987E-01
  0.243140E-01  0.258010E-01  0.269537E-01  0.274205E-01  0.279593E-01  0.279593E-01
  0.274205E-01  0.263887E-01  0.249472E-01  0.232048E-01  0.212807E-01  0.192907E-01
  0.173348E-01  0.154904E-01  0.138107E-01  0.123274E-01  0.110535E-01  0.998585E-02
  0.910994E-02  0.840569E-02  0.785323E-02  0.743542E-02  0.713765E-02  0.694743E-02
  0.685504E-02  0.685504E-02  0.694743E-02  0.713765E-02  0.743542E-02  0.785323E-02
  0.840569E-02  0.910994E-02  0.998585E-02  0.110535E-01  0.123274E-01  0.138107E-01
  0.154904E-01  0.173348E-01  0.192907E-01  0.212807E-01  0.232048E-01  0.249472E-01
  0.263887E-01  0.274205E-01  0.280717E-01  0.283657E-01  0.280717E-01  0.272156E-01
  0.258699E-01  0.241423E-01  0.221590E-01  0.200490E-01  0.179289E-01  0.158934E-01
  0.140115E-01  0.123274E-01  0.108631E-01  0.962176E-02  0.859196E-02  0.775437E-02
  0.708783E-02  0.657294E-02  0.619278E-02  0.593285E-02  0.578174E-02  0.573219E-02
  0.578174E-02  0.593285E-02  0.619278E-02  0.657294E-02  0.708783E-02  0.775437E-02
  0.859196E-02  0.962176E-02  0.108631E-01  0.123274E-01  0.140115E-01  0.158934E-01
  0.179289E-01  0.200490E-01  0.221590E-01  0.241423E-01  0.258699E-01  0.272156E-01
  0.280717E-01  0.289549E-01  0.289549E-01  0.283278E-01  0.271283E-01  0.254568E-01
  0.234433E-01  0.212293E-01  0.189493E-01  0.167181E-01  0.146233E-01  0.127241E-01
  0.110535E-01  0.962176E-02  0.842217E-02  0.743736E-02  0.664581E-02  0.602594E-02
  0.555763E-02  0.522294E-02  0.500756E-02  0.490207E-02  0.490207E-02  0.500756E-02
  0.522294E-02  0.555763E-02  0.602594E-02  0.664581E-02  0.743736E-02  0.842217E-02
  0.962176E-02  0.110535E-01  0.127241E-01  0.146233E-01  0.167181E-01  0.189493E-01
  0.212293E-01  0.234433E-01  0.254568E-01  0.271283E-01  0.283278E-01  0.289549E-01
  0.301182E-01  0.297746E-01  0.287745E-01  0.272043E-01  0.251927E-01  0.228904E-01
  0.204504E-01  0.180100E-01  0.156798E-01  0.135388E-01  0.116342E-01  0.998585E-02
  0.859196E-02  0.743736E-02  0.650080E-02  0.575941E-02  0.519038E-02  0.477193E-02
  0.448550E-02  0.431811E-02  0.426297E-02  0.431811E-02  0.448550E-02  0.477193E-02
  0.519038E-02  0.575941E-02  0.650080E-02  0.743736E-02  0.859196E-02  0.998585E-02
  0.116342E-01  0.135388E-01  0.156798E-01  0.180100E-01  0.204504E-01  0.228904E-01
  0.251927E-01  0.272043E-01  0.287745E-01  0.297746E-01  0.301182E-01  0.316026E-01
  0.308608E-01  0.294434E-01  0.274716E-01  0.251021E-01  0.225043E-01  0.198391E-01
  0.172436E-01  0.148213E-01  0.126403E-01  0.107344E-01  0.910994E-02  0.775437E-02
  0.664581E-02  0.575941E-02  0.506994E-02  0.455246E-02  0.418416E-02  0.394730E-02
  0.383112E-02  0.383112E-02  0.394730E-02  0.418416E-02  0.455246E-02  0.506994E-02
  0.575941E-02  0.664581E-02  0.775437E-02  0.910994E-02  0.107344E-01  0.126403E-01
  0.148213E-01  0.172436E-01  0.198391E-01  0.225043E-01  0.251021E-01  0.274716E-01
  0.294434E-01  0.308608E-01  0.316026E-01  0.316026E-01  0.334415E-01  0.322382E-01
  0.303524E-01  0.279424E-01  0.251927E-01  0.222887E-01  0.193962E-01  0.166476E-01
  0.141361E-01  0.119162E-01  0.100079E-01  0.840569E-02  0.708783E-02  0.602594E-02
  0.519038E-02  0.455246E-02  0.408568E-02  0.376770E-02  0.358268E-02  0.352190E-02
  0.358268E-02  0.376770E-02  0.408568E-02  0.455246E-02  0.519038E-02  0.602594E-02
  0.708783E-02  0.840569E-02  0.100079E-01  0.119162E-01  0.141361E-01  0.166476E-01
  0.193962E-01  0.222887E-01  0.251927E-01  0.279424E-01  0.303524E-01  0.322382E-01
  0.334415E-01  0.338553E-01  0.334415E-01  0.356507E-01  0.339140E-01  0.315026E-01
  0.286129E-01  0.254568E-01  0.222333E-01  0.191089E-01  0.162071E-01  0.136066E-01
  0.113467E-01  0.943437E-02  0.785323E-02  0.657294E-02  0.555763E-02  0.477193E-02
  0.418416E-02  0.376770E-02  0.350182E-02  0.337241E-02  0.337241E-02  0.350182E-02
  0.376770E-02  0.418416E-02  0.477193E-02  0.555763E-02  0.657294E-02  0.785323E-02
  0.943437E-02  0.113467E-01  0.136066E-01  0.162071E-01  0.191089E-01  0.222333E-01
  0.254568E-01  0.286129E-01  0.315026E-01  0.339140E-01  0.356507E-01  0.365607E-01
  0.365607E-01  0.356507E-01  0.381981E-01  0.358563E-01  0.328645E-01  0.294568E-01
  0.258699E-01  0.223142E-01  0.189531E-01  0.158974E-01  0.132088E-01  0.109100E-01
  0.899459E-02  0.743542E-02  0.619278E-02  0.522294E-02  0.448550E-02  0.394730E-02
  0.358268E-02  0.337241E-02  0.330383E-02  0.337241E-02  0.358268E-02  0.394730E-02
  0.448550E-02  0.522294E-02  0.619278E-02  0.743542E-02  0.899459E-02  0.109100E-01
  0.132088E-01  0.158974E-01  0.189531E-01  0.223142E-01  0.258699E-01  0.294568E-01
  0.328645E-01  0.358563E-01  0.381981E-01  0.396920E-01  0.402055E-01  0.396920E-01
  0.381981E-01  0.409702E-01  0.379727E-01  0.343666E-01  0.304189E-01  0.263887E-01
  0.224947E-01  0.188963E-01  0.156899E-01  0.129185E-01  0.105865E-01  0.867249E-02
  0.713765E-02  0.593285E-02  0.500756E-02  0.431811E-02  0.383112E-02  0.352190E-02
  0.337241E-02  0.337241E-02  0.352190E-02  0.383112E-02  0.431811E-02  0.500756E-02
  0.593285E-02  0.713765E-02  0.867249E-02  0.105865E-01  0.129185E-01  0.156899E-01
  0.188963E-01  0.224947E-01  0.263887E-01  0.304189E-01  0.343666E-01  0.379727E-01
  0.409702E-01  0.431199E-01  0.442425E-01  0.442425E-01  0.431199E-01  0.409702E-01
  0.437665E-01  0.401117E-01  0.358980E-01  0.314191E-01  0.269537E-01  0.227299E-01
  0.189039E-01  0.155583E-01  0.127157E-01  0.103604E-01  0.845454E-02  0.694743E-02
  0.578174E-02  0.490207E-02  0.426297E-02  0.383112E-02  0.358268E-02  0.350182E-02
  0.358268E-02  0.383112E-02  0.426297E-02  0.490207E-02  0.578174E-02  0.694743E-02
  0.845454E-02  0.103604E-01  0.127157E-01  0.155583E-01  0.189039E-01  0.227299E-01
  0.269537E-01  0.314191E-01  0.358980E-01  0.401117E-01  0.437665E-01  0.465927E-01
  0.483779E-01  0.489882E-01  0.483779E-01  0.465927E-01  0.437665E-01  0.463310E-01
  0.420918E-01  0.373312E-01  0.323673E-01  0.275013E-01  0.229751E-01  0.189454E-01
  0.154815E-01  0.125849E-01  0.102188E-01  0.832931E-02  0.685504E-02  0.573219E-02
  0.490207E-02  0.431811E-02  0.394730E-02  0.376770E-02  0.376770E-02  0.394730E-02
  0.431811E-02  0.490207E-02  0.573219E-02  0.685504E-02  0.832931E-02  0.102188E-01
  0.125849E-01  0.154815E-01  0.189454E-01  0.229751E-01  0.275013E-01  0.323673E-01
  0.373312E-01  0.420918E-01  0.463310E-01  0.497615E-01  0.521627E-01  0.533955E-01
  0.533955E-01  0.521627E-01  0.497615E-01  0.463310E-01  0.484132E-01  0.437480E-01
  0.385541E-01  0.331849E-01  0.279766E-01  0.231935E-01  0.189963E-01  0.154425E-01
  0.125131E-01  0.101512E-01  0.828859E-02  0.685504E-02  0.578174E-02  0.500756E-02
  0.448550E-02  0.418416E-02  0.408568E-02  0.418416E-02  0.448550E-02  0.500756E-02
  0.578174E-02  0.685504E-02  0.828859E-02  0.101512E-01  0.125131E-01  0.154425E-01
  0.189963E-01  0.231935E-01  0.279766E-01  0.331849E-01  0.385541E-01  0.437480E-01
  0.484132E-01  0.522465E-01  0.550493E-01  0.567368E-01  0.572976E-01  0.567368E-01
  0.550493E-01  0.522465E-01  0.484132E-01  0.498431E-01  0.449788E-01  0.394975E-01
  0.338203E-01  0.283411E-01  0.233570E-01  0.190369E-01  0.154274E-01  0.124904E-01
  0.101512E-01  0.832931E-02  0.694743E-02  0.593285E-02  0.522294E-02  0.477193E-02
  0.455246E-02  0.455246E-02  0.477193E-02  0.522294E-02  0.593285E-02  0.694743E-02
  0.832931E-02  0.101512E-01  0.124904E-01  0.154274E-01  0.190369E-01  0.233570E-01
  0.283411E-01  0.338203E-01  0.394975E-01  0.449788E-01  0.498431E-01  0.537481E-01
  0.565307E-01  0.582328E-01  0.590161E-01  0.590161E-01  0.582328E-01  0.565307E-01
  0.537481E-01  0.498431E-01  0.506011E-01  0.457740E-01  0.401437E-01  0.342493E-01
  0.285698E-01  0.234449E-01  0.190524E-01  0.154274E-01  0.125131E-01  0.102188E-01
  0.845454E-02  0.713765E-02  0.619278E-02  0.555763E-02  0.519038E-02  0.506994E-02
  0.519038E-02  0.555763E-02  0.619278E-02  0.713765E-02  0.845454E-02  0.102188E-01
  0.125131E-01  0.154274E-01  0.190524E-01  0.234449E-01  0.285698E-01  0.342493E-01
  0.401437E-01  0.457740E-01  0.506011E-01  0.541857E-01  0.563767E-01  0.573932E-01
  0.577003E-01  0.577427E-01  0.577003E-01  0.573932E-01  0.563767E-01  0.541857E-01
  0.506011E-01  0.508390E-01  0.462068E-01  0.405119E-01  0.344644E-01  0.286479E-01
  0.234449E-01  0.190369E-01  0.154425E-01  0.125849E-01  0.103604E-01  0.867249E-02
  0.743542E-02  0.657294E-02  0.602594E-02  0.575941E-02  0.575941E-02  0.602594E-02
  0.657294E-02  0.743542E-02  0.867249E-02  0.103604E-01  0.125849E-01  0.154425E-01
  0.190369E-01  0.234449E-01  0.286479E-01  0.344644E-01  0.405119E-01  0.462068E-01
  0.508390E-01  0.537899E-01  0.548526E-01  0.544242E-01  0.533565E-01  0.525474E-01
  0.525474E-01  0.533565E-01  0.544242E-01  0.548526E-01  0.537899E-01  0.508390E-01
  0.508174E-01  0.463849E-01  0.406305E-01  0.344644E-01  0.285698E-01  0.233570E-01
  0.189963E-01  0.154815E-01  0.127157E-01  0.105865E-01  0.899459E-02  0.785323E-02
  0.708783E-02  0.664581E-02  0.650080E-02  0.664581E-02  0.708783E-02  0.785323E-02
  0.899459E-02  0.105865E-01  0.127157E-01  0.154815E-01  0.189963E-01  0.233570E-01
  0.285698E-01  0.344644E-01  0.406305E-01  0.463849E-01  0.508174E-01  0.530488E-01
  0.527142E-01  0.503345E-01  0.471670E-01  0.446090E-01  0.436435E-01  0.446090E-01
  0.471670E-01  0.503345E-01  0.527142E-01  0.530488E-01  0.508174E-01  0.507777E-01
  0.463849E-01  0.405119E-01  0.342493E-01  0.283411E-01  0.231935E-01  0.189454E-01
  0.155583E-01  0.129185E-01  0.109100E-01  0.943437E-02  0.840569E-02  0.775437E-02
  0.743736E-02  0.743736E-02  0.775437E-02  0.840569E-02  0.943437E-02  0.109100E-01
  0.129185E-01  0.155583E-01  0.189454E-01  0.231935E-01  0.283411E-01  0.342493E-01
  0.405119E-01  0.463849E-01  0.507777E-01  0.525039E-01  0.509178E-01  0.465490E-01
  0.410295E-01  0.362535E-01  0.335667E-01  0.335667E-01  0.362535E-01  0.410295E-01
  0.465490E-01  0.509178E-01  0.525039E-01  0.507777E-01  0.508174E-01  0.462068E-01
  0.401437E-01  0.338203E-01  0.279766E-01  0.229751E-01  0.189039E-01  0.156899E-01
  0.132088E-01  0.113467E-01  0.100079E-01  0.910994E-02  0.859196E-02  0.842217E-02
  0.859196E-02  0.910994E-02  0.100079E-01  0.113467E-01  0.132088E-01  0.156899E-01
  0.189039E-01  0.229751E-01  0.279766E-01  0.338203E-01  0.401437E-01  0.462068E-01
  0.508174E-01  0.525039E-01  0.502241E-01  0.443155E-01  0.366729E-01  0.297074E-01
  0.251044E-01  0.235303E-01  0.251044E-01  0.297074E-01  0.366729E-01  0.443155E-01
  0.502241E-01  0.525039E-01  0.508174E-01  0.508390E-01  0.457740E-01  0.394975E-01
  0.331849E-01  0.275013E-01  0.227299E-01  0.188963E-01  0.158974E-01  0.136066E-01
  0.119162E-01  0.107344E-01  0.998585E-02  0.962176E-02  0.962176E-02  0.998585E-02
  0.107344E-01  0.119162E-01  0.136066E-01  0.158974E-01  0.188963E-01  0.227299E-01
  0.275013E-01  0.331849E-01  0.394975E-01  0.457740E-01  0.508390E-01  0.530488E-01
  0.509178E-01  0.443155E-01  0.351179E-01  0.262321E-01  0.198324E-01  0.166537E-01
  0.166537E-01  0.198324E-01  0.262321E-01  0.351179E-01  0.443155E-01  0.509178E-01
  0.530488E-01  0.508390E-01  0.506011E-01  0.449788E-01  0.385541E-01  0.323673E-01
  0.269537E-01  0.224947E-01  0.189531E-01  0.162071E-01  0.141361E-01  0.126403E-01
  0.116342E-01  0.110535E-01  0.108631E-01  0.110535E-01  0.116342E-01  0.126403E-01
  0.141361E-01  0.162071E-01  0.189531E-01  0.224947E-01  0.269537E-01  0.323673E-01
  0.385541E-01  0.449788E-01  0.506011E-01  0.537899E-01  0.527142E-01  0.465490E-01
  0.366729E-01  0.262321E-01  0.180896E-01  0.133665E-01  0.118765E-01  0.133665E-01
  0.180896E-01  0.262321E-01  0.366729E-01  0.465490E-01  0.527142E-01  0.537899E-01
  0.506011E-01  0.498431E-01  0.437480E-01  0.373312E-01  0.314191E-01  0.263887E-01
  0.223142E-01  0.191089E-01  0.166476E-01  0.148213E-01  0.135388E-01  0.127241E-01
  0.123274E-01  0.123274E-01  0.127241E-01  0.135388E-01  0.148213E-01  0.166476E-01
  0.191089E-01  0.223142E-01  0.263887E-01  0.314191E-01  0.373312E-01  0.437480E-01
  0.498431E-01  0.541857E-01  0.548526E-01  0.503345E-01  0.410295E-01  0.297074E-01
  0.198324E-01  0.133665E-01  0.103953E-01  0.103953E-01  0.133665E-01  0.198324E-01
  0.297074E-01  0.410295E-01  0.503345E-01  0.548526E-01  0.541857E-01  0.498431E-01
  0.484132E-01  0.420918E-01  0.358980E-01  0.304189E-01  0.258699E-01  0.222333E-01
  0.193962E-01  0.172436E-01  0.156798E-01  0.146233E-01  0.140115E-01  0.138107E-01
  0.140115E-01  0.146233E-01  0.156798E-01  0.172436E-01  0.193962E-01  0.222333E-01
  0.258699E-01  0.304189E-01  0.358980E-01  0.420918E-01  0.484132E-01  0.537481E-01
  0.563767E-01  0.544242E-01  0.471670E-01  0.362535E-01  0.251044E-01  0.166537E-01
  0.118765E-01  0.103953E-01  0.118765E-01  0.166537E-01  0.251044E-01  0.362535E-01
  0.471670E-01  0.544242E-01  0.563767E-01  0.537481E-01  0.484132E-01  0.463310E-01
  0.401117E-01  0.343666E-01  0.294568E-01  0.254568E-01  0.222887E-01  0.198391E-01
  0.180100E-01  0.167181E-01  0.158934E-01  0.154904E-01  0.154904E-01  0.158934E-01
  0.167181E-01  0.180100E-01  0.198391E-01  0.222887E-01  0.254568E-01  0.294568E-01
  0.343666E-01  0.401117E-01  0.463310E-01  0.522465E-01  0.565307E-01  0.573932E-01
  0.533565E-01  0.446090E-01  0.335667E-01  0.235303E-01  0.166537E-01  0.133665E-01
  0.133665E-01  0.166537E-01  0.235303E-01  0.335667E-01  0.446090E-01  0.533565E-01
  0.573932E-01  0.565307E-01  0.522465E-01  0.463310E-01  0.437665E-01  0.379727E-01
  0.328645E-01  0.286129E-01  0.251927E-01  0.225043E-01  0.204504E-01  0.189493E-01
  0.179289E-01  0.173348E-01  0.171392E-01  0.173348E-01  0.179289E-01  0.189493E-01
  0.204504E-01  0.225043E-01  0.251927E-01  0.286129E-01  0.328645E-01  0.379727E-01
  0.437665E-01  0.497615E-01  0.550493E-01  0.582328E-01  0.577003E-01  0.525474E-01
  0.436435E-01  0.335667E-01  0.251044E-01  0.198324E-01  0.180896E-01  0.198324E-01
  0.251044E-01  0.335667E-01  0.436435E-01  0.525474E-01  0.577003E-01  0.582328E-01
  0.550493E-01  0.497615E-01  0.437665E-01  0.409702E-01  0.358563E-01  0.315026E-01
  0.279424E-01  0.251021E-01  0.228904E-01  0.212293E-01  0.200490E-01  0.192907E-01
  0.189181E-01  0.189181E-01  0.192907E-01  0.200490E-01  0.212293E-01  0.228904E-01
  0.251021E-01  0.279424E-01  0.315026E-01  0.358563E-01  0.409702E-01  0.465927E-01
  0.521627E-01  0.567368E-01  0.590161E-01  0.577427E-01  0.525474E-01  0.446090E-01
  0.362535E-01  0.297074E-01  0.262321E-01  0.262321E-01  0.297074E-01  0.362535E-01
  0.446090E-01  0.525474E-01  0.577427E-01  0.590161E-01  0.567368E-01  0.521627E-01
  0.465927E-01  0.409702E-01  0.381981E-01  0.339140E-01  0.303524E-01  0.274716E-01
  0.251927E-01  0.234433E-01  0.221590E-01  0.212807E-01  0.207659E-01  0.205956E-01
  0.207659E-01  0.212807E-01  0.221590E-01  0.234433E-01  0.251927E-01  0.274716E-01
  0.303524E-01  0.339140E-01  0.381981E-01  0.431199E-01  0.483779E-01  0.533955E-01
  0.572976E-01  0.590161E-01  0.577003E-01  0.533565E-01  0.471670E-01  0.410295E-01
  0.366729E-01  0.351179E-01  0.366729E-01  0.410295E-01  0.471670E-01  0.533565E-01
  0.577003E-01  0.590161E-01  0.572976E-01  0.533955E-01  0.483779E-01  0.431199E-01
  0.381981E-01  0.356507E-01  0.322382E-01  0.294434E-01  0.272043E-01  0.254568E-01
  0.241423E-01  0.232048E-01  0.225987E-01  0.222992E-01  0.222992E-01  0.225987E-01
  0.232048E-01  0.241423E-01  0.254568E-01  0.272043E-01  0.294434E-01  0.322382E-01
  0.356507E-01  0.396920E-01  0.442425E-01  0.489882E-01  0.533955E-01  0.567368E-01
  0.582328E-01  0.573932E-01  0.544242E-01  0.503345E-01  0.465490E-01  0.443155E-01
  0.443155E-01  0.465490E-01  0.503345E-01  0.544242E-01  0.573932E-01  0.582328E-01
  0.567368E-01  0.533955E-01  0.489882E-01  0.442425E-01  0.396920E-01  0.356507E-01
  0.334415E-01  0.308608E-01  0.287745E-01  0.271283E-01  0.258699E-01  0.249472E-01
  0.243140E-01  0.239410E-01  0.238172E-01  0.239410E-01  0.243140E-01  0.249472E-01
  0.258699E-01  0.271283E-01  0.287745E-01  0.308608E-01  0.334415E-01  0.365607E-01
  0.402055E-01  0.442425E-01  0.483779E-01  0.521627E-01  0.550493E-01  0.565307E-01
  0.563767E-01  0.548526E-01  0.527142E-01  0.509178E-01  0.502241E-01  0.509178E-01
  0.527142E-01  0.548526E-01  0.563767E-01  0.565307E-01  0.550493E-01  0.521627E-01
  0.483779E-01  0.442425E-01  0.402055E-01  0.365607E-01  0.334415E-01  0.316026E-01
  0.297746E-01  0.283278E-01  0.272156E-01  0.263887E-01  0.258010E-01  0.254203E-01
  0.252319E-01  0.252319E-01  0.254203E-01  0.258010E-01  0.263887E-01  0.272156E-01
  0.283278E-01  0.297746E-01  0.316026E-01  0.338553E-01  0.365607E-01  0.396920E-01
  0.431199E-01  0.465927E-01  0.497615E-01  0.522465E-01  0.537481E-01  0.541857E-01
  0.537899E-01  0.530488E-01  0.525039E-01  0.525039E-01  0.530488E-01  0.537899E-01
  0.541857E-01  0.537481E-01  0.522465E-01  0.497615E-01  0.465927E-01  0.431199E-01
  0.396920E-01  0.365607E-01  0.338553E-01  0.316026E-01  0.301182E-01  0.289549E-01
  0.280717E-01  0.274205E-01  0.269537E-01  0.266364E-01  0.264504E-01  0.263889E-01
  0.264504E-01  0.266364E-01  0.269537E-01  0.274205E-01  0.280717E-01  0.289549E-01
  0.301182E-01  0.316026E-01  0.334415E-01  0.356507E-01  0.381981E-01  0.409702E-01
  0.437665E-01  0.463310E-01  0.484132E-01  0.498431E-01  0.506011E-01  0.508390E-01
  0.508174E-01  0.507777E-01  0.508174E-01  0.508390E-01  0.506011E-01  0.498431E-01
  0.484132E-01  0.463310E-01  0.437665E-01  0.409702E-01  0.381981E-01  0.356507E-01
  0.334415E-01  0.316026E-01  0.301182E-01  0.342586E-01  0.335312E-01  0.330090E-01
  0.326350E-01  0.323673E-01  0.321876E-01  0.320957E-01  0.320957E-01  0.321876E-01
  0.323673E-01  0.326350E-01  0.330090E-01  0.335312E-01  0.342586E-01  0.352485E-01
  0.365502E-01  0.381979E-01  0.401892E-01  0.424537E-01  0.448340E-01  0.471020E-01
  0.490050E-01  0.503363E-01  0.510155E-01  0.511406E-01  0.509634E-01  0.507777E-01
  0.507777E-01  0.509634E-01  0.511406E-01  0.510155E-01  0.503363E-01  0.490050E-01
  0.471020E-01  0.448340E-01  0.424537E-01  0.401892E-01  0.381979E-01  0.365502E-01
  0.352485E-01  0.342586E-01  0.335312E-01  0.333544E-01  0.332681E-01  0.332200E-01
  0.331849E-01  0.331601E-01  0.331509E-01  0.331601E-01  0.331849E-01  0.332200E-01
  0.332681E-01  0.333544E-01  0.335312E-01  0.338641E-01  0.344129E-01  0.352229E-01
  0.363200E-01  0.376980E-01  0.392993E-01  0.410067E-01  0.426591E-01  0.440882E-01
  0.451683E-01  0.458587E-01  0.462150E-01  0.463536E-01  0.463849E-01  0.463536E-01
  0.462150E-01  0.458587E-01  0.451683E-01  0.440882E-01  0.426591E-01  0.410067E-01
  0.392993E-01  0.376980E-01  0.363200E-01  0.352229E-01  0.344129E-01  0.338641E-01
  0.335312E-01  0.330090E-01  0.332681E-01  0.335111E-01  0.336987E-01  0.338203E-01
  0.338790E-01  0.338790E-01  0.338203E-01  0.336987E-01  0.335111E-01  0.332681E-01
  0.330090E-01  0.328004E-01  0.327161E-01  0.328175E-01  0.331447E-01  0.337161E-01
  0.345230E-01  0.355210E-01  0.366262E-01  0.377266E-01  0.387075E-01  0.394858E-01
  0.400311E-01  0.403607E-01  0.405119E-01  0.405119E-01  0.403607E-01  0.400311E-01
  0.394858E-01  0.387075E-01  0.377266E-01  0.366262E-01  0.355210E-01  0.345230E-01
  0.337161E-01  0.331447E-01  0.328175E-01  0.327161E-01  0.328004E-01  0.330090E-01
  0.326350E-01  0.332200E-01  0.336987E-01  0.340437E-01  0.342493E-01  0.343174E-01
  0.342493E-01  0.340437E-01  0.336987E-01  0.332200E-01  0.326350E-01  0.320026E-01
  0.314030E-01  0.309158E-01  0.306010E-01  0.304924E-01  0.306010E-01  0.309158E-01
  0.314030E-01  0.320026E-01  0.326350E-01  0.332200E-01  0.336987E-01  0.340437E-01
  0.342493E-01  0.343174E-01  0.342493E-01  0.340437E-01  0.336987E-01  0.332200E-01
  0.326350E-01  0.320026E-01  0.314030E-01  0.309158E-01  0.306010E-01  0.304924E-01
  0.306010E-01  0.309158E-01  0.314030E-01  0.320026E-01  0.326350E-01  0.323673E-01
  0.331849E-01  0.338203E-01  0.342493E-01  0.344644E-01  0.344644E-01  0.342493E-01
  0.338203E-01  0.331849E-01  0.323673E-01  0.314191E-01  0.304189E-01  0.294568E-01
  0.286129E-01  0.279424E-01  0.274716E-01  0.272043E-01  0.271283E-01  0.272156E-01
  0.274205E-01  0.276844E-01  0.279506E-01  0.281776E-01  0.283411E-01  0.284268E-01
  0.284268E-01  0.283411E-01  0.281776E-01  0.279506E-01  0.276844E-01  0.274205E-01
  0.272156E-01  0.271283E-01  0.272043E-01  0.274716E-01  0.279424E-01  0.286129E-01
  0.294568E-01  0.304189E-01  0.314191E-01  0.323673E-01  0.321876E-01  0.331601E-01
  0.338790E-01  0.343174E-01  0.344644E-01  0.343174E-01  0.338790E-01  0.331601E-01
  0.321876E-01  0.310132E-01  0.297139E-01  0.283834E-01  0.271147E-01  0.259829E-01
  0.250345E-01  0.242878E-01  0.237415E-01  0.233819E-01  0.231829E-01  0.231059E-01
  0.231063E-01  0.231449E-01  0.231935E-01  0.232322E-01  0.232470E-01  0.232322E-01
  0.231935E-01  0.231449E-01  0.231063E-01  0.231059E-01  0.231829E-01  0.233819E-01
  0.237415E-01  0.242878E-01  0.250345E-01  0.259829E-01  0.271147E-01  0.283834E-01
  0.297139E-01  0.310132E-01  0.321876E-01  0.320957E-01  0.331509E-01  0.338790E-01
  0.342493E-01  0.342493E-01  0.338790E-01  0.331509E-01  0.320957E-01  0.307694E-01
  0.292532E-01  0.276449E-01  0.260454E-01  0.245431E-01  0.232023E-01  0.220586E-01
  0.211233E-01  0.203918E-01  0.198482E-01  0.194655E-01  0.192089E-01  0.190444E-01
  0.189454E-01  0.188928E-01  0.188713E-01  0.188713E-01  0.188928E-01  0.189454E-01
  0.190444E-01  0.192089E-01  0.194655E-01  0.198482E-01  0.203918E-01  0.211233E-01
  0.220586E-01  0.232023E-01  0.245431E-01  0.260454E-01  0.276449E-01  0.292532E-01
  0.307694E-01  0.320957E-01  0.320957E-01  0.331601E-01  0.338203E-01  0.340437E-01
  0.338203E-01  0.331601E-01  0.320957E-01  0.306875E-01  0.290231E-01  0.272087E-01
  0.253543E-01  0.235593E-01  0.219006E-01  0.204283E-01  0.191670E-01  0.181228E-01
  0.172879E-01  0.166430E-01  0.161595E-01  0.158065E-01  0.155583E-01  0.153965E-01
  0.153069E-01  0.152786E-01  0.153069E-01  0.153965E-01  0.155583E-01  0.158065E-01
  0.161595E-01  0.166430E-01  0.172879E-01  0.181228E-01  0.191670E-01  0.204283E-01
  0.219006E-01  0.235593E-01  0.253543E-01  0.272087E-01  0.290231E-01  0.306875E-01
  0.320957E-01  0.321876E-01  0.331849E-01  0.336987E-01  0.336987E-01  0.331849E-01
  0.321876E-01  0.307694E-01  0.290231E-01  0.270636E-01  0.250130E-01  0.229837E-01
  0.210656E-01  0.193208E-01  0.177851E-01  0.164739E-01  0.153877E-01  0.145141E-01
  0.138300E-01  0.133068E-01  0.129185E-01  0.126455E-01  0.124737E-01  0.123915E-01
  0.123915E-01  0.124737E-01  0.126455E-01  0.129185E-01  0.133068E-01  0.138300E-01
  0.145141E-01  0.153877E-01  0.164739E-01  0.177851E-01  0.193208E-01  0.210656E-01
  0.229837E-01  0.250130E-01  0.270636E-01  0.290231E-01  0.307694E-01  0.321876E-01
  0.323673E-01  0.332200E-01  0.335111E-01  0.332200E-01  0.323673E-01  0.310132E-01
  0.292532E-01  0.272087E-01  0.250130E-01  0.227935E-01  0.206562E-01  0.186773E-01
  0.169039E-01  0.153602E-01  0.140532E-01  0.129762E-01  0.121106E-01  0.114306E-01
  0.109100E-01  0.105277E-01  0.102683E-01  0.101191E-01  0.100707E-01  0.101191E-01
  0.102683E-01  0.105277E-01  0.109100E-01  0.114306E-01  0.121106E-01  0.129762E-01
  0.140532E-01  0.153602E-01  0.169039E-01  0.186773E-01  0.206562E-01  0.227935E-01
  0.250130E-01  0.272087E-01  0.292532E-01  0.310132E-01  0.323673E-01  0.326350E-01
  0.332681E-01  0.332681E-01  0.326350E-01  0.314191E-01  0.297139E-01  0.276449E-01
  0.253543E-01  0.229837E-01  0.206562E-01  0.184657E-01  0.164741E-01  0.147163E-01
  0.132064E-01  0.119423E-01  0.109088E-01  0.100815E-01  0.943437E-02  0.894473E-02
  0.859524E-02  0.837211E-02  0.826403E-02  0.826403E-02  0.837211E-02  0.859524E-02
  0.894473E-02  0.943437E-02  0.100815E-01  0.109088E-01  0.119423E-01  0.132064E-01
  0.147163E-01  0.164741E-01  0.184657E-01  0.206562E-01  0.229837E-01  0.253543E-01
  0.276449E-01  0.297139E-01  0.314191E-01  0.326350E-01  0.330090E-01  0.333544E-01
  0.330090E-01  0.320026E-01  0.304189E-01  0.283834E-01  0.260454E-01  0.235593E-01
  0.210656E-01  0.186773E-01  0.164741E-01  0.145052E-01  0.127945E-01  0.113462E-01
  0.101480E-01  0.917681E-02  0.840569E-02  0.780979E-02  0.736922E-02  0.706820E-02
  0.689386E-02  0.683691E-02  0.689386E-02  0.706820E-02  0.736922E-02  0.780979E-02
  0.840569E-02  0.917681E-02  0.101480E-01  0.113462E-01  0.127945E-01  0.145052E-01
  0.164741E-01  0.186773E-01  0.210656E-01  0.235593E-01  0.260454E-01  0.283834E-01
  0.304189E-01  0.320026E-01  0.330090E-01  0.335312E-01  0.335312E-01  0.328004E-01
  0.314030E-01  0.294568E-01  0.271147E-01  0.245431E-01  0.219006E-01  0.193208E-01
  0.169039E-01  0.147163E-01  0.127945E-01  0.111510E-01  0.977818E-02  0.865514E-02
  0.775437E-02  0.704860E-02  0.651433E-02  0.613237E-02  0.588733E-02  0.576789E-02
  0.576789E-02  0.588733E-02  0.613237E-02  0.651433E-02  0.704860E-02  0.775437E-02
  0.865514E-02  0.977818E-02  0.111510E-01  0.127945E-01  0.147163E-01  0.169039E-01
  0.193208E-01  0.219006E-01  0.245431E-01  0.271147E-01  0.294568E-01  0.314030E-01
  0.328004E-01  0.335312E-01  0.342586E-01  0.338641E-01  0.327161E-01  0.309158E-01
  0.286129E-01  0.259829E-01  0.232023E-01  0.204283E-01  0.177851E-01  0.153602E-01
  0.132064E-01  0.113462E-01  0.977818E-02  0.848419E-02  0.743736E-02  0.660894E-02
  0.597210E-02  0.550322E-02  0.518272E-02  0.499615E-02  0.493489E-02  0.499615E-02
  0.518272E-02  0.550322E-02  0.597210E-02  0.660894E-02  0.743736E-02  0.848419E-02
  0.977818E-02  0.113462E-01  0.132064E-01  0.153602E-01  0.177851E-01  0.204283E-01
  0.232023E-01  0.259829E-01  0.286129E-01  0.309158E-01  0.327161E-01  0.338641E-01
  0.342586E-01  0.352485E-01  0.344129E-01  0.328175E-01  0.306010E-01  0.279424E-01
  0.250345E-01  0.220586E-01  0.191670E-01  0.164739E-01  0.140532E-01  0.119423E-01
  0.101480E-01  0.865514E-02  0.743736E-02  0.646470E-02  0.570792E-02  0.513959E-02
  0.473525E-02  0.447568E-02  0.434865E-02  0.434865E-02  0.447568E-02  0.473525E-02
  0.513959E-02  0.570792E-02  0.646470E-02  0.743736E-02  0.865514E-02  0.101480E-01
  0.119423E-01  0.140532E-01  0.164739E-01  0.191670E-01  0.220586E-01  0.250345E-01
  0.279424E-01  0.306010E-01  0.328175E-01  0.344129E-01  0.352485E-01  0.352485E-01
  0.365502E-01  0.352229E-01  0.331447E-01  0.304924E-01  0.274716E-01  0.242878E-01
  0.211233E-01  0.181228E-01  0.153877E-01  0.129762E-01  0.109088E-01  0.917681E-02
  0.775437E-02  0.660894E-02  0.570792E-02  0.502040E-02  0.451774E-02  0.417557E-02
  0.397652E-02  0.391111E-02  0.397652E-02  0.417557E-02  0.451774E-02  0.502040E-02
  0.570792E-02  0.660894E-02  0.775437E-02  0.917681E-02  0.109088E-01  0.129762E-01
  0.153877E-01  0.181228E-01  0.211233E-01  0.242878E-01  0.274716E-01  0.304924E-01
  0.331447E-01  0.352229E-01  0.365502E-01  0.370068E-01  0.365502E-01  0.381979E-01
  0.363200E-01  0.337161E-01  0.306010E-01  0.272043E-01  0.237415E-01  0.203918E-01
  0.172879E-01  0.145141E-01  0.121106E-01  0.100815E-01  0.840569E-02  0.704860E-02
  0.597210E-02  0.513959E-02  0.451774E-02  0.407759E-02  0.379642E-02  0.365935E-02
  0.365935E-02  0.379642E-02  0.407759E-02  0.451774E-02  0.513959E-02  0.597210E-02
  0.704860E-02  0.840569E-02  0.100815E-01  0.121106E-01  0.145141E-01  0.172879E-01
  0.203918E-01  0.237415E-01  0.272043E-01  0.306010E-01  0.337161E-01  0.363200E-01
  0.381979E-01  0.391826E-01  0.391826E-01  0.381979E-01  0.401892E-01  0.376980E-01
  0.345230E-01  0.309158E-01  0.271283E-01  0.233819E-01  0.198482E-01  0.166430E-01
  0.138300E-01  0.114306E-01  0.943437E-02  0.780979E-02  0.651433E-02  0.550322E-02
  0.473525E-02  0.417557E-02  0.379642E-02  0.357738E-02  0.350580E-02  0.357738E-02
  0.379642E-02  0.417557E-02  0.473525E-02  0.550322E-02  0.651433E-02  0.780979E-02
  0.943437E-02  0.114306E-01  0.138300E-01  0.166430E-01  0.198482E-01  0.233819E-01
  0.271283E-01  0.309158E-01  0.345230E-01  0.376980E-01  0.401892E-01  0.417815E-01
  0.423293E-01  0.417815E-01  0.401892E-01  0.424537E-01  0.392993E-01  0.355210E-01
  0.314030E-01  0.272156E-01  0.231829E-01  0.194655E-01  0.161595E-01  0.133068E-01
  0.109100E-01  0.894473E-02  0.736922E-02  0.613237E-02  0.518272E-02  0.447568E-02
  0.397652E-02  0.365935E-02  0.350580E-02  0.350580E-02  0.365935E-02  0.397652E-02
  0.447568E-02  0.518272E-02  0.613237E-02  0.736922E-02  0.894473E-02  0.109100E-01
  0.133068E-01  0.161595E-01  0.194655E-01  0.231829E-01  0.272156E-01  0.314030E-01
  0.355210E-01  0.392993E-01  0.424537E-01  0.447242E-01  0.459130E-01  0.459130E-01
  0.447242E-01  0.424537E-01  0.448340E-01  0.410067E-01  0.366262E-01  0.320026E-01
  0.274205E-01  0.231059E-01  0.192089E-01  0.158065E-01  0.129185E-01  0.105277E-01
  0.859524E-02  0.706820E-02  0.588733E-02  0.499615E-02  0.434865E-02  0.391111E-02
  0.365935E-02  0.357738E-02  0.365935E-02  0.391111E-02  0.434865E-02  0.499615E-02
  0.588733E-02  0.706820E-02  0.859524E-02  0.105277E-01  0.129185E-01  0.158065E-01
  0.192089E-01  0.231059E-01  0.274205E-01  0.320026E-01  0.366262E-01  0.410067E-01
  0.448340E-01  0.478136E-01  0.497055E-01  0.503541E-01  0.497055E-01  0.478136E-01
  0.448340E-01  0.471020E-01  0.426591E-01  0.377266E-01  0.326350E-01  0.276844E-01
  0.231063E-01  0.190444E-01  0.155583E-01  0.126455E-01  0.102683E-01  0.837211E-02
  0.689386E-02  0.576789E-02  0.493489E-02  0.434865E-02  0.397652E-02  0.379642E-02
  0.379642E-02  0.397652E-02  0.434865E-02  0.493489E-02  0.576789E-02  0.689386E-02
  0.837211E-02  0.102683E-01  0.126455E-01  0.155583E-01  0.190444E-01  0.231063E-01
  0.276844E-01  0.326350E-01  0.377266E-01  0.426591E-01  0.471020E-01  0.507399E-01
  0.533135E-01  0.546448E-01  0.546448E-01  0.533135E-01  0.507399E-01  0.471020E-01
  0.490050E-01  0.440882E-01  0.387075E-01  0.332200E-01  0.279506E-01  0.231449E-01
  0.189454E-01  0.153965E-01  0.124737E-01  0.101191E-01  0.826403E-02  0.683691E-02
  0.576789E-02  0.499615E-02  0.447568E-02  0.417557E-02  0.407759E-02  0.417557E-02
  0.447568E-02  0.499615E-02  0.576789E-02  0.683691E-02  0.826403E-02  0.101191E-01
  0.124737E-01  0.153965E-01  0.189454E-01  0.231449E-01  0.279506E-01  0.332200E-01
  0.387075E-01  0.440882E-01  0.490050E-01  0.531285E-01  0.562095E-01  0.581001E-01
  0.587356E-01  0.581001E-01  0.562095E-01  0.531285E-01  0.490050E-01  0.503363E-01
  0.451683E-01  0.394858E-01  0.336987E-01  0.281776E-01  0.231935E-01  0.188928E-01
  0.153069E-01  0.123915E-01  0.100707E-01  0.826403E-02  0.689386E-02  0.588733E-02
  0.518272E-02  0.473525E-02  0.451774E-02  0.451774E-02  0.473525E-02  0.518272E-02
  0.588733E-02  0.689386E-02  0.826403E-02  0.100707E-01  0.123915E-01  0.153069E-01
  0.188928E-01  0.231935E-01  0.281776E-01  0.336987E-01  0.394858E-01  0.451683E-01
  0.503363E-01  0.546304E-01  0.578306E-01  0.598902E-01  0.608806E-01  0.608806E-01
  0.598902E-01  0.578306E-01  0.546304E-01  0.503363E-01  0.510155E-01  0.458587E-01
  0.400311E-01  0.340437E-01  0.283411E-01  0.232322E-01  0.188713E-01  0.152786E-01
  0.123915E-01  0.101191E-01  0.837211E-02  0.706820E-02  0.613237E-02  0.550322E-02
  0.513959E-02  0.502040E-02  0.513959E-02  0.550322E-02  0.613237E-02  0.706820E-02
  0.837211E-02  0.101191E-01  0.123915E-01  0.152786E-01  0.188713E-01  0.232322E-01
  0.283411E-01  0.340437E-01  0.400311E-01  0.458587E-01  0.510155E-01  0.550604E-01
  0.577883E-01  0.593150E-01  0.599877E-01  0.601627E-01  0.599877E-01  0.593150E-01
  0.577883E-01  0.550604E-01  0.510155E-01  0.511406E-01  0.462150E-01  0.403607E-01
  0.342493E-01  0.284268E-01  0.232470E-01  0.188713E-01  0.153069E-01  0.124737E-01
  0.102683E-01  0.859524E-02  0.736922E-02  0.651433E-02  0.597210E-02  0.570792E-02
  0.570792E-02  0.597210E-02  0.651433E-02  0.736922E-02  0.859524E-02  0.102683E-01
  0.124737E-01  0.153069E-01  0.188713E-01  0.232470E-01  0.284268E-01  0.342493E-01
  0.403607E-01  0.462150E-01  0.511406E-01  0.545318E-01  0.561397E-01  0.562621E-01
  0.556342E-01  0.550659E-01  0.550659E-01  0.556342E-01  0.562621E-01  0.561397E-01
  0.545318E-01  0.511406E-01  0.509634E-01  0.463536E-01  0.405119E-01  0.343174E-01
  0.284268E-01  0.232322E-01  0.188928E-01  0.153965E-01  0.126455E-01  0.105277E-01
  0.894473E-02  0.780979E-02  0.704860E-02  0.660894E-02  0.646470E-02  0.660894E-02
  0.704860E-02  0.780979E-02  0.894473E-02  0.105277E-01  0.126455E-01  0.153965E-01
  0.188928E-01  0.232322E-01  0.284268E-01  0.343174E-01  0.405119E-01  0.463536E-01
  0.509634E-01  0.534794E-01  0.535133E-01  0.515170E-01  0.486672E-01  0.463092E-01
  0.454105E-01  0.463092E-01  0.486672E-01  0.515170E-01  0.535133E-01  0.534794E-01
  0.509634E-01  0.507777E-01  0.463849E-01  0.405119E-01  0.342493E-01  0.283411E-01
  0.231935E-01  0.189454E-01  0.155583E-01  0.129185E-01  0.109100E-01  0.943437E-02
  0.840569E-02  0.775437E-02  0.743736E-02  0.743736E-02  0.775437E-02  0.840569E-02
  0.943437E-02  0.109100E-01  0.129185E-01  0.155583E-01  0.189454E-01  0.231935E-01
  0.283411E-01  0.342493E-01  0.405119E-01  0.463849E-01  0.507777E-01  0.525039E-01
  0.509178E-01  0.465490E-01  0.410295E-01  0.362535E-01  0.335667E-01  0.335667E-01
  0.362535E-01  0.410295E-01  0.465490E-01  0.509178E-01  0.525039E-01  0.507777E-01
  0.507777E-01  0.463536E-01  0.403607E-01  0.340437E-01  0.281776E-01  0.231449E-01
  0.190444E-01  0.158065E-01  0.133068E-01  0.114306E-01  0.100815E-01  0.917681E-02
  0.865514E-02  0.848419E-02  0.865514E-02  0.917681E-02  0.100815E-01  0.114306E-01
  0.133068E-01  0.158065E-01  0.190444E-01  0.231449E-01  0.281776E-01  0.340437E-01
  0.403607E-01  0.463536E-01  0.507777E-01  0.521132E-01  0.493307E-01  0.428799E-01
  0.348114E-01  0.276168E-01  0.229401E-01  0.213560E-01  0.229401E-01  0.276168E-01
  0.348114E-01  0.428799E-01  0.493307E-01  0.521132E-01  0.507777E-01  0.509634E-01
  0.462150E-01  0.400311E-01  0.336987E-01  0.279506E-01  0.231063E-01  0.192089E-01
  0.161595E-01  0.138300E-01  0.121106E-01  0.109088E-01  0.101480E-01  0.977818E-02
  0.977818E-02  0.101480E-01  0.109088E-01  0.121106E-01  0.138300E-01  0.161595E-01
  0.192089E-01  0.231063E-01  0.279506E-01  0.336987E-01  0.400311E-01  0.462150E-01
  0.509634E-01  0.525039E-01  0.493307E-01  0.415410E-01  0.314123E-01  0.221104E-01
  0.157150E-01  0.126547E-01  0.126547E-01  0.157150E-01  0.221104E-01  0.314123E-01
  0.415410E-01  0.493307E-01  0.525039E-01  0.509634E-01  0.511406E-01  0.458587E-01
  0.394858E-01  0.332200E-01  0.276844E-01  0.231059E-01  0.194655E-01  0.166430E-01
  0.145141E-01  0.129762E-01  0.119423E-01  0.113462E-01  0.111510E-01  0.113462E-01
  0.119423E-01  0.129762E-01  0.145141E-01  0.166430E-01  0.194655E-01  0.231059E-01
  0.276844E-01  0.332200E-01  0.394858E-01  0.458587E-01  0.511406E-01  0.534794E-01
  0.509178E-01  0.428799E-01  0.314123E-01  0.202623E-01  0.122797E-01  0.803241E-02
  0.677191E-02  0.803241E-02  0.122797E-01  0.202623E-01  0.314123E-01  0.428799E-01
  0.509178E-01  0.534794E-01  0.511406E-01  0.510155E-01  0.451683E-01  0.387075E-01
  0.326350E-01  0.274205E-01  0.231829E-01  0.198482E-01  0.172879E-01  0.153877E-01
  0.140532E-01  0.132064E-01  0.127945E-01  0.127945E-01  0.132064E-01  0.140532E-01
  0.153877E-01  0.172879E-01  0.198482E-01  0.231829E-01  0.274205E-01  0.326350E-01
  0.387075E-01  0.451683E-01  0.510155E-01  0.545318E-01  0.535133E-01  0.465490E-01
  0.348114E-01  0.221104E-01  0.122797E-01  0.666228E-02  0.439926E-02  0.439926E-02
  0.666228E-02  0.122797E-01  0.221104E-01  0.348114E-01  0.465490E-01  0.535133E-01
  0.545318E-01  0.510155E-01  0.503363E-01  0.440882E-01  0.377266E-01  0.320026E-01
  0.272156E-01  0.233819E-01  0.203918E-01  0.181228E-01  0.164739E-01  0.153602E-01
  0.147163E-01  0.145052E-01  0.147163E-01  0.153602E-01  0.164739E-01  0.181228E-01
  0.203918E-01  0.233819E-01  0.272156E-01  0.320026E-01  0.377266E-01  0.440882E-01
  0.503363E-01  0.550604E-01  0.561397E-01  0.515170E-01  0.410295E-01  0.276168E-01
  0.157150E-01  0.803241E-02  0.439926E-02  0.341808E-02  0.439926E-02  0.803241E-02
  0.157150E-01  0.276168E-01  0.410295E-01  0.515170E-01  0.561397E-01  0.550604E-01
  0.503363E-01  0.490050E-01  0.426591E-01  0.366262E-01  0.314030E-01  0.271283E-01
  0.237415E-01  0.211233E-01  0.191670E-01  0.177851E-01  0.169039E-01  0.164741E-01
  0.164741E-01  0.169039E-01  0.177851E-01  0.191670E-01  0.211233E-01  0.237415E-01
  0.271283E-01  0.314030E-01  0.366262E-01  0.426591E-01  0.490050E-01  0.546304E-01
  0.577883E-01  0.562621E-01  0.486672E-01  0.362535E-01  0.229401E-01  0.126547E-01
  0.677191E-02  0.439926E-02  0.439926E-02  0.677191E-02  0.126547E-01  0.229401E-01
  0.362535E-01  0.486672E-01  0.562621E-01  0.577883E-01  0.546304E-01  0.490050E-01
  0.471020E-01  0.410067E-01  0.355210E-01  0.309158E-01  0.272043E-01  0.242878E-01
  0.220586E-01  0.204283E-01  0.193208E-01  0.186773E-01  0.184657E-01  0.186773E-01
  0.193208E-01  0.204283E-01  0.220586E-01  0.242878E-01  0.272043E-01  0.309158E-01
  0.355210E-01  0.410067E-01  0.471020E-01  0.531285E-01  0.578306E-01  0.593150E-01
  0.556342E-01  0.463092E-01  0.335667E-01  0.213560E-01  0.126547E-01  0.803241E-02
  0.666228E-02  0.803241E-02  0.126547E-01  0.213560E-01  0.335667E-01  0.463092E-01
  0.556342E-01  0.593150E-01  0.578306E-01  0.531285E-01  0.471020E-01  0.448340E-01
  0.392993E-01  0.345230E-01  0.306010E-01  0.274716E-01  0.250345E-01  0.232023E-01
  0.219006E-01  0.210656E-01  0.206562E-01  0.206562E-01  0.210656E-01  0.219006E-01
  0.232023E-01  0.250345E-01  0.274716E-01  0.306010E-01  0.345230E-01  0.392993E-01
  0.448340E-01  0.507399E-01  0.562095E-01  0.598902E-01  0.599877E-01  0.550659E-01
  0.454105E-01  0.335667E-01  0.229401E-01  0.157150E-01  0.122797E-01  0.122797E-01
  0.157150E-01  0.229401E-01  0.335667E-01  0.454105E-01  0.550659E-01  0.599877E-01
  0.598902E-01  0.562095E-01  0.507399E-01  0.448340E-01  0.424537E-01  0.376980E-01
  0.337161E-01  0.304924E-01  0.279424E-01  0.259829E-01  0.245431E-01  0.235593E-01
  0.229837E-01  0.227935E-01  0.229837E-01  0.235593E-01  0.245431E-01  0.259829E-01
  0.279424E-01  0.304924E-01  0.337161E-01  0.376980E-01  0.424537E-01  0.478136E-01
  0.533135E-01  0.581001E-01  0.608806E-01  0.601627E-01  0.550659E-01  0.463092E-01
  0.362535E-01  0.276168E-01  0.221104E-01  0.202623E-01  0.221104E-01  0.276168E-01
  0.362535E-01  0.463092E-01  0.550659E-01  0.601627E-01  0.608806E-01  0.581001E-01
  0.533135E-01  0.478136E-01  0.424537E-01  0.401892E-01  0.363200E-01  0.331447E-01
  0.306010E-01  0.286129E-01  0.271147E-01  0.260454E-01  0.253543E-01  0.250130E-01
  0.250130E-01  0.253543E-01  0.260454E-01  0.271147E-01  0.286129E-01  0.306010E-01
  0.331447E-01  0.363200E-01  0.401892E-01  0.447242E-01  0.497055E-01  0.546448E-01
  0.587356E-01  0.608806E-01  0.599877E-01  0.556342E-01  0.486672E-01  0.410295E-01
  0.348114E-01  0.314123E-01  0.314123E-01  0.348114E-01  0.410295E-01  0.486672E-01
  0.556342E-01  0.599877E-01  0.608806E-01  0.587356E-01  0.546448E-01  0.497055E-01
  0.447242E-01  0.401892E-01  0.381979E-01  0.352229E-01  0.328175E-01  0.309158E-01
  0.294568E-01  0.283834E-01  0.276449E-01  0.272087E-01  0.270636E-01  0.272087E-01
  0.276449E-01  0.283834E-01  0.294568E-01  0.309158E-01  0.328175E-01  0.352229E-01
  0.381979E-01  0.417815E-01  0.459130E-01  0.503541E-01  0.546448E-01  0.581001E-01
  0.598902E-01  0.593150E-01  0.562621E-01  0.515170E-01  0.465490E-01  0.428799E-01
  0.415410E-01  0.428799E-01  0.465490E-01  0.515170E-01  0.562621E-01  0.593150E-01
  0.598902E-01  0.581001E-01  0.546448E-01  0.503541E-01  0.459130E-01  0.417815E-01
  0.381979E-01  0.365502E-01  0.344129E-01  0.327161E-01  0.314030E-01  0.304189E-01
  0.297139E-01  0.292532E-01  0.290231E-01  0.290231E-01  0.292532E-01  0.297139E-01
  0.304189E-01  0.314030E-01  0.327161E-01  0.344129E-01  0.365502E-01  0.391826E-01
  0.423293E-01  0.459130E-01  0.497055E-01  0.533135E-01  0.562095E-01  0.578306E-01
  0.577883E-01  0.561397E-01  0.535133E-01  0.509178E-01  0.493307E-01  0.493307E-01
  0.509178E-01  0.535133E-01  0.561397E-01  0.577883E-01  0.578306E-01  0.562095E-01
  0.533135E-01  0.497055E-01  0.459130E-01  0.423293E-01  0.391826E-01  0.365502E-01
  0.352485E-01  0.338641E-01  0.328004E-01  0.320026E-01  0.314191E-01  0.310132E-01
  0.307694E-01  0.306875E-01  0.307694E-01  0.310132E-01  0.314191E-01  0.320026E-01
  0.328004E-01  0.338641E-01  0.352485E-01  0.370068E-01  0.391826E-01  0.417815E-01
  0.447242E-01  0.478136E-01  0.507399E-01  0.531285E-01  0.546304E-01  0.550604E-01
  0.545318E-01  0.534794E-01  0.525039E-01  0.521132E-01  0.525039E-01  0.534794E-01
  0.545318E-01  0.550604E-01  0.546304E-01  0.531285E-01  0.507399E-01  0.478136E-01
  0.447242E-01  0.417815E-01  0.391826E-01  0.370068E-01  0.352485E-01  0.342586E-01
  0.335312E-01  0.330090E-01  0.326350E-01  0.323673E-01  0.321876E-01  0.320957E-01
  0.320957E-01  0.321876E-01  0.323673E-01  0.326350E-01  0.330090E-01  0.335312E-01
  0.342586E-01  0.352485E-01  0.365502E-01  0.381979E-01  0.401892E-01  0.424537E-01
  0.448340E-01  0.471020E-01  0.490050E-01  0.503363E-01  0.510155E-01  0.511406E-01
  0.509634E-01  0.507777E-01  0.507777E-01  0.509634E-01  0.511406E-01  0.510155E-01
  0.503363E-01  0.490050E-01  0.471020E-01  0.448340E-01  0.424537E-01  0.401892E-01
  0.381979E-01  0.365502E-01  0.352485E-01  0.342586E-01  0.393736E-01  0.390877E-01
  0.388818E-01  0.387075E-01  0.385541E-01  0.384425E-01  0.384012E-01  0.384425E-01
  0.385541E-01  0.387075E-01  0.388818E-01  0.390877E-01  0.393736E-01  0.398125E-01
  0.404823E-01  0.414506E-01  0.427539E-01  0.443682E-01  0.461868E-01  0.480248E-01
  0.496528E-01  0.508513E-01  0.514845E-01  0.515706E-01  0.513000E-01  0.509634E-01
  0.508174E-01  0.509634E-01  0.513000E-01  0.515706E-01  0.514845E-01  0.508513E-01
  0.496528E-01  0.480248E-01  0.461868E-01  0.443682E-01  0.427539E-01  0.414506E-01
  0.404823E-01  0.398125E-01  0.393736E-01  0.390877E-01  0.392769E-01  0.394182E-01
  0.394858E-01  0.394975E-01  0.394901E-01  0.394901E-01  0.394975E-01  0.394858E-01
  0.394182E-01  0.392769E-01  0.390877E-01  0.389192E-01  0.388609E-01  0.389978E-01
  0.393940E-01  0.400785E-01  0.410296E-01  0.421678E-01  0.433637E-01  0.444640E-01
  0.453305E-01  0.458868E-01  0.461493E-01  0.462150E-01  0.462068E-01  0.462068E-01
  0.462150E-01  0.461493E-01  0.458868E-01  0.453305E-01  0.444640E-01  0.433637E-01
  0.421678E-01  0.410296E-01  0.400785E-01  0.393940E-01  0.389978E-01  0.388609E-01
  0.389192E-01  0.390877E-01  0.388818E-01  0.394182E-01  0.398010E-01  0.400311E-01
  0.401437E-01  0.401762E-01  0.401437E-01  0.400311E-01  0.398010E-01  0.394182E-01
  0.388818E-01  0.382436E-01  0.375965E-01  0.370445E-01  0.366755E-01  0.365460E-01
  0.366755E-01  0.370445E-01  0.375965E-01  0.382436E-01  0.388818E-01  0.394182E-01
  0.398010E-01  0.400311E-01  0.401437E-01  0.401762E-01  0.401437E-01  0.400311E-01
  0.398010E-01  0.394182E-01  0.388818E-01  0.382436E-01  0.375965E-01  0.370445E-01
  0.366755E-01  0.365460E-01  0.366755E-01  0.370445E-01  0.375965E-01  0.382436E-01
  0.388818E-01  0.387075E-01  0.394858E-01  0.400311E-01  0.403607E-01  0.405119E-01
  0.405119E-01  0.403607E-01  0.400311E-01  0.394858E-01  0.387075E-01  0.377266E-01
  0.366262E-01  0.355210E-01  0.345230E-01  0.337161E-01  0.331447E-01  0.328175E-01
  0.327161E-01  0.328004E-01  0.330090E-01  0.332681E-01  0.335111E-01  0.336987E-01
  0.338203E-01  0.338790E-01  0.338790E-01  0.338203E-01  0.336987E-01  0.335111E-01
  0.332681E-01  0.330090E-01  0.328004E-01  0.327161E-01  0.328175E-01  0.331447E-01
  0.337161E-01  0.345230E-01  0.355210E-01  0.366262E-01  0.377266E-01  0.387075E-01
  0.385541E-01  0.394975E-01  0.401437E-01  0.405119E-01  0.406305E-01  0.405119E-01
  0.401437E-01  0.394975E-01  0.385541E-01  0.373312E-01  0.358980E-01  0.343666E-01
  0.328645E-01  0.315026E-01  0.303524E-01  0.294434E-01  0.287745E-01  0.283278E-01
  0.280717E-01  0.279593E-01  0.279348E-01  0.279506E-01  0.279766E-01  0.279978E-01
  0.280059E-01  0.279978E-01  0.279766E-01  0.279506E-01  0.279348E-01  0.279593E-01
  0.280717E-01  0.283278E-01  0.287745E-01  0.294434E-01  0.303524E-01  0.315026E-01
  0.328645E-01  0.343666E-01  0.358980E-01  0.373312E-01  0.385541E-01  0.384425E-01
  0.394901E-01  0.401762E-01  0.405119E-01  0.405119E-01  0.401762E-01  0.394901E-01
  0.384425E-01  0.370511E-01  0.353784E-01  0.335305E-01  0.316384E-01  0.298307E-01
  0.282053E-01  0.268160E-01  0.256776E-01  0.247824E-01  0.241118E-01  0.236364E-01
  0.233155E-01  0.231063E-01  0.229751E-01  0.229001E-01  0.228670E-01  0.228670E-01
  0.229001E-01  0.229751E-01  0.231063E-01  0.233155E-01  0.236364E-01  0.241118E-01
  0.247824E-01  0.256776E-01  0.268160E-01  0.282053E-01  0.298307E-01  0.316384E-01
  0.335305E-01  0.353784E-01  0.370511E-01  0.384425E-01  0.384012E-01  0.394901E-01
  0.401437E-01  0.403607E-01  0.401437E-01  0.394901E-01  0.384012E-01  0.369025E-01
  0.350597E-01  0.329785E-01  0.307916E-01  0.286355E-01  0.266260E-01  0.248396E-01
  0.233103E-01  0.220422E-01  0.210236E-01  0.202337E-01  0.196412E-01  0.192089E-01
  0.189039E-01  0.187029E-01  0.185901E-01  0.185540E-01  0.185901E-01  0.187029E-01
  0.189039E-01  0.192089E-01  0.196412E-01  0.202337E-01  0.210236E-01  0.220422E-01
  0.233103E-01  0.248396E-01  0.266260E-01  0.286355E-01  0.307916E-01  0.329785E-01
  0.350597E-01  0.369025E-01  0.384012E-01  0.384425E-01  0.394975E-01  0.400311E-01
  0.400311E-01  0.394975E-01  0.384425E-01  0.369025E-01  0.349512E-01  0.327008E-01
  0.302900E-01  0.278629E-01  0.255469E-01  0.234348E-01  0.215780E-01  0.199941E-01
  0.186802E-01  0.176214E-01  0.167923E-01  0.161595E-01  0.156899E-01  0.153585E-01
  0.151483E-01  0.150472E-01  0.150472E-01  0.151483E-01  0.153585E-01  0.156899E-01
  0.161595E-01  0.167923E-01  0.176214E-01  0.186802E-01  0.199941E-01  0.215780E-01
  0.234348E-01  0.255469E-01  0.278629E-01  0.302900E-01  0.327008E-01  0.349512E-01
  0.369025E-01  0.384425E-01  0.385541E-01  0.394858E-01  0.398010E-01  0.394858E-01
  0.385541E-01  0.370511E-01  0.350597E-01  0.327008E-01  0.301229E-01  0.274815E-01
  0.249165E-01  0.225346E-01  0.204015E-01  0.185470E-01  0.169768E-01  0.156824E-01
  0.146435E-01  0.138300E-01  0.132088E-01  0.127520E-01  0.124406E-01  0.122607E-01
  0.122021E-01  0.122607E-01  0.124406E-01  0.127520E-01  0.132088E-01  0.138300E-01
  0.146435E-01  0.156824E-01  0.169768E-01  0.185470E-01  0.204015E-01  0.225346E-01
  0.249165E-01  0.274815E-01  0.301229E-01  0.327008E-01  0.350597E-01  0.370511E-01
  0.385541E-01  0.387075E-01  0.394182E-01  0.394182E-01  0.387075E-01  0.373312E-01
  0.353784E-01  0.329785E-01  0.302900E-01  0.274815E-01  0.247085E-01  0.220940E-01
  0.197188E-01  0.176249E-01  0.158266E-01  0.143208E-01  0.130911E-01  0.121106E-01
  0.113467E-01  0.107695E-01  0.103566E-01  0.100922E-01  0.996398E-02  0.996398E-02
  0.100922E-01  0.103566E-01  0.107695E-01  0.113467E-01  0.121106E-01  0.130911E-01
  0.143208E-01  0.158266E-01  0.176249E-01  0.197188E-01  0.220940E-01  0.247085E-01
  0.274815E-01  0.302900E-01  0.329785E-01  0.353784E-01  0.373312E-01  0.387075E-01
  0.388818E-01  0.392769E-01  0.388818E-01  0.377266E-01  0.358980E-01  0.335305E-01
  0.307916E-01  0.278629E-01  0.249165E-01  0.220940E-01  0.194946E-01  0.171756E-01
  0.151622E-01  0.134571E-01  0.120477E-01  0.109088E-01  0.100079E-01  0.931329E-02
  0.879944E-02  0.844791E-02  0.824434E-02  0.817790E-02  0.824434E-02  0.844791E-02
  0.879944E-02  0.931329E-02  0.100079E-01  0.109088E-01  0.120477E-01  0.134571E-01
  0.151622E-01  0.171756E-01  0.194946E-01  0.220940E-01  0.249165E-01  0.278629E-01
  0.307916E-01  0.335305E-01  0.358980E-01  0.377266E-01  0.388818E-01  0.390877E-01
  0.390877E-01  0.382436E-01  0.366262E-01  0.343666E-01  0.316384E-01  0.286355E-01
  0.255469E-01  0.225346E-01  0.197188E-01  0.171756E-01  0.149445E-01  0.130374E-01
  0.114463E-01  0.101480E-01  0.910994E-02  0.829803E-02  0.768303E-02  0.724288E-02
  0.696078E-02  0.682365E-02  0.682365E-02  0.696078E-02  0.724288E-02  0.768303E-02
  0.829803E-02  0.910994E-02  0.101480E-01  0.114463E-01  0.130374E-01  0.149445E-01
  0.171756E-01  0.197188E-01  0.225346E-01  0.255469E-01  0.286355E-01  0.316384E-01
  0.343666E-01  0.366262E-01  0.382436E-01  0.390877E-01  0.393736E-01  0.389192E-01
  0.375965E-01  0.355210E-01  0.328645E-01  0.298307E-01  0.266260E-01  0.234348E-01
  0.204015E-01  0.176249E-01  0.151622E-01  0.130374E-01  0.112494E-01  0.977818E-02
  0.859196E-02  0.765492E-02  0.693399E-02  0.640224E-02  0.603886E-02  0.582799E-02
  0.575898E-02  0.582799E-02  0.603886E-02  0.640224E-02  0.693399E-02  0.765492E-02
  0.859196E-02  0.977818E-02  0.112494E-01  0.130374E-01  0.151622E-01  0.176249E-01
  0.204015E-01  0.234348E-01  0.266260E-01  0.298307E-01  0.328645E-01  0.355210E-01
  0.375965E-01  0.389192E-01  0.393736E-01  0.398125E-01  0.388609E-01  0.370445E-01
  0.345230E-01  0.315026E-01  0.282053E-01  0.248396E-01  0.215780E-01  0.185470E-01
  0.158266E-01  0.134571E-01  0.114463E-01  0.977818E-02  0.842217E-02  0.734177E-02
  0.650120E-02  0.586892E-02  0.541874E-02  0.513030E-02  0.498963E-02  0.498963E-02
  0.513030E-02  0.541874E-02  0.586892E-02  0.650120E-02  0.734177E-02  0.842217E-02
  0.977818E-02  0.114463E-01  0.134571E-01  0.158266E-01  0.185470E-01  0.215780E-01
  0.248396E-01  0.282053E-01  0.315026E-01  0.345230E-01  0.370445E-01  0.388609E-01
  0.398125E-01  0.398125E-01  0.404823E-01  0.389978E-01  0.366755E-01  0.337161E-01
  0.303524E-01  0.268160E-01  0.233103E-01  0.199941E-01  0.169768E-01  0.143208E-01
  0.120477E-01  0.101480E-01  0.859196E-02  0.734177E-02  0.635920E-02  0.560915E-02
  0.506048E-02  0.468726E-02  0.447058E-02  0.439951E-02  0.447058E-02  0.468726E-02
  0.506048E-02  0.560915E-02  0.635920E-02  0.734177E-02  0.859196E-02  0.101480E-01
  0.120477E-01  0.143208E-01  0.169768E-01  0.199941E-01  0.233103E-01  0.268160E-01
  0.303524E-01  0.337161E-01  0.366755E-01  0.389978E-01  0.404823E-01  0.409932E-01
  0.404823E-01  0.414506E-01  0.393940E-01  0.365460E-01  0.331447E-01  0.294434E-01
  0.256776E-01  0.220422E-01  0.186802E-01  0.156824E-01  0.130911E-01  0.109088E-01
  0.910994E-02  0.765492E-02  0.650120E-02  0.560915E-02  0.494315E-02  0.447212E-02
  0.417145E-02  0.402493E-02  0.402493E-02  0.417145E-02  0.447212E-02  0.494315E-02
  0.560915E-02  0.650120E-02  0.765492E-02  0.910994E-02  0.109088E-01  0.130911E-01
  0.156824E-01  0.186802E-01  0.220422E-01  0.256776E-01  0.294434E-01  0.331447E-01
  0.365460E-01  0.393940E-01  0.414506E-01  0.425299E-01  0.425299E-01  0.414506E-01
  0.427539E-01  0.400785E-01  0.366755E-01  0.328175E-01  0.287745E-01  0.247824E-01
  0.210236E-01  0.176214E-01  0.146435E-01  0.121106E-01  0.100079E-01  0.829803E-02
  0.693399E-02  0.586892E-02  0.506048E-02  0.447212E-02  0.407387E-02  0.384367E-02
  0.376838E-02  0.384367E-02  0.407387E-02  0.447212E-02  0.506048E-02  0.586892E-02
  0.693399E-02  0.829803E-02  0.100079E-01  0.121106E-01  0.146435E-01  0.176214E-01
  0.210236E-01  0.247824E-01  0.287745E-01  0.328175E-01  0.366755E-01  0.400785E-01
  0.427539E-01  0.444665E-01  0.450563E-01  0.444665E-01  0.427539E-01  0.443682E-01
  0.410296E-01  0.370445E-01  0.327161E-01  0.283278E-01  0.241118E-01  0.202337E-01
  0.167923E-01  0.138300E-01  0.113467E-01  0.931329E-02  0.768303E-02  0.640224E-02
  0.541874E-02  0.468726E-02  0.417145E-02  0.384367E-02  0.368479E-02  0.368479E-02
  0.384367E-02  0.417145E-02  0.468726E-02  0.541874E-02  0.640224E-02  0.768303E-02
  0.931329E-02  0.113467E-01  0.138300E-01  0.167923E-01  0.202337E-01  0.241118E-01
  0.283278E-01  0.327161E-01  0.370445E-01  0.410296E-01  0.443682E-01  0.467787E-01
  0.480433E-01  0.480433E-01  0.467787E-01  0.443682E-01  0.461868E-01  0.421678E-01
  0.375965E-01  0.328004E-01  0.280717E-01  0.236364E-01  0.196412E-01  0.161595E-01
  0.132088E-01  0.107695E-01  0.879944E-02  0.724288E-02  0.603886E-02  0.513030E-02
  0.447058E-02  0.402493E-02  0.376838E-02  0.368479E-02  0.376838E-02  0.402493E-02
  0.447058E-02  0.513030E-02  0.603886E-02  0.724288E-02  0.879944E-02  0.107695E-01
  0.132088E-01  0.161595E-01  0.196412E-01  0.236364E-01  0.280717E-01  0.328004E-01
  0.375965E-01  0.421678E-01  0.461868E-01  0.493337E-01  0.513409E-01  0.520307E-01
  0.513409E-01  0.493337E-01  0.461868E-01  0.480248E-01  0.433637E-01  0.382436E-01
  0.330090E-01  0.279593E-01  0.233155E-01  0.192089E-01  0.156899E-01  0.127520E-01
  0.103566E-01  0.844791E-02  0.696078E-02  0.582799E-02  0.498963E-02  0.439951E-02
  0.402493E-02  0.384367E-02  0.384367E-02  0.402493E-02  0.439951E-02  0.498963E-02
  0.582799E-02  0.696078E-02  0.844791E-02  0.103566E-01  0.127520E-01  0.156899E-01
  0.192089E-01  0.233155E-01  0.279593E-01  0.330090E-01  0.382436E-01  0.433637E-01
  0.480248E-01  0.518822E-01  0.546367E-01  0.560707E-01  0.560707E-01  0.546367E-01
  0.518822E-01  0.480248E-01  0.496528E-01  0.444640E-01  0.388818E-01  0.332681E-01
  0.279348E-01  0.231063E-01  0.189039E-01  0.153585E-01  0.124406E-01  0.100922E-01
  0.824434E-02  0.682365E-02  0.575898E-02  0.498963E-02  0.447058E-02  0.417145E-02
  0.407387E-02  0.417145E-02  0.447058E-02  0.498963E-02  0.575898E-02  0.682365E-02
  0.824434E-02  0.100922E-01  0.124406E-01  0.153585E-01  0.189039E-01  0.231063E-01
  0.279348E-01  0.332681E-01  0.388818E-01  0.444640E-01  0.496528E-01  0.540894E-01
  0.574703E-01  0.595795E-01  0.602953E-01  0.595795E-01  0.574703E-01  0.540894E-01
  0.496528E-01  0.508513E-01  0.453305E-01  0.394182E-01  0.335111E-01  0.279506E-01
  0.229751E-01  0.187029E-01  0.151483E-01  0.122607E-01  0.996398E-02  0.817790E-02
  0.682365E-02  0.582799E-02  0.513030E-02  0.468726E-02  0.447212E-02  0.447212E-02
  0.468726E-02  0.513030E-02  0.582799E-02  0.682365E-02  0.817790E-02  0.996398E-02
  0.122607E-01  0.151483E-01  0.187029E-01  0.229751E-01  0.279506E-01  0.335111E-01
  0.394182E-01  0.453305E-01  0.508513E-01  0.556012E-01  0.592937E-01  0.617775E-01
  0.630146E-01  0.630146E-01  0.617775E-01  0.592937E-01  0.556012E-01  0.508513E-01
  0.514845E-01  0.458868E-01  0.398010E-01  0.336987E-01  0.279766E-01  0.229001E-01
  0.185901E-01  0.150472E-01  0.122021E-01  0.996398E-02  0.824434E-02  0.696078E-02
  0.603886E-02  0.541874E-02  0.506048E-02  0.494315E-02  0.506048E-02  0.541874E-02
  0.603886E-02  0.696078E-02  0.824434E-02  0.996398E-02  0.122021E-01  0.150472E-01
  0.185901E-01  0.229001E-01  0.279766E-01  0.336987E-01  0.398010E-01  0.458868E-01
  0.514845E-01  0.561538E-01  0.596200E-01  0.618579E-01  0.630464E-01  0.634098E-01
  0.630464E-01  0.618579E-01  0.596200E-01  0.561538E-01  0.514845E-01  0.515706E-01
  0.461493E-01  0.400311E-01  0.338203E-01  0.279978E-01  0.228670E-01  0.185540E-01
  0.150472E-01  0.122607E-01  0.100922E-01  0.844791E-02  0.724288E-02  0.640224E-02
  0.586892E-02  0.560915E-02  0.560915E-02  0.586892E-02  0.640224E-02  0.724288E-02
  0.844791E-02  0.100922E-01  0.122607E-01  0.150472E-01  0.185540E-01  0.228670E-01
  0.279978E-01  0.338203E-01  0.400311E-01  0.461493E-01  0.515706E-01  0.557180E-01
  0.582785E-01  0.593826E-01  0.595544E-01  0.594306E-01  0.594306E-01  0.595544E-01
  0.593826E-01  0.582785E-01  0.557180E-01  0.515706E-01  0.513000E-01  0.462150E-01
  0.401437E-01  0.338790E-01  0.280059E-01  0.228670E-01  0.185901E-01  0.151483E-01
  0.124406E-01  0.103566E-01  0.879944E-02  0.768303E-02  0.693399E-02  0.650120E-02
  0.635920E-02  0.650120E-02  0.693399E-02  0.768303E-02  0.879944E-02  0.103566E-01
  0.124406E-01  0.151483E-01  0.185901E-01  0.228670E-01  0.280059E-01  0.338790E-01
  0.401437E-01  0.462150E-01  0.513000E-01  0.545897E-01  0.556429E-01  0.547312E-01
  0.528033E-01  0.510403E-01  0.503439E-01  0.510403E-01  0.528033E-01  0.547312E-01
  0.556429E-01  0.545897E-01  0.513000E-01  0.509634E-01  0.462068E-01  0.401762E-01
  0.338790E-01  0.279978E-01  0.229001E-01  0.187029E-01  0.153585E-01  0.127520E-01
  0.107695E-01  0.931329E-02  0.829803E-02  0.765492E-02  0.734177E-02  0.734177E-02
  0.765492E-02  0.829803E-02  0.931329E-02  0.107695E-01  0.127520E-01  0.153585E-01
  0.187029E-01  0.229001E-01  0.279978E-01  0.338790E-01  0.401762E-01  0.462068E-01
  0.509634E-01  0.533225E-01  0.526024E-01  0.491626E-01  0.444181E-01  0.401387E-01
  0.376753E-01  0.376753E-01  0.401387E-01  0.444181E-01  0.491626E-01  0.526024E-01
  0.533225E-01  0.509634E-01  0.508174E-01  0.462068E-01  0.401437E-01  0.338203E-01
  0.279766E-01  0.229751E-01  0.189039E-01  0.156899E-01  0.132088E-01  0.113467E-01
  0.100079E-01  0.910994E-02  0.859196E-02  0.842217E-02  0.859196E-02  0.910994E-02
  0.100079E-01  0.113467E-01  0.132088E-01  0.156899E-01  0.189039E-01  0.229751E-01
  0.279766E-01  0.338203E-01  0.401437E-01  0.462068E-01  0.508174E-01  0.525039E-01
  0.502241E-01  0.443155E-01  0.366729E-01  0.297074E-01  0.251044E-01  0.235303E-01
  0.251044E-01  0.297074E-01  0.366729E-01  0.443155E-01  0.502241E-01  0.525039E-01
  0.508174E-01  0.509634E-01  0.462150E-01  0.400311E-01  0.336987E-01  0.279506E-01
  0.231063E-01  0.192089E-01  0.161595E-01  0.138300E-01  0.121106E-01  0.109088E-01
  0.101480E-01  0.977818E-02  0.977818E-02  0.101480E-01  0.109088E-01  0.121106E-01
  0.138300E-01  0.161595E-01  0.192089E-01  0.231063E-01  0.279506E-01  0.336987E-01
  0.400311E-01  0.462150E-01  0.509634E-01  0.525039E-01  0.493307E-01  0.415410E-01
  0.314123E-01  0.221104E-01  0.157150E-01  0.126547E-01  0.126547E-01  0.157150E-01
  0.221104E-01  0.314123E-01  0.415410E-01  0.493307E-01  0.525039E-01  0.509634E-01
  0.513000E-01  0.461493E-01  0.398010E-01  0.335111E-01  0.279348E-01  0.233155E-01
  0.196412E-01  0.167923E-01  0.146435E-01  0.130911E-01  0.120477E-01  0.114463E-01
  0.112494E-01  0.114463E-01  0.120477E-01  0.130911E-01  0.146435E-01  0.167923E-01
  0.196412E-01  0.233155E-01  0.279348E-01  0.335111E-01  0.398010E-01  0.461493E-01
  0.513000E-01  0.533225E-01  0.502241E-01  0.415410E-01  0.295769E-01  0.182821E-01
  0.104605E-01  0.644888E-02  0.529121E-02  0.644888E-02  0.104605E-01  0.182821E-01
  0.295769E-01  0.415410E-01  0.502241E-01  0.533225E-01  0.513000E-01  0.515706E-01
  0.458868E-01  0.394182E-01  0.332681E-01  0.279593E-01  0.236364E-01  0.202337E-01
  0.176214E-01  0.156824E-01  0.143208E-01  0.134571E-01  0.130374E-01  0.130374E-01
  0.134571E-01  0.143208E-01  0.156824E-01  0.176214E-01  0.202337E-01  0.236364E-01
  0.279593E-01  0.332681E-01  0.394182E-01  0.458868E-01  0.515706E-01  0.545897E-01
  0.526024E-01  0.443155E-01  0.314123E-01  0.182821E-01  0.884245E-02  0.395318E-02
  0.219420E-02  0.219420E-02  0.395318E-02  0.884245E-02  0.182821E-01  0.314123E-01
  0.443155E-01  0.526024E-01  0.545897E-01  0.515706E-01  0.514845E-01  0.453305E-01
  0.388818E-01  0.330090E-01  0.280717E-01  0.241118E-01  0.210236E-01  0.186802E-01
  0.169768E-01  0.158266E-01  0.151622E-01  0.149445E-01  0.151622E-01  0.158266E-01
  0.169768E-01  0.186802E-01  0.210236E-01  0.241118E-01  0.280717E-01  0.330090E-01
  0.388818E-01  0.453305E-01  0.514845E-01  0.557180E-01  0.556429E-01  0.491626E-01
  0.366729E-01  0.221104E-01  0.104605E-01  0.395318E-02  0.144769E-02  0.900259E-03
  0.144769E-02  0.395318E-02  0.104605E-01  0.221104E-01  0.366729E-01  0.491626E-01
  0.556429E-01  0.557180E-01  0.514845E-01  0.508513E-01  0.444640E-01  0.382436E-01
  0.328004E-01  0.283278E-01  0.247824E-01  0.220422E-01  0.199941E-01  0.185470E-01
  0.176249E-01  0.171756E-01  0.171756E-01  0.176249E-01  0.185470E-01  0.199941E-01
  0.220422E-01  0.247824E-01  0.283278E-01  0.328004E-01  0.382436E-01  0.444640E-01
  0.508513E-01  0.561538E-01  0.582785E-01  0.547312E-01  0.444181E-01  0.297074E-01
  0.157150E-01  0.644888E-02  0.219420E-02  0.900259E-03  0.900259E-03  0.219420E-02
  0.644888E-02  0.157150E-01  0.297074E-01  0.444181E-01  0.547312E-01  0.582785E-01
  0.561538E-01  0.508513E-01  0.496528E-01  0.433637E-01  0.375965E-01  0.327161E-01
  0.287745E-01  0.256776E-01  0.233103E-01  0.215780E-01  0.204015E-01  0.197188E-01
  0.194946E-01  0.197188E-01  0.204015E-01  0.215780E-01  0.233103E-01  0.256776E-01
  0.287745E-01  0.327161E-01  0.375965E-01  0.433637E-01  0.496528E-01  0.556012E-01
  0.596200E-01  0.593826E-01  0.528033E-01  0.401387E-01  0.251044E-01  0.126547E-01
  0.529121E-02  0.219420E-02  0.144769E-02  0.219420E-02  0.529121E-02  0.126547E-01
  0.251044E-01  0.401387E-01  0.528033E-01  0.593826E-01  0.596200E-01  0.556012E-01
  0.496528E-01  0.480248E-01  0.421678E-01  0.370445E-01  0.328175E-01  0.294434E-01
  0.268160E-01  0.248396E-01  0.234348E-01  0.225346E-01  0.220940E-01  0.220940E-01
  0.225346E-01  0.234348E-01  0.248396E-01  0.268160E-01  0.294434E-01  0.328175E-01
  0.370445E-01  0.421678E-01  0.480248E-01  0.540894E-01  0.592937E-01  0.618579E-01
  0.595544E-01  0.510403E-01  0.376753E-01  0.235303E-01  0.126547E-01  0.644888E-02
  0.395318E-02  0.395318E-02  0.644888E-02  0.126547E-01  0.235303E-01  0.376753E-01
  0.510403E-01  0.595544E-01  0.618579E-01  0.592937E-01  0.540894E-01  0.480248E-01
  0.461868E-01  0.410296E-01  0.366755E-01  0.331447E-01  0.303524E-01  0.282053E-01
  0.266260E-01  0.255469E-01  0.249165E-01  0.247085E-01  0.249165E-01  0.255469E-01
  0.266260E-01  0.282053E-01  0.303524E-01  0.331447E-01  0.366755E-01  0.410296E-01
  0.461868E-01  0.518822E-01  0.574703E-01  0.617775E-01  0.630464E-01  0.594306E-01
  0.503439E-01  0.376753E-01  0.251044E-01  0.157150E-01  0.104605E-01  0.884245E-02
  0.104605E-01  0.157150E-01  0.251044E-01  0.376753E-01  0.503439E-01  0.594306E-01
  0.630464E-01  0.617775E-01  0.574703E-01  0.518822E-01  0.461868E-01  0.443682E-01
  0.400785E-01  0.365460E-01  0.337161E-01  0.315026E-01  0.298307E-01  0.286355E-01
  0.278629E-01  0.274815E-01  0.274815E-01  0.278629E-01  0.286355E-01  0.298307E-01
  0.315026E-01  0.337161E-01  0.365460E-01  0.400785E-01  0.443682E-01  0.493337E-01
  0.546367E-01  0.595795E-01  0.630146E-01  0.634098E-01  0.594306E-01  0.510403E-01
  0.401387E-01  0.297074E-01  0.221104E-01  0.182821E-01  0.182821E-01  0.221104E-01
  0.297074E-01  0.401387E-01  0.510403E-01  0.594306E-01  0.634098E-01  0.630146E-01
  0.595795E-01  0.546367E-01  0.493337E-01  0.443682E-01  0.427539E-01  0.393940E-01
  0.366755E-01  0.345230E-01  0.328645E-01  0.316384E-01  0.307916E-01  0.302900E-01
  0.301229E-01  0.302900E-01  0.307916E-01  0.316384E-01  0.328645E-01  0.345230E-01
  0.366755E-01  0.393940E-01  0.427539E-01  0.467787E-01  0.513409E-01  0.560707E-01
  0.602953E-01  0.630146E-01  0.630464E-01  0.595544E-01  0.528033E-01  0.444181E-01
  0.366729E-01  0.314123E-01  0.295769E-01  0.314123E-01  0.366729E-01  0.444181E-01
  0.528033E-01  0.595544E-01  0.630464E-01  0.630146E-01  0.602953E-01  0.560707E-01
  0.513409E-01  0.467787E-01  0.427539E-01  0.414506E-01  0.389978E-01  0.370445E-01
  0.355210E-01  0.343666E-01  0.335305E-01  0.329785E-01  0.327008E-01  0.327008E-01
  0.329785E-01  0.335305E-01  0.343666E-01  0.355210E-01  0.370445E-01  0.389978E-01
  0.414506E-01  0.444665E-01  0.480433E-01  0.520307E-01  0.560707E-01  0.595795E-01
  0.617775E-01  0.618579E-01  0.593826E-01  0.547312E-01  0.491626E-01  0.443155E-01
  0.415410E-01  0.415410E-01  0.443155E-01  0.491626E-01  0.547312E-01  0.593826E-01
  0.618579E-01  0.617775E-01  0.595795E-01  0.560707E-01  0.520307E-01  0.480433E-01
  0.444665E-01  0.414506E-01  0.404823E-01  0.388609E-01  0.375965E-01  0.366262E-01
  0.358980E-01  0.353784E-01  0.350597E-01  0.349512E-01  0.350597E-01  0.353784E-01
  0.358980E-01  0.366262E-01  0.375965E-01  0.388609E-01  0.404823E-01  0.425299E-01
  0.450563E-01  0.480433E-01  0.513409E-01  0.546367E-01  0.574703E-01  0.592937E-01
  0.596200E-01  0.582785E-01  0.556429E-01  0.526024E-01  0.502241E-01  0.493307E-01
  0.502241E-01  0.526024E-01  0.556429E-01  0.582785E-01  0.596200E-01  0.592937E-01
  0.574703E-01  0.546367E-01  0.513409E-01  0.480433E-01  0.450563E-01  0.425299E-01
  0.404823E-01  0.398125E-01  0.389192E-01  0.382436E-01  0.377266E-01  0.373312E-01
  0.370511E-01  0.369025E-01  0.369025E-01  0.370511E-01  0.373312E-01  0.377266E-01
  0.382436E-01  0.389192E-01  0.398125E-01  0.409932E-01  0.425299E-01  0.444665E-01
  0.467787E-01  0.493337E-01  0.518822E-01  0.540894E-01  0.556012E-01  0.561538E-01
  0.557180E-01  0.545897E-01  0.533225E-01  0.525039E-01  0.525039E-01  0.533225E-01
  0.545897E-01  0.557180E-01  0.561538E-01  0.556012E-01  0.540894E-01  0.518822E-01
  0.493337E-01  0.467787E-01  0.444665E-01  0.425299E-01  0.409932E-01  0.398125E-01
  0.393736E-01  0.390877E-01  0.388818E-01  0.387075E-01  0.385541E-01  0.384425E-01
  0.384012E-01  0.384425E-01  0.385541E-01  0.387075E-01  0.388818E-01  0.390877E-01
  0.393736E-01  0.398125E-01  0.404823E-01  0.414506E-01  0.427539E-01  0.443682E-01
  0.461868E-01  0.480248E-01  0.496528E-01  0.508513E-01  0.514845E-01  0.515706E-01
  0.513000E-01  0.509634E-01  0.508174E-01  0.509634E-01  0.513000E-01  0.515706E-01
  0.514845E-01  0.508513E-01  0.496528E-01  0.480248E-01  0.461868E-01  0.443682E-01
  0.427539E-01  0.414506E-01  0.404823E-01  0.398125E-01  0.393736E-01  0.453714E-01
  0.453993E-01  0.453305E-01  0.451683E-01  0.449788E-01  0.448526E-01  0.448526E-01
  0.449788E-01  0.451683E-01  0.453305E-01  0.453993E-01  0.453714E-01  0.453087E-01
  0.453153E-01  0.455075E-01  0.459832E-01  0.467849E-01  0.478695E-01  0.491053E-01
  0.503011E-01  0.512508E-01  0.517906E-01  0.518644E-01  0.515706E-01  0.511406E-01
  0.508390E-01  0.508390E-01  0.511406E-01  0.515706E-01  0.518644E-01  0.517906E-01
  0.512508E-01  0.503011E-01  0.491053E-01  0.478695E-01  0.467849E-01  0.459832E-01
  0.455075E-01  0.453153E-01  0.453087E-01  0.453714E-01  0.453993E-01  0.457517E-01
  0.458868E-01  0.458587E-01  0.457740E-01  0.457324E-01  0.457740E-01  0.458587E-01
  0.458868E-01  0.457517E-01  0.453993E-01  0.448589E-01  0.442298E-01  0.436442E-01
  0.432298E-01  0.430802E-01  0.432298E-01  0.436442E-01  0.442298E-01  0.448589E-01
  0.453993E-01  0.457517E-01  0.458868E-01  0.458587E-01  0.457740E-01  0.457324E-01
  0.457740E-01  0.458587E-01  0.458868E-01  0.457517E-01  0.453993E-01  0.448589E-01
  0.442298E-01  0.436442E-01  0.432298E-01  0.430802E-01  0.432298E-01  0.436442E-01
  0.442298E-01  0.448589E-01  0.453993E-01  0.453305E-01  0.458868E-01  0.461493E-01
  0.462150E-01  0.462068E-01  0.462068E-01  0.462150E-01  0.461493E-01  0.458868E-01
  0.453305E-01  0.444640E-01  0.433637E-01  0.421678E-01  0.410296E-01  0.400785E-01
  0.393940E-01  0.389978E-01  0.388609E-01  0.389192E-01  0.390877E-01  0.392769E-01
  0.394182E-01  0.394858E-01  0.394975E-01  0.394901E-01  0.394901E-01  0.394975E-01
  0.394858E-01  0.394182E-01  0.392769E-01  0.390877E-01  0.389192E-01  0.388609E-01
  0.389978E-01  0.393940E-01  0.400785E-01  0.410296E-01  0.421678E-01  0.433637E-01
  0.444640E-01  0.453305E-01  0.451683E-01  0.458587E-01  0.462150E-01  0.463536E-01
  0.463849E-01  0.463536E-01  0.462150E-01  0.458587E-01  0.451683E-01  0.440882E-01
  0.426591E-01  0.410067E-01  0.392993E-01  0.376980E-01  0.363200E-01  0.352229E-01
  0.344129E-01  0.338641E-01  0.335312E-01  0.333544E-01  0.332681E-01  0.332200E-01
  0.331849E-01  0.331601E-01  0.331509E-01  0.331601E-01  0.331849E-01  0.332200E-01
  0.332681E-01  0.333544E-01  0.335312E-01  0.338641E-01  0.344129E-01  0.352229E-01
  0.363200E-01  0.376980E-01  0.392993E-01  0.410067E-01  0.426591E-01  0.440882E-01
  0.451683E-01  0.449788E-01  0.457740E-01  0.462068E-01  0.463849E-01  0.463849E-01
  0.462068E-01  0.457740E-01  0.449788E-01  0.437480E-01  0.420918E-01  0.401117E-01
  0.379727E-01  0.358563E-01  0.339140E-01  0.322382E-01  0.308608E-01  0.297746E-01
  0.289549E-01  0.283657E-01  0.279593E-01  0.276844E-01  0.275013E-01  0.273873E-01
  0.273325E-01  0.273325E-01  0.273873E-01  0.275013E-01  0.276844E-01  0.279593E-01
  0.283657E-01  0.289549E-01  0.297746E-01  0.308608E-01  0.322382E-01  0.339140E-01
  0.358563E-01  0.379727E-01  0.401117E-01  0.420918E-01  0.437480E-01  0.449788E-01
  0.448526E-01  0.457324E-01  0.462068E-01  0.463536E-01  0.462068E-01  0.457324E-01
  0.448526E-01  0.435011E-01  0.416756E-01  0.394581E-01  0.370004E-01  0.344873E-01
  0.320930E-01  0.299422E-01  0.280954E-01  0.265620E-01  0.253260E-01  0.243623E-01
  0.236364E-01  0.231059E-01  0.227299E-01  0.224788E-01  0.223351E-01  0.222884E-01
  0.223351E-01  0.224788E-01  0.227299E-01  0.231059E-01  0.236364E-01  0.243623E-01
  0.253260E-01  0.265620E-01  0.280954E-01  0.299422E-01  0.320930E-01  0.344873E-01
  0.370004E-01  0.394581E-01  0.416756E-01  0.435011E-01  0.448526E-01  0.448526E-01
  0.457740E-01  0.462150E-01  0.462150E-01  0.457740E-01  0.448526E-01  0.434099E-01
  0.414504E-01  0.390504E-01  0.363524E-01  0.335376E-01  0.307885E-01  0.282516E-01
  0.260143E-01  0.241062E-01  0.225217E-01  0.212403E-01  0.202337E-01  0.194655E-01
  0.188963E-01  0.184939E-01  0.182371E-01  0.181123E-01  0.181123E-01  0.182371E-01
  0.184939E-01  0.188963E-01  0.194655E-01  0.202337E-01  0.212403E-01  0.225217E-01
  0.241062E-01  0.260143E-01  0.282516E-01  0.307885E-01  0.335376E-01  0.363524E-01
  0.390504E-01  0.414504E-01  0.434099E-01  0.448526E-01  0.449788E-01  0.458587E-01
  0.461493E-01  0.458587E-01  0.449788E-01  0.435011E-01  0.414504E-01  0.389104E-01
  0.360244E-01  0.329736E-01  0.299446E-01  0.270961E-01  0.245344E-01  0.223085E-01
  0.204255E-01  0.188712E-01  0.176214E-01  0.166430E-01  0.158974E-01  0.153496E-01
  0.149749E-01  0.147570E-01  0.146856E-01  0.147570E-01  0.149749E-01  0.153496E-01
  0.158974E-01  0.166430E-01  0.176214E-01  0.188712E-01  0.204255E-01  0.223085E-01
  0.245344E-01  0.270961E-01  0.299446E-01  0.329736E-01  0.360244E-01  0.389104E-01
  0.414504E-01  0.435011E-01  0.449788E-01  0.451683E-01  0.458868E-01  0.458868E-01
  0.451683E-01  0.437480E-01  0.416756E-01  0.390504E-01  0.360244E-01  0.327855E-01
  0.295281E-01  0.264215E-01  0.235865E-01  0.210876E-01  0.189441E-01  0.171491E-01
  0.156824E-01  0.145141E-01  0.136066E-01  0.129226E-01  0.124328E-01  0.121178E-01
  0.119642E-01  0.119642E-01  0.121178E-01  0.124328E-01  0.129226E-01  0.136066E-01
  0.145141E-01  0.156824E-01  0.171491E-01  0.189441E-01  0.210876E-01  0.235865E-01
  0.264215E-01  0.295281E-01  0.327855E-01  0.360244E-01  0.390504E-01  0.416756E-01
  0.437480E-01  0.451683E-01  0.453305E-01  0.457517E-01  0.453305E-01  0.440882E-01
  0.420918E-01  0.394581E-01  0.363524E-01  0.329736E-01  0.295281E-01  0.261991E-01
  0.231230E-01  0.203796E-01  0.180005E-01  0.159863E-01  0.143208E-01  0.129762E-01
  0.119162E-01  0.111017E-01  0.104999E-01  0.100874E-01  0.984773E-02  0.976934E-02
  0.984773E-02  0.100874E-01  0.104999E-01  0.111017E-01  0.119162E-01  0.129762E-01
  0.143208E-01  0.159863E-01  0.180005E-01  0.203796E-01  0.231230E-01  0.261991E-01
  0.295281E-01  0.329736E-01  0.363524E-01  0.394581E-01  0.420918E-01  0.440882E-01
  0.453305E-01  0.453993E-01  0.453993E-01  0.444640E-01  0.426591E-01  0.401117E-01
  0.370004E-01  0.335376E-01  0.299446E-01  0.264215E-01  0.231230E-01  0.201472E-01
  0.175410E-01  0.153148E-01  0.134571E-01  0.119423E-01  0.107344E-01  0.979274E-02
  0.908068E-02  0.857080E-02  0.824357E-02  0.808439E-02  0.808439E-02  0.824357E-02
  0.857080E-02  0.908068E-02  0.979274E-02  0.107344E-01  0.119423E-01  0.134571E-01
  0.153148E-01  0.175410E-01  0.201472E-01  0.231230E-01  0.264215E-01  0.299446E-01
  0.335376E-01  0.370004E-01  0.401117E-01  0.426591E-01  0.444640E-01  0.453993E-01
  0.453714E-01  0.448589E-01  0.433637E-01  0.410067E-01  0.379727E-01  0.344873E-01
  0.307885E-01  0.270961E-01  0.235865E-01  0.203796E-01  0.175410E-01  0.150949E-01
  0.130374E-01  0.113462E-01  0.998585E-02  0.891429E-02  0.809089E-02  0.748316E-02
  0.706753E-02  0.682649E-02  0.674772E-02  0.682649E-02  0.706753E-02  0.748316E-02
  0.809089E-02  0.891429E-02  0.998585E-02  0.113462E-01  0.130374E-01  0.150949E-01
  0.175410E-01  0.203796E-01  0.235865E-01  0.270961E-01  0.307885E-01  0.344873E-01
  0.379727E-01  0.410067E-01  0.433637E-01  0.448589E-01  0.453714E-01  0.453087E-01
  0.442298E-01  0.421678E-01  0.392993E-01  0.358563E-01  0.320930E-01  0.282516E-01
  0.245344E-01  0.210876E-01  0.180005E-01  0.153148E-01  0.130374E-01  0.111510E-01
  0.962176E-02  0.840714E-02  0.746345E-02  0.675291E-02  0.624628E-02  0.592187E-02
  0.576403E-02  0.576403E-02  0.592187E-02  0.624628E-02  0.675291E-02  0.746345E-02
  0.840714E-02  0.962176E-02  0.111510E-01  0.130374E-01  0.153148E-01  0.180005E-01
  0.210876E-01  0.245344E-01  0.282516E-01  0.320930E-01  0.358563E-01  0.392993E-01
  0.421678E-01  0.442298E-01  0.453087E-01  0.453087E-01  0.453153E-01  0.436442E-01
  0.410296E-01  0.376980E-01  0.339140E-01  0.299422E-01  0.260143E-01  0.223085E-01
  0.189441E-01  0.159863E-01  0.134571E-01  0.113462E-01  0.962176E-02  0.824080E-02
  0.715777E-02  0.633084E-02  0.572503E-02  0.531282E-02  0.507397E-02  0.499581E-02
  0.507397E-02  0.531282E-02  0.572503E-02  0.633084E-02  0.715777E-02  0.824080E-02
  0.962176E-02  0.113462E-01  0.134571E-01  0.159863E-01  0.189441E-01  0.223085E-01
  0.260143E-01  0.299422E-01  0.339140E-01  0.376980E-01  0.410296E-01  0.436442E-01
  0.453153E-01  0.458903E-01  0.453153E-01  0.455075E-01  0.432298E-01  0.400785E-01
  0.363200E-01  0.322382E-01  0.280954E-01  0.241062E-01  0.204255E-01  0.171491E-01
  0.143208E-01  0.119423E-01  0.998585E-02  0.840714E-02  0.715777E-02  0.619237E-02
  0.547127E-02  0.496110E-02  0.463575E-02  0.447748E-02  0.447748E-02  0.463575E-02
  0.496110E-02  0.547127E-02  0.619237E-02  0.715777E-02  0.840714E-02  0.998585E-02
  0.119423E-01  0.143208E-01  0.171491E-01  0.204255E-01  0.241062E-01  0.280954E-01
  0.322382E-01  0.363200E-01  0.400785E-01  0.432298E-01  0.455075E-01  0.467034E-01
  0.467034E-01  0.455075E-01  0.459832E-01  0.430802E-01  0.393940E-01  0.352229E-01
  0.308608E-01  0.265620E-01  0.225217E-01  0.188712E-01  0.156824E-01  0.129762E-01
  0.107344E-01  0.891429E-02  0.746345E-02  0.633084E-02  0.547127E-02  0.484601E-02
  0.442313E-02  0.417890E-02  0.409906E-02  0.417890E-02  0.442313E-02  0.484601E-02
  0.547127E-02  0.633084E-02  0.746345E-02  0.891429E-02  0.107344E-01  0.129762E-01
  0.156824E-01  0.188712E-01  0.225217E-01  0.265620E-01  0.308608E-01  0.352229E-01
  0.393940E-01  0.430802E-01  0.459832E-01  0.478436E-01  0.484847E-01  0.478436E-01
  0.459832E-01  0.467849E-01  0.432298E-01  0.389978E-01  0.344129E-01  0.297746E-01
  0.253260E-01  0.212403E-01  0.176214E-01  0.145141E-01  0.119162E-01  0.979274E-02
  0.809089E-02  0.675291E-02  0.572503E-02  0.496110E-02  0.442313E-02  0.408154E-02
  0.391595E-02  0.391595E-02  0.408154E-02  0.442313E-02  0.496110E-02  0.572503E-02
  0.675291E-02  0.809089E-02  0.979274E-02  0.119162E-01  0.145141E-01  0.176214E-01
  0.212403E-01  0.253260E-01  0.297746E-01  0.344129E-01  0.389978E-01  0.432298E-01
  0.467849E-01  0.493576E-01  0.507095E-01  0.507095E-01  0.493576E-01  0.467849E-01
  0.478695E-01  0.436442E-01  0.388609E-01  0.338641E-01  0.289549E-01  0.243623E-01
  0.202337E-01  0.166430E-01  0.136066E-01  0.111017E-01  0.908068E-02  0.748316E-02
  0.624628E-02  0.531282E-02  0.463575E-02  0.417890E-02  0.391595E-02  0.383024E-02
  0.391595E-02  0.417890E-02  0.463575E-02  0.531282E-02  0.624628E-02  0.748316E-02
  0.908068E-02  0.111017E-01  0.136066E-01  0.166430E-01  0.202337E-01  0.243623E-01
  0.289549E-01  0.338641E-01  0.388609E-01  0.436442E-01  0.478695E-01  0.511925E-01
  0.533193E-01  0.540516E-01  0.533193E-01  0.511925E-01  0.478695E-01  0.491053E-01
  0.442298E-01  0.389192E-01  0.335312E-01  0.283657E-01  0.236364E-01  0.194655E-01
  0.158974E-01  0.129226E-01  0.104999E-01  0.857080E-02  0.706753E-02  0.592187E-02
  0.507397E-02  0.447748E-02  0.409906E-02  0.391595E-02  0.391595E-02  0.409906E-02
  0.447748E-02  0.507397E-02  0.592187E-02  0.706753E-02  0.857080E-02  0.104999E-01
  0.129226E-01  0.158974E-01  0.194655E-01  0.236364E-01  0.283657E-01  0.335312E-01
  0.389192E-01  0.442298E-01  0.491053E-01  0.531738E-01  0.560998E-01  0.576306E-01
  0.576306E-01  0.560998E-01  0.531738E-01  0.491053E-01  0.503011E-01  0.448589E-01
  0.390877E-01  0.333544E-01  0.279593E-01  0.231059E-01  0.188963E-01  0.153496E-01
  0.124328E-01  0.100874E-01  0.824357E-02  0.682649E-02  0.576403E-02  0.499581E-02
  0.447748E-02  0.417890E-02  0.408154E-02  0.417890E-02  0.447748E-02  0.499581E-02
  0.576403E-02  0.682649E-02  0.824357E-02  0.100874E-01  0.124328E-01  0.153496E-01
  0.188963E-01  0.231059E-01  0.279593E-01  0.333544E-01  0.390877E-01  0.448589E-01
  0.503011E-01  0.550273E-01  0.586834E-01  0.609927E-01  0.617819E-01  0.609927E-01
  0.586834E-01  0.550273E-01  0.503011E-01  0.512508E-01  0.453993E-01  0.392769E-01
  0.332681E-01  0.276844E-01  0.227299E-01  0.184939E-01  0.149749E-01  0.121178E-01
  0.984773E-02  0.808439E-02  0.674772E-02  0.576403E-02  0.507397E-02  0.463575E-02
  0.442313E-02  0.442313E-02  0.463575E-02  0.507397E-02  0.576403E-02  0.674772E-02
  0.808439E-02  0.984773E-02  0.121178E-01  0.149749E-01  0.184939E-01  0.227299E-01
  0.276844E-01  0.332681E-01  0.392769E-01  0.453993E-01  0.512508E-01  0.564317E-01
  0.605922E-01  0.634809E-01  0.649545E-01  0.649545E-01  0.634809E-01  0.605922E-01
  0.564317E-01  0.512508E-01  0.517906E-01  0.457517E-01  0.394182E-01  0.332200E-01
  0.275013E-01  0.224788E-01  0.182371E-01  0.147570E-01  0.119642E-01  0.976934E-02
  0.808439E-02  0.682649E-02  0.592187E-02  0.531282E-02  0.496110E-02  0.484601E-02
  0.496110E-02  0.531282E-02  0.592187E-02  0.682649E-02  0.808439E-02  0.976934E-02
  0.119642E-01  0.147570E-01  0.182371E-01  0.224788E-01  0.275013E-01  0.332200E-01
  0.394182E-01  0.457517E-01  0.517906E-01  0.570977E-01  0.613304E-01  0.643180E-01
  0.660576E-01  0.666237E-01  0.660576E-01  0.643180E-01  0.613304E-01  0.570977E-01
  0.517906E-01  0.518644E-01  0.458868E-01  0.394858E-01  0.331849E-01  0.273873E-01
  0.223351E-01  0.181123E-01  0.146856E-01  0.119642E-01  0.984773E-02  0.824357E-02
  0.706753E-02  0.624628E-02  0.572503E-02  0.547127E-02  0.547127E-02  0.572503E-02
  0.624628E-02  0.706753E-02  0.824357E-02  0.984773E-02  0.119642E-01  0.146856E-01
  0.181123E-01  0.223351E-01  0.273873E-01  0.331849E-01  0.394858E-01  0.458868E-01
  0.518644E-01  0.568829E-01  0.605687E-01  0.628642E-01  0.640315E-01  0.644719E-01
  0.644719E-01  0.640315E-01  0.628642E-01  0.605687E-01  0.568829E-01  0.518644E-01
  0.515706E-01  0.458587E-01  0.394975E-01  0.331601E-01  0.273325E-01  0.222884E-01
  0.181123E-01  0.147570E-01  0.121178E-01  0.100874E-01  0.857080E-02  0.748316E-02
  0.675291E-02  0.633084E-02  0.619237E-02  0.633084E-02  0.675291E-02  0.748316E-02
  0.857080E-02  0.100874E-01  0.121178E-01  0.147570E-01  0.181123E-01  0.222884E-01
  0.273325E-01  0.331601E-01  0.394975E-01  0.458587E-01  0.515706E-01  0.559102E-01
  0.583896E-01  0.590528E-01  0.585206E-01  0.576945E-01  0.573242E-01  0.576945E-01
  0.585206E-01  0.590528E-01  0.583896E-01  0.559102E-01  0.515706E-01  0.511406E-01
  0.457740E-01  0.394901E-01  0.331509E-01  0.273325E-01  0.223351E-01  0.182371E-01
  0.149749E-01  0.124328E-01  0.104999E-01  0.908068E-02  0.809089E-02  0.746345E-02
  0.715777E-02  0.715777E-02  0.746345E-02  0.809089E-02  0.908068E-02  0.104999E-01
  0.124328E-01  0.149749E-01  0.182371E-01  0.223351E-01  0.273325E-01  0.331509E-01
  0.394901E-01  0.457740E-01  0.511406E-01  0.545897E-01  0.554089E-01  0.536934E-01
  0.504743E-01  0.472457E-01  0.452903E-01  0.452903E-01  0.472457E-01  0.504743E-01
  0.536934E-01  0.554089E-01  0.545897E-01  0.511406E-01  0.508390E-01  0.457324E-01
  0.394901E-01  0.331601E-01  0.273873E-01  0.224788E-01  0.184939E-01  0.153496E-01
  0.129226E-01  0.111017E-01  0.979274E-02  0.891429E-02  0.840714E-02  0.824080E-02
  0.840714E-02  0.891429E-02  0.979274E-02  0.111017E-01  0.129226E-01  0.153496E-01
  0.184939E-01  0.224788E-01  0.273873E-01  0.331601E-01  0.394901E-01  0.457324E-01
  0.508390E-01  0.534794E-01  0.526024E-01  0.482686E-01  0.419489E-01  0.357903E-01
  0.315275E-01  0.300317E-01  0.315275E-01  0.357903E-01  0.419489E-01  0.482686E-01
  0.526024E-01  0.534794E-01  0.508390E-01  0.508390E-01  0.457740E-01  0.394975E-01
  0.331849E-01  0.275013E-01  0.227299E-01  0.188963E-01  0.158974E-01  0.136066E-01
  0.119162E-01  0.107344E-01  0.998585E-02  0.962176E-02  0.962176E-02  0.998585E-02
  0.107344E-01  0.119162E-01  0.136066E-01  0.158974E-01  0.188963E-01  0.227299E-01
  0.275013E-01  0.331849E-01  0.394975E-01  0.457740E-01  0.508390E-01  0.530488E-01
  0.509178E-01  0.443155E-01  0.351179E-01  0.262321E-01  0.198324E-01  0.166537E-01
  0.166537E-01  0.198324E-01  0.262321E-01  0.351179E-01  0.443155E-01  0.509178E-01
  0.530488E-01  0.508390E-01  0.511406E-01  0.458587E-01  0.394858E-01  0.332200E-01
  0.276844E-01  0.231059E-01  0.194655E-01  0.166430E-01  0.145141E-01  0.129762E-01
  0.119423E-01  0.113462E-01  0.111510E-01  0.113462E-01  0.119423E-01  0.129762E-01
  0.145141E-01  0.166430E-01  0.194655E-01  0.231059E-01  0.276844E-01  0.332200E-01
  0.394858E-01  0.458587E-01  0.511406E-01  0.534794E-01  0.509178E-01  0.428799E-01
  0.314123E-01  0.202623E-01  0.122797E-01  0.803241E-02  0.677191E-02  0.803241E-02
  0.122797E-01  0.202623E-01  0.314123E-01  0.428799E-01  0.509178E-01  0.534794E-01
  0.511406E-01  0.515706E-01  0.458868E-01  0.394182E-01  0.332681E-01  0.279593E-01
  0.236364E-01  0.202337E-01  0.176214E-01  0.156824E-01  0.143208E-01  0.134571E-01
  0.130374E-01  0.130374E-01  0.134571E-01  0.143208E-01  0.156824E-01  0.176214E-01
  0.202337E-01  0.236364E-01  0.279593E-01  0.332681E-01  0.394182E-01  0.458868E-01
  0.515706E-01  0.545897E-01  0.526024E-01  0.443155E-01  0.314123E-01  0.182821E-01
  0.884245E-02  0.395318E-02  0.219420E-02  0.219420E-02  0.395318E-02  0.884245E-02
  0.182821E-01  0.314123E-01  0.443155E-01  0.526024E-01  0.545897E-01  0.515706E-01
  0.518644E-01  0.457517E-01  0.392769E-01  0.333544E-01  0.283657E-01  0.243623E-01
  0.212403E-01  0.188712E-01  0.171491E-01  0.159863E-01  0.153148E-01  0.150949E-01
  0.153148E-01  0.159863E-01  0.171491E-01  0.188712E-01  0.212403E-01  0.243623E-01
  0.283657E-01  0.333544E-01  0.392769E-01  0.457517E-01  0.518644E-01  0.559102E-01
  0.554089E-01  0.482686E-01  0.351179E-01  0.202623E-01  0.884245E-02  0.285305E-02
  0.785995E-03  0.397774E-03  0.785995E-03  0.285305E-02  0.884245E-02  0.202623E-01
  0.351179E-01  0.482686E-01  0.554089E-01  0.559102E-01  0.518644E-01  0.517906E-01
  0.453993E-01  0.390877E-01  0.335312E-01  0.289549E-01  0.253260E-01  0.225217E-01
  0.204255E-01  0.189441E-01  0.180005E-01  0.175410E-01  0.175410E-01  0.180005E-01
  0.189441E-01  0.204255E-01  0.225217E-01  0.253260E-01  0.289549E-01  0.335312E-01
  0.390877E-01  0.453993E-01  0.517906E-01  0.568829E-01  0.583896E-01  0.536934E-01
  0.419489E-01  0.262321E-01  0.122797E-01  0.395318E-02  0.785995E-03  0.124746E-03
  0.124746E-03  0.785995E-03  0.395318E-02  0.122797E-01  0.262321E-01  0.419489E-01
  0.536934E-01  0.583896E-01  0.568829E-01  0.517906E-01  0.512508E-01  0.448589E-01
  0.389192E-01  0.338641E-01  0.297746E-01  0.265620E-01  0.241062E-01  0.223085E-01
  0.210876E-01  0.203796E-01  0.201472E-01  0.203796E-01  0.210876E-01  0.223085E-01
  0.241062E-01  0.265620E-01  0.297746E-01  0.338641E-01  0.389192E-01  0.448589E-01
  0.512508E-01  0.570977E-01  0.605687E-01  0.590528E-01  0.504743E-01  0.357903E-01
  0.198324E-01  0.803241E-02  0.219420E-02  0.397774E-03  0.124746E-03  0.397774E-03
  0.219420E-02  0.803241E-02  0.198324E-01  0.357903E-01  0.504743E-01  0.590528E-01
  0.605687E-01  0.570977E-01  0.512508E-01  0.503011E-01  0.442298E-01  0.388609E-01
  0.344129E-01  0.308608E-01  0.280954E-01  0.260143E-01  0.245344E-01  0.235865E-01
  0.231230E-01  0.231230E-01  0.235865E-01  0.245344E-01  0.260143E-01  0.280954E-01
  0.308608E-01  0.344129E-01  0.388609E-01  0.442298E-01  0.503011E-01  0.564317E-01
  0.613304E-01  0.628642E-01  0.585206E-01  0.472457E-01  0.315275E-01  0.166537E-01
  0.677191E-02  0.219420E-02  0.785995E-03  0.785995E-03  0.219420E-02  0.677191E-02
  0.166537E-01  0.315275E-01  0.472457E-01  0.585206E-01  0.628642E-01  0.613304E-01
  0.564317E-01  0.503011E-01  0.491053E-01  0.436442E-01  0.389978E-01  0.352229E-01
  0.322382E-01  0.299422E-01  0.282516E-01  0.270961E-01  0.264215E-01  0.261991E-01
  0.264215E-01  0.270961E-01  0.282516E-01  0.299422E-01  0.322382E-01  0.352229E-01
  0.389978E-01  0.436442E-01  0.491053E-01  0.550273E-01  0.605922E-01  0.643180E-01
  0.640315E-01  0.576945E-01  0.452903E-01  0.300317E-01  0.166537E-01  0.803241E-02
  0.395318E-02  0.285305E-02  0.395318E-02  0.803241E-02  0.166537E-01  0.300317E-01
  0.452903E-01  0.576945E-01  0.640315E-01  0.643180E-01  0.605922E-01  0.550273E-01
  0.491053E-01  0.478695E-01  0.432298E-01  0.393940E-01  0.363200E-01  0.339140E-01
  0.320930E-01  0.307885E-01  0.299446E-01  0.295281E-01  0.295281E-01  0.299446E-01
  0.307885E-01  0.320930E-01  0.339140E-01  0.363200E-01  0.393940E-01  0.432298E-01
  0.478695E-01  0.531738E-01  0.586834E-01  0.634809E-01  0.660576E-01  0.644719E-01
  0.573242E-01  0.452903E-01  0.315275E-01  0.198324E-01  0.122797E-01  0.884245E-02
  0.884245E-02  0.122797E-01  0.198324E-01  0.315275E-01  0.452903E-01  0.573242E-01
  0.644719E-01  0.660576E-01  0.634809E-01  0.586834E-01  0.531738E-01  0.478695E-01
  0.467849E-01  0.430802E-01  0.400785E-01  0.376980E-01  0.358563E-01  0.344873E-01
  0.335376E-01  0.329736E-01  0.327855E-01  0.329736E-01  0.335376E-01  0.344873E-01
  0.358563E-01  0.376980E-01  0.400785E-01  0.430802E-01  0.467849E-01  0.511925E-01
  0.560998E-01  0.609927E-01  0.649545E-01  0.666237E-01  0.644719E-01  0.576945E-01
  0.472457E-01  0.357903E-01  0.262321E-01  0.202623E-01  0.182821E-01  0.202623E-01
  0.262321E-01  0.357903E-01  0.472457E-01  0.576945E-01  0.644719E-01  0.666237E-01
  0.649545E-01  0.609927E-01  0.560998E-01  0.511925E-01  0.467849E-01  0.459832E-01
  0.432298E-01  0.410296E-01  0.392993E-01  0.379727E-01  0.370004E-01  0.363524E-01
  0.360244E-01  0.360244E-01  0.363524E-01  0.370004E-01  0.379727E-01  0.392993E-01
  0.410296E-01  0.432298E-01  0.459832E-01  0.493576E-01  0.533193E-01  0.576306E-01
  0.617819E-01  0.649545E-01  0.660576E-01  0.640315E-01  0.585206E-01  0.504743E-01
  0.419489E-01  0.351179E-01  0.314123E-01  0.314123E-01  0.351179E-01  0.419489E-01
  0.504743E-01  0.585206E-01  0.640315E-01  0.660576E-01  0.649545E-01  0.617819E-01
  0.576306E-01  0.533193E-01  0.493576E-01  0.459832E-01  0.455075E-01  0.436442E-01
  0.421678E-01  0.410067E-01  0.401117E-01  0.394581E-01  0.390504E-01  0.389104E-01
  0.390504E-01  0.394581E-01  0.401117E-01  0.410067E-01  0.421678E-01  0.436442E-01
  0.455075E-01  0.478436E-01  0.507095E-01  0.540516E-01  0.576306E-01  0.609927E-01
  0.634809E-01  0.643180E-01  0.628642E-01  0.590528E-01  0.536934E-01  0.482686E-01
  0.443155E-01  0.428799E-01  0.443155E-01  0.482686E-01  0.536934E-01  0.590528E-01
  0.628642E-01  0.643180E-01  0.634809E-01  0.609927E-01  0.576306E-01  0.540516E-01
  0.507095E-01  0.478436E-01  0.455075E-01  0.453153E-01  0.442298E-01  0.433637E-01
  0.426591E-01  0.420918E-01  0.416756E-01  0.414504E-01  0.414504E-01  0.416756E-01
  0.420918E-01  0.426591E-01  0.433637E-01  0.442298E-01  0.453153E-01  0.467034E-01
  0.484847E-01  0.507095E-01  0.533193E-01  0.560998E-01  0.586834E-01  0.605922E-01
  0.613304E-01  0.605687E-01  0.583896E-01  0.554089E-01  0.526024E-01  0.509178E-01
  0.509178E-01  0.526024E-01  0.554089E-01  0.583896E-01  0.605687E-01  0.613304E-01
  0.605922E-01  0.586834E-01  0.560998E-01  0.533193E-01  0.507095E-01  0.484847E-01
  0.467034E-01  0.453153E-01  0.453087E-01  0.448589E-01  0.444640E-01  0.440882E-01
  0.437480E-01  0.435011E-01  0.434099E-01  0.435011E-01  0.437480E-01  0.440882E-01
  0.444640E-01  0.448589E-01  0.453087E-01  0.458903E-01  0.467034E-01  0.478436E-01
  0.493576E-01  0.511925E-01  0.531738E-01  0.550273E-01  0.564317E-01  0.570977E-01
  0.568829E-01  0.559102E-01  0.545897E-01  0.534794E-01  0.530488E-01  0.534794E-01
  0.545897E-01  0.559102E-01  0.568829E-01  0.570977E-01  0.564317E-01  0.550273E-01
  0.531738E-01  0.511925E-01  0.493576E-01  0.478436E-01  0.467034E-01  0.458903E-01
  0.453087E-01  0.453714E-01  0.453993E-01  0.453305E-01  0.451683E-01  0.449788E-01
  0.448526E-01  0.448526E-01  0.449788E-01  0.451683E-01  0.453305E-01  0.453993E-01
  0.453714E-01  0.453087E-01  0.453153E-01  0.455075E-01  0.459832E-01  0.467849E-01
  0.478695E-01  0.491053E-01  0.503011E-01  0.512508E-01  0.517906E-01  0.518644E-01
  0.515706E-01  0.511406E-01  0.508390E-01  0.508390E-01  0.511406E-01  0.515706E-01
  0.518644E-01  0.517906E-01  0.512508E-01  0.503011E-01  0.491053E-01  0.478695E-01
  0.467849E-01  0.459832E-01  0.455075E-01  0.453153E-01  0.453087E-01  0.453714E-01
  0.517947E-01  0.517906E-01  0.514845E-01  0.510155E-01  0.506011E-01  0.504371E-01
  0.506011E-01  0.510155E-01  0.514845E-01  0.517906E-01  0.517947E-01  0.514858E-01
  0.509650E-01  0.503972E-01  0.499613E-01  0.497979E-01  0.499613E-01  0.503972E-01
  0.509650E-01  0.514858E-01  0.517947E-01  0.517906E-01  0.514845E-01  0.510155E-01
  0.506011E-01  0.504371E-01  0.506011E-01  0.510155E-01  0.514845E-01  0.517906E-01
  0.517947E-01  0.514858E-01  0.509650E-01  0.503972E-01  0.499613E-01  0.497979E-01
  0.499613E-01  0.503972E-01  0.509650E-01  0.514858E-01  0.517947E-01  0.517906E-01
  0.518644E-01  0.515706E-01  0.511406E-01  0.508390E-01  0.508390E-01  0.511406E-01
  0.515706E-01  0.518644E-01  0.517906E-01  0.512508E-01  0.503011E-01  0.491053E-01
  0.478695E-01  0.467849E-01  0.459832E-01  0.455075E-01  0.453153E-01  0.453087E-01
  0.453714E-01  0.453993E-01  0.453305E-01  0.451683E-01  0.449788E-01  0.448526E-01
  0.448526E-01  0.449788E-01  0.451683E-01  0.453305E-01  0.453993E-01  0.453714E-01
  0.453087E-01  0.453153E-01  0.455075E-01  0.459832E-01  0.467849E-01  0.478695E-01
  0.491053E-01  0.503011E-01  0.512508E-01  0.517906E-01  0.514845E-01  0.515706E-01
  0.513000E-01  0.509634E-01  0.508174E-01  0.509634E-01  0.513000E-01  0.515706E-01
  0.514845E-01  0.508513E-01  0.496528E-01  0.480248E-01  0.461868E-01  0.443682E-01
  0.427539E-01  0.414506E-01  0.404823E-01  0.398125E-01  0.393736E-01  0.390877E-01
  0.388818E-01  0.387075E-01  0.385541E-01  0.384425E-01  0.384012E-01  0.384425E-01
  0.385541E-01  0.387075E-01  0.388818E-01  0.390877E-01  0.393736E-01  0.398125E-01
  0.404823E-01  0.414506E-01  0.427539E-01  0.443682E-01  0.461868E-01  0.480248E-01
  0.496528E-01  0.508513E-01  0.514845E-01  0.510155E-01  0.511406E-01  0.509634E-01
  0.507777E-01  0.507777E-01  0.509634E-01  0.511406E-01  0.510155E-01  0.503363E-01
  0.490050E-01  0.471020E-01  0.448340E-01  0.424537E-01  0.401892E-01  0.381979E-01
  0.365502E-01  0.352485E-01  0.342586E-01  0.335312E-01  0.330090E-01  0.326350E-01
  0.323673E-01  0.321876E-01  0.320957E-01  0.320957E-01  0.321876E-01  0.323673E-01
  0.326350E-01  0.330090E-01  0.335312E-01  0.342586E-01  0.352485E-01  0.365502E-01
  0.381979E-01  0.401892E-01  0.424537E-01  0.448340E-01  0.471020E-01  0.490050E-01
  0.503363E-01  0.510155E-01  0.506011E-01  0.508390E-01  0.508174E-01  0.507777E-01
  0.508174E-01  0.508390E-01  0.506011E-01  0.498431E-01  0.484132E-01  0.463310E-01
  0.437665E-01  0.409702E-01  0.381981E-01  0.356507E-01  0.334415E-01  0.316026E-01
  0.301182E-01  0.289549E-01  0.280717E-01  0.274205E-01  0.269537E-01  0.266364E-01
  0.264504E-01  0.263889E-01  0.264504E-01  0.266364E-01  0.269537E-01  0.274205E-01
  0.280717E-01  0.289549E-01  0.301182E-01  0.316026E-01  0.334415E-01  0.356507E-01
  0.381981E-01  0.409702E-01  0.437665E-01  0.463310E-01  0.484132E-01  0.498431E-01
  0.506011E-01  0.504371E-01  0.508390E-01  0.509634E-01  0.509634E-01  0.508390E-01
  0.504371E-01  0.495394E-01  0.479848E-01  0.457528E-01  0.429721E-01  0.398713E-01
  0.367110E-01  0.337198E-01  0.310496E-01  0.287646E-01  0.268656E-01  0.253260E-01
  0.241118E-01  0.231829E-01  0.224947E-01  0.220076E-01  0.216945E-01  0.215410E-01
  0.215410E-01  0.216945E-01  0.220076E-01  0.224947E-01  0.231829E-01  0.241118E-01
  0.253260E-01  0.268656E-01  0.287646E-01  0.310496E-01  0.337198E-01  0.367110E-01
  0.398713E-01  0.429721E-01  0.457528E-01  0.479848E-01  0.495394E-01  0.504371E-01
  0.506011E-01  0.511406E-01  0.513000E-01  0.511406E-01  0.506011E-01  0.495394E-01
  0.478271E-01  0.454365E-01  0.424704E-01  0.391331E-01  0.356751E-01  0.323339E-01
  0.292871E-01  0.266284E-01  0.243794E-01  0.225217E-01  0.210236E-01  0.198482E-01
  0.189531E-01  0.182967E-01  0.178470E-01  0.175840E-01  0.174974E-01  0.175840E-01
  0.178470E-01  0.182967E-01  0.189531E-01  0.198482E-01  0.210236E-01  0.225217E-01
  0.243794E-01  0.266284E-01  0.292871E-01  0.323339E-01  0.356751E-01  0.391331E-01
  0.424704E-01  0.454365E-01  0.478271E-01  0.495394E-01  0.506011E-01  0.510155E-01
  0.515706E-01  0.515706E-01  0.510155E-01  0.498431E-01  0.479848E-01  0.454365E-01
  0.422971E-01  0.387577E-01  0.350585E-01  0.314366E-01  0.280818E-01  0.251089E-01
  0.225592E-01  0.204255E-01  0.186802E-01  0.172879E-01  0.162071E-01  0.153943E-01
  0.148127E-01  0.144373E-01  0.142532E-01  0.142532E-01  0.144373E-01  0.148127E-01
  0.153943E-01  0.162071E-01  0.172879E-01  0.186802E-01  0.204255E-01  0.225592E-01
  0.251089E-01  0.280818E-01  0.314366E-01  0.350585E-01  0.387577E-01  0.422971E-01
  0.454365E-01  0.479848E-01  0.498431E-01  0.510155E-01  0.514845E-01  0.518644E-01
  0.514845E-01  0.503363E-01  0.484132E-01  0.457528E-01  0.424704E-01  0.387577E-01
  0.348526E-01  0.309936E-01  0.273783E-01  0.241357E-01  0.213229E-01  0.189441E-01
  0.169768E-01  0.153877E-01  0.141361E-01  0.131774E-01  0.124707E-01  0.119857E-01
  0.117025E-01  0.116095E-01  0.117025E-01  0.119857E-01  0.124707E-01  0.131774E-01
  0.141361E-01  0.153877E-01  0.169768E-01  0.189441E-01  0.213229E-01  0.241357E-01
  0.273783E-01  0.309936E-01  0.348526E-01  0.387577E-01  0.424704E-01  0.457528E-01
  0.484132E-01  0.503363E-01  0.514845E-01  0.517906E-01  0.517906E-01  0.508513E-01
  0.490050E-01  0.463310E-01  0.429721E-01  0.391331E-01  0.350585E-01  0.309936E-01
  0.271465E-01  0.236600E-01  0.206061E-01  0.180005E-01  0.158266E-01  0.140532E-01
  0.126403E-01  0.115421E-01  0.107145E-01  0.101223E-01  0.974131E-02  0.955532E-02
  0.955532E-02  0.974131E-02  0.101223E-01  0.107145E-01  0.115421E-01  0.126403E-01
  0.140532E-01  0.158266E-01  0.180005E-01  0.206061E-01  0.236600E-01  0.271465E-01
  0.309936E-01  0.350585E-01  0.391331E-01  0.429721E-01  0.463310E-01  0.490050E-01
  0.508513E-01  0.517906E-01  0.517947E-01  0.512508E-01  0.496528E-01  0.471020E-01
  0.437665E-01  0.398713E-01  0.356751E-01  0.314366E-01  0.273783E-01  0.236600E-01
  0.203709E-01  0.175410E-01  0.151622E-01  0.132064E-01  0.116342E-01  0.103987E-01
  0.945202E-02  0.875431E-02  0.827676E-02  0.799931E-02  0.790852E-02  0.799931E-02
  0.827676E-02  0.875431E-02  0.945202E-02  0.103987E-01  0.116342E-01  0.132064E-01
  0.151622E-01  0.175410E-01  0.203709E-01  0.236600E-01  0.273783E-01  0.314366E-01
  0.356751E-01  0.398713E-01  0.437665E-01  0.471020E-01  0.496528E-01  0.512508E-01
  0.517947E-01  0.514858E-01  0.503011E-01  0.480248E-01  0.448340E-01  0.409702E-01
  0.367110E-01  0.323339E-01  0.280818E-01  0.241357E-01  0.206061E-01  0.175410E-01
  0.149445E-01  0.127945E-01  0.110535E-01  0.967365E-02  0.860419E-02  0.779965E-02
  0.722561E-02  0.685770E-02  0.667868E-02  0.667868E-02  0.685770E-02  0.722561E-02
  0.779965E-02  0.860419E-02  0.967365E-02  0.110535E-01  0.127945E-01  0.149445E-01
  0.175410E-01  0.206061E-01  0.241357E-01  0.280818E-01  0.323339E-01  0.367110E-01
  0.409702E-01  0.448340E-01  0.480248E-01  0.503011E-01  0.514858E-01  0.514858E-01
  0.509650E-01  0.491053E-01  0.461868E-01  0.424537E-01  0.381981E-01  0.337198E-01
  0.292871E-01  0.251089E-01  0.213229E-01  0.180005E-01  0.151622E-01  0.127945E-01
  0.108631E-01  0.932061E-02  0.811422E-02  0.719398E-02  0.651908E-02  0.605933E-02
  0.579302E-02  0.570597E-02  0.579302E-02  0.605933E-02  0.651908E-02  0.719398E-02
  0.811422E-02  0.932061E-02  0.108631E-01  0.127945E-01  0.151622E-01  0.180005E-01
  0.213229E-01  0.251089E-01  0.292871E-01  0.337198E-01  0.381981E-01  0.424537E-01
  0.461868E-01  0.491053E-01  0.509650E-01  0.516038E-01  0.509650E-01  0.503972E-01
  0.478695E-01  0.443682E-01  0.401892E-01  0.356507E-01  0.310496E-01  0.266284E-01
  0.225592E-01  0.189441E-01  0.158266E-01  0.132064E-01  0.110535E-01  0.932061E-02
  0.795343E-02  0.689880E-02  0.611065E-02  0.555230E-02  0.519619E-02  0.502318E-02
  0.502318E-02  0.519619E-02  0.555230E-02  0.611065E-02  0.689880E-02  0.795343E-02
  0.932061E-02  0.110535E-01  0.132064E-01  0.158266E-01  0.189441E-01  0.225592E-01
  0.266284E-01  0.310496E-01  0.356507E-01  0.401892E-01  0.443682E-01  0.478695E-01
  0.503972E-01  0.517233E-01  0.517233E-01  0.503972E-01  0.499613E-01  0.467849E-01
  0.427539E-01  0.381979E-01  0.334415E-01  0.287646E-01  0.243794E-01  0.204255E-01
  0.169768E-01  0.140532E-01  0.116342E-01  0.967365E-02  0.811422E-02  0.689880E-02
  0.597671E-02  0.530563E-02  0.485169E-02  0.458974E-02  0.450419E-02  0.458974E-02
  0.485169E-02  0.530563E-02  0.597671E-02  0.689880E-02  0.811422E-02  0.967365E-02
  0.116342E-01  0.140532E-01  0.169768E-01  0.204255E-01  0.243794E-01  0.287646E-01
  0.334415E-01  0.381979E-01  0.427539E-01  0.467849E-01  0.499613E-01  0.519974E-01
  0.526991E-01  0.519974E-01  0.499613E-01  0.497979E-01  0.459832E-01  0.414506E-01
  0.365502E-01  0.316026E-01  0.268656E-01  0.225217E-01  0.186802E-01  0.153877E-01
  0.126403E-01  0.103987E-01  0.860419E-02  0.719398E-02  0.611065E-02  0.530563E-02
  0.473907E-02  0.437965E-02  0.420554E-02  0.420554E-02  0.437965E-02  0.473907E-02
  0.530563E-02  0.611065E-02  0.719398E-02  0.860419E-02  0.103987E-01  0.126403E-01
  0.153877E-01  0.186802E-01  0.225217E-01  0.268656E-01  0.316026E-01  0.365502E-01
  0.414506E-01  0.459832E-01  0.497979E-01  0.525627E-01  0.540169E-01  0.540169E-01
  0.525627E-01  0.497979E-01  0.499613E-01  0.455075E-01  0.404823E-01  0.352485E-01
  0.301182E-01  0.253260E-01  0.210236E-01  0.172879E-01  0.141361E-01  0.115421E-01
  0.945202E-02  0.779965E-02  0.651908E-02  0.555230E-02  0.485169E-02  0.437965E-02
  0.410821E-02  0.401976E-02  0.410821E-02  0.437965E-02  0.485169E-02  0.555230E-02
  0.651908E-02  0.779965E-02  0.945202E-02  0.115421E-01  0.141361E-01  0.172879E-01
  0.210236E-01  0.253260E-01  0.301182E-01  0.352485E-01  0.404823E-01  0.455075E-01
  0.499613E-01  0.534751E-01  0.557295E-01  0.565067E-01  0.557295E-01  0.534751E-01
  0.499613E-01  0.503972E-01  0.453153E-01  0.398125E-01  0.342586E-01  0.289549E-01
  0.241118E-01  0.198482E-01  0.162071E-01  0.131774E-01  0.107145E-01  0.875431E-02
  0.722561E-02  0.605933E-02  0.519619E-02  0.458974E-02  0.420554E-02  0.401976E-02
  0.401976E-02  0.420554E-02  0.458974E-02  0.519619E-02  0.605933E-02  0.722561E-02
  0.875431E-02  0.107145E-01  0.131774E-01  0.162071E-01  0.198482E-01  0.241118E-01
  0.289549E-01  0.342586E-01  0.398125E-01  0.453153E-01  0.503972E-01  0.546633E-01
  0.577470E-01  0.593659E-01  0.593659E-01  0.577470E-01  0.546633E-01  0.503972E-01
  0.509650E-01  0.453087E-01  0.393736E-01  0.335312E-01  0.280717E-01  0.231829E-01
  0.189531E-01  0.153943E-01  0.124707E-01  0.101223E-01  0.827676E-02  0.685770E-02
  0.579302E-02  0.502318E-02  0.450419E-02  0.420554E-02  0.410821E-02  0.420554E-02
  0.450419E-02  0.502318E-02  0.579302E-02  0.685770E-02  0.827676E-02  0.101223E-01
  0.124707E-01  0.153943E-01  0.189531E-01  0.231829E-01  0.280717E-01  0.335312E-01
  0.393736E-01  0.453087E-01  0.509650E-01  0.559322E-01  0.598153E-01  0.622884E-01
  0.631375E-01  0.622884E-01  0.598153E-01  0.559322E-01  0.509650E-01  0.514858E-01
  0.453714E-01  0.390877E-01  0.330090E-01  0.274205E-01  0.224947E-01  0.182967E-01
  0.148127E-01  0.119857E-01  0.974131E-02  0.799931E-02  0.667868E-02  0.570597E-02
  0.502318E-02  0.458974E-02  0.437965E-02  0.437965E-02  0.458974E-02  0.502318E-02
  0.570597E-02  0.667868E-02  0.799931E-02  0.974131E-02  0.119857E-01  0.148127E-01
  0.182967E-01  0.224947E-01  0.274205E-01  0.330090E-01  0.390877E-01  0.453714E-01
  0.514858E-01  0.570135E-01  0.615519E-01  0.647684E-01  0.664337E-01  0.664337E-01
  0.647684E-01  0.615519E-01  0.570135E-01  0.514858E-01  0.517947E-01  0.453993E-01
  0.388818E-01  0.326350E-01  0.269537E-01  0.220076E-01  0.178470E-01  0.144373E-01
  0.117025E-01  0.955532E-02  0.790852E-02  0.667868E-02  0.579302E-02  0.519619E-02
  0.485169E-02  0.473907E-02  0.485169E-02  0.519619E-02  0.579302E-02  0.667868E-02
  0.790852E-02  0.955532E-02  0.117025E-01  0.144373E-01  0.178470E-01  0.220076E-01
  0.269537E-01  0.326350E-01  0.388818E-01  0.453993E-01  0.517947E-01  0.576338E-01
  0.625173E-01  0.661508E-01  0.683705E-01  0.691144E-01  0.683705E-01  0.661508E-01
  0.625173E-01  0.576338E-01  0.517947E-01  0.517906E-01  0.453305E-01  0.387075E-01
  0.323673E-01  0.266364E-01  0.216945E-01  0.175840E-01  0.142532E-01  0.116095E-01
  0.955532E-02  0.799931E-02  0.685770E-02  0.605933E-02  0.555230E-02  0.530563E-02
  0.530563E-02  0.555230E-02  0.605933E-02  0.685770E-02  0.799931E-02  0.955532E-02
  0.116095E-01  0.142532E-01  0.175840E-01  0.216945E-01  0.266364E-01  0.323673E-01
  0.387075E-01  0.453305E-01  0.517906E-01  0.575969E-01  0.623312E-01  0.657687E-01
  0.679156E-01  0.689216E-01  0.689216E-01  0.679156E-01  0.657687E-01  0.623312E-01
  0.575969E-01  0.517906E-01  0.514845E-01  0.451683E-01  0.385541E-01  0.321876E-01
  0.264504E-01  0.215410E-01  0.174974E-01  0.142532E-01  0.117025E-01  0.974131E-02
  0.827676E-02  0.722561E-02  0.651908E-02  0.611065E-02  0.597671E-02  0.611065E-02
  0.651908E-02  0.722561E-02  0.827676E-02  0.974131E-02  0.117025E-01  0.142532E-01
  0.174974E-01  0.215410E-01  0.264504E-01  0.321876E-01  0.385541E-01  0.451683E-01
  0.514845E-01  0.568829E-01  0.608584E-01  0.632468E-01  0.643148E-01  0.646071E-01
  0.646360E-01  0.646071E-01  0.643148E-01  0.632468E-01  0.608584E-01  0.568829E-01
  0.514845E-01  0.510155E-01  0.449788E-01  0.384425E-01  0.320957E-01  0.263889E-01
  0.215410E-01  0.175840E-01  0.144373E-01  0.119857E-01  0.101223E-01  0.875431E-02
  0.779965E-02  0.719398E-02  0.689880E-02  0.689880E-02  0.719398E-02  0.779965E-02
  0.875431E-02  0.101223E-01  0.119857E-01  0.144373E-01  0.175840E-01  0.215410E-01
  0.263889E-01  0.320957E-01  0.384425E-01  0.449788E-01  0.510155E-01  0.557180E-01
  0.583896E-01  0.588714E-01  0.577399E-01  0.560688E-01  0.549204E-01  0.549204E-01
  0.560688E-01  0.577399E-01  0.588714E-01  0.583896E-01  0.557180E-01  0.510155E-01
  0.506011E-01  0.448526E-01  0.384012E-01  0.320957E-01  0.264504E-01  0.216945E-01
  0.178470E-01  0.148127E-01  0.124707E-01  0.107145E-01  0.945202E-02  0.860419E-02
  0.811422E-02  0.795343E-02  0.811422E-02  0.860419E-02  0.945202E-02  0.107145E-01
  0.124707E-01  0.148127E-01  0.178470E-01  0.216945E-01  0.264504E-01  0.320957E-01
  0.384012E-01  0.448526E-01  0.506011E-01  0.545318E-01  0.556429E-01  0.536934E-01
  0.495863E-01  0.450034E-01  0.415779E-01  0.403287E-01  0.415779E-01  0.450034E-01
  0.495863E-01  0.536934E-01  0.556429E-01  0.545318E-01  0.506011E-01  0.504371E-01
  0.448526E-01  0.384425E-01  0.321876E-01  0.266364E-01  0.220076E-01  0.182967E-01
  0.153943E-01  0.131774E-01  0.115421E-01  0.103987E-01  0.967365E-02  0.932061E-02
  0.932061E-02  0.967365E-02  0.103987E-01  0.115421E-01  0.131774E-01  0.153943E-01
  0.182967E-01  0.220076E-01  0.266364E-01  0.321876E-01  0.384425E-01  0.448526E-01
  0.504371E-01  0.537899E-01  0.535133E-01  0.491626E-01  0.419489E-01  0.342465E-01
  0.282389E-01  0.250749E-01  0.250749E-01  0.282389E-01  0.342465E-01  0.419489E-01
  0.491626E-01  0.535133E-01  0.537899E-01  0.504371E-01  0.506011E-01  0.449788E-01
  0.385541E-01  0.323673E-01  0.269537E-01  0.224947E-01  0.189531E-01  0.162071E-01
  0.141361E-01  0.126403E-01  0.116342E-01  0.110535E-01  0.108631E-01  0.110535E-01
  0.116342E-01  0.126403E-01  0.141361E-01  0.162071E-01  0.189531E-01  0.224947E-01
  0.269537E-01  0.323673E-01  0.385541E-01  0.449788E-01  0.506011E-01  0.537899E-01
  0.527142E-01  0.465490E-01  0.366729E-01  0.262321E-01  0.180896E-01  0.133665E-01
  0.118765E-01  0.133665E-01  0.180896E-01  0.262321E-01  0.366729E-01  0.465490E-01
  0.527142E-01  0.537899E-01  0.506011E-01  0.510155E-01  0.451683E-01  0.387075E-01
  0.326350E-01  0.274205E-01  0.231829E-01  0.198482E-01  0.172879E-01  0.153877E-01
  0.140532E-01  0.132064E-01  0.127945E-01  0.127945E-01  0.132064E-01  0.140532E-01
  0.153877E-01  0.172879E-01  0.198482E-01  0.231829E-01  0.274205E-01  0.326350E-01
  0.387075E-01  0.451683E-01  0.510155E-01  0.545318E-01  0.535133E-01  0.465490E-01
  0.348114E-01  0.221104E-01  0.122797E-01  0.666228E-02  0.439926E-02  0.439926E-02
  0.666228E-02  0.122797E-01  0.221104E-01  0.348114E-01  0.465490E-01  0.535133E-01
  0.545318E-01  0.510155E-01  0.514845E-01  0.453305E-01  0.388818E-01  0.330090E-01
  0.280717E-01  0.241118E-01  0.210236E-01  0.186802E-01  0.169768E-01  0.158266E-01
  0.151622E-01  0.149445E-01  0.151622E-01  0.158266E-01  0.169768E-01  0.186802E-01
  0.210236E-01  0.241118E-01  0.280717E-01  0.330090E-01  0.388818E-01  0.453305E-01
  0.514845E-01  0.557180E-01  0.556429E-01  0.491626E-01  0.366729E-01  0.221104E-01
  0.104605E-01  0.395318E-02  0.144769E-02  0.900259E-03  0.144769E-02  0.395318E-02
  0.104605E-01  0.221104E-01  0.366729E-01  0.491626E-01  0.556429E-01  0.557180E-01
  0.514845E-01  0.517906E-01  0.453993E-01  0.390877E-01  0.335312E-01  0.289549E-01
  0.253260E-01  0.225217E-01  0.204255E-01  0.189441E-01  0.180005E-01  0.175410E-01
  0.175410E-01  0.180005E-01  0.189441E-01  0.204255E-01  0.225217E-01  0.253260E-01
  0.289549E-01  0.335312E-01  0.390877E-01  0.453993E-01  0.517906E-01  0.568829E-01
  0.583896E-01  0.536934E-01  0.419489E-01  0.262321E-01  0.122797E-01  0.395318E-02
  0.785995E-03  0.124746E-03  0.124746E-03  0.785995E-03  0.395318E-02  0.122797E-01
  0.262321E-01  0.419489E-01  0.536934E-01  0.583896E-01  0.568829E-01  0.517906E-01
  0.517947E-01  0.453714E-01  0.393736E-01  0.342586E-01  0.301182E-01  0.268656E-01
  0.243794E-01  0.225592E-01  0.213229E-01  0.206061E-01  0.203709E-01  0.206061E-01
  0.213229E-01  0.225592E-01  0.243794E-01  0.268656E-01  0.301182E-01  0.342586E-01
  0.393736E-01  0.453714E-01  0.517947E-01  0.575969E-01  0.608584E-01  0.588714E-01
  0.495863E-01  0.342465E-01  0.180896E-01  0.666228E-02  0.144769E-02  0.124746E-03
  0.127591E-04  0.124746E-03  0.144769E-02  0.666228E-02  0.180896E-01  0.342465E-01
  0.495863E-01  0.588714E-01  0.608584E-01  0.575969E-01  0.517947E-01  0.514858E-01
  0.453087E-01  0.398125E-01  0.352485E-01  0.316026E-01  0.287646E-01  0.266284E-01
  0.251089E-01  0.241357E-01  0.236600E-01  0.236600E-01  0.241357E-01  0.251089E-01
  0.266284E-01  0.287646E-01  0.316026E-01  0.352485E-01  0.398125E-01  0.453087E-01
  0.514858E-01  0.576338E-01  0.623312E-01  0.632468E-01  0.577399E-01  0.450034E-01
  0.282389E-01  0.133665E-01  0.439926E-02  0.900259E-03  0.124746E-03  0.124746E-03
  0.900259E-03  0.439926E-02  0.133665E-01  0.282389E-01  0.450034E-01  0.577399E-01
  0.632468E-01  0.623312E-01  0.576338E-01  0.514858E-01  0.509650E-01  0.453153E-01
  0.404823E-01  0.365502E-01  0.334415E-01  0.310496E-01  0.292871E-01  0.280818E-01
  0.273783E-01  0.271465E-01  0.273783E-01  0.280818E-01  0.292871E-01  0.310496E-01
  0.334415E-01  0.365502E-01  0.404823E-01  0.453153E-01  0.509650E-01  0.570135E-01
  0.625173E-01  0.657687E-01  0.643148E-01  0.560688E-01  0.415779E-01  0.250749E-01
  0.118765E-01  0.439926E-02  0.144769E-02  0.785995E-03  0.144769E-02  0.439926E-02
  0.118765E-01  0.250749E-01  0.415779E-01  0.560688E-01  0.643148E-01  0.657687E-01
  0.625173E-01  0.570135E-01  0.509650E-01  0.503972E-01  0.455075E-01  0.414506E-01
  0.381979E-01  0.356507E-01  0.337198E-01  0.323339E-01  0.314366E-01  0.309936E-01
  0.309936E-01  0.314366E-01  0.323339E-01  0.337198E-01  0.356507E-01  0.381979E-01
  0.414506E-01  0.455075E-01  0.503972E-01  0.559322E-01  0.615519E-01  0.661508E-01
  0.679156E-01  0.646071E-01  0.549204E-01  0.403287E-01  0.250749E-01  0.133665E-01
  0.666228E-02  0.395318E-02  0.395318E-02  0.666228E-02  0.133665E-01  0.250749E-01
  0.403287E-01  0.549204E-01  0.646071E-01  0.679156E-01  0.661508E-01  0.615519E-01
  0.559322E-01  0.503972E-01  0.499613E-01  0.459832E-01  0.427539E-01  0.401892E-01
  0.381981E-01  0.367110E-01  0.356751E-01  0.350585E-01  0.348526E-01  0.350585E-01
  0.356751E-01  0.367110E-01  0.381981E-01  0.401892E-01  0.427539E-01  0.459832E-01
  0.499613E-01  0.546633E-01  0.598153E-01  0.647684E-01  0.683705E-01  0.689216E-01
  0.646360E-01  0.549204E-01  0.415779E-01  0.282389E-01  0.180896E-01  0.122797E-01
  0.104605E-01  0.122797E-01  0.180896E-01  0.282389E-01  0.415779E-01  0.549204E-01
  0.646360E-01  0.689216E-01  0.683705E-01  0.647684E-01  0.598153E-01  0.546633E-01
  0.499613E-01  0.497979E-01  0.467849E-01  0.443682E-01  0.424537E-01  0.409702E-01
  0.398713E-01  0.391331E-01  0.387577E-01  0.387577E-01  0.391331E-01  0.398713E-01
  0.409702E-01  0.424537E-01  0.443682E-01  0.467849E-01  0.497979E-01  0.534751E-01
  0.577470E-01  0.622884E-01  0.664337E-01  0.691144E-01  0.689216E-01  0.646071E-01
  0.560688E-01  0.450034E-01  0.342465E-01  0.262321E-01  0.221104E-01  0.221104E-01
  0.262321E-01  0.342465E-01  0.450034E-01  0.560688E-01  0.646071E-01  0.689216E-01
  0.691144E-01  0.664337E-01  0.622884E-01  0.577470E-01  0.534751E-01  0.497979E-01
  0.499613E-01  0.478695E-01  0.461868E-01  0.448340E-01  0.437665E-01  0.429721E-01
  0.424704E-01  0.422971E-01  0.424704E-01  0.429721E-01  0.437665E-01  0.448340E-01
  0.461868E-01  0.478695E-01  0.499613E-01  0.525627E-01  0.557295E-01  0.593659E-01
  0.631375E-01  0.664337E-01  0.683705E-01  0.679156E-01  0.643148E-01  0.577399E-01
  0.495863E-01  0.419489E-01  0.366729E-01  0.348114E-01  0.366729E-01  0.419489E-01
  0.495863E-01  0.577399E-01  0.643148E-01  0.679156E-01  0.683705E-01  0.664337E-01
  0.631375E-01  0.593659E-01  0.557295E-01  0.525627E-01  0.499613E-01  0.503972E-01
  0.491053E-01  0.480248E-01  0.471020E-01  0.463310E-01  0.457528E-01  0.454365E-01
  0.454365E-01  0.457528E-01  0.463310E-01  0.471020E-01  0.480248E-01  0.491053E-01
  0.503972E-01  0.519974E-01  0.540169E-01  0.565067E-01  0.593659E-01  0.622884E-01
  0.647684E-01  0.661508E-01  0.657687E-01  0.632468E-01  0.588714E-01  0.536934E-01
  0.491626E-01  0.465490E-01  0.465490E-01  0.491626E-01  0.536934E-01  0.588714E-01
  0.632468E-01  0.657687E-01  0.661508E-01  0.647684E-01  0.622884E-01  0.593659E-01
  0.565067E-01  0.540169E-01  0.519974E-01  0.503972E-01  0.509650E-01  0.503011E-01
  0.496528E-01  0.490050E-01  0.484132E-01  0.479848E-01  0.478271E-01  0.479848E-01
  0.484132E-01  0.490050E-01  0.496528E-01  0.503011E-01  0.509650E-01  0.517233E-01
  0.526991E-01  0.540169E-01  0.557295E-01  0.577470E-01  0.598153E-01  0.615519E-01
  0.625173E-01  0.623312E-01  0.608584E-01  0.583896E-01  0.556429E-01  0.535133E-01
  0.527142E-01  0.535133E-01  0.556429E-01  0.583896E-01  0.608584E-01  0.623312E-01
  0.625173E-01  0.615519E-01  0.598153E-01  0.577470E-01  0.557295E-01  0.540169E-01
  0.526991E-01  0.517233E-01  0.509650E-01  0.514858E-01  0.512508E-01  0.508513E-01
  0.503363E-01  0.498431E-01  0.495394E-01  0.495394E-01  0.498431E-01  0.503363E-01
  0.508513E-01  0.512508E-01  0.514858E-01  0.516038E-01  0.517233E-01  0.519974E-01
  0.525627E-01  0.534751E-01  0.546633E-01  0.559322E-01  0.570135E-01  0.576338E-01
  0.575969E-01  0.568829E-01  0.557180E-01  0.545318E-01  0.537899E-01  0.537899E-01
  0.545318E-01  0.557180E-01  0.568829E-01  0.575969E-01  0.576338E-01  0.570135E-01
  0.559322E-01  0.546633E-01  0.534751E-01  0.525627E-01  0.519974E-01  0.517233E-01
  0.516038E-01  0.514858E-01  0.517947E-01  0.517906E-01  0.514845E-01  0.510155E-01
  0.506011E-01  0.504371E-01  0.506011E-01  0.510155E-01  0.514845E-01  0.517906E-01
  0.517947E-01  0.514858E-01  0.509650E-01  0.503972E-01  0.499613E-01  0.497979E-01
  0.499613E-01  0.503972E-01  0.509650E-01  0.514858E-01  0.517947E-01  0.517906E-01
  0.514845E-01  0.510155E-01  0.506011E-01  0.504371E-01  0.506011E-01  0.510155E-01
  0.514845E-01  0.517906E-01  0.517947E-01  0.514858E-01  0.509650E-01  0.503972E-01
  0.499613E-01  0.497979E-01  0.499613E-01  0.503972E-01  0.509650E-01  0.514858E-01
  0.517947E-01  0.575969E-01  0.568829E-01  0.557180E-01  0.545318E-01  0.537899E-01
  0.537899E-01  0.545318E-01  0.557180E-01  0.568829E-01  0.575969E-01  0.576338E-01
  0.570135E-01  0.559322E-01  0.546633E-01  0.534751E-01  0.525627E-01  0.519974E-01
  0.517233E-01  0.516038E-01  0.514858E-01  0.512508E-01  0.508513E-01  0.503363E-01
  0.498431E-01  0.495394E-01  0.495394E-01  0.498431E-01  0.503363E-01  0.508513E-01
  0.512508E-01  0.514858E-01  0.516038E-01  0.517233E-01  0.519974E-01  0.525627E-01
  0.534751E-01  0.546633E-01  0.559322E-01  0.570135E-01  0.576338E-01  0.575969E-01
  0.568829E-01  0.559102E-01  0.545897E-01  0.534794E-01  0.530488E-01  0.534794E-01
  0.545897E-01  0.559102E-01  0.568829E-01  0.570977E-01  0.564317E-01  0.550273E-01
  0.531738E-01  0.511925E-01  0.493576E-01  0.478436E-01  0.467034E-01  0.458903E-01
  0.453087E-01  0.448589E-01  0.444640E-01  0.440882E-01  0.437480E-01  0.435011E-01
  0.434099E-01  0.435011E-01  0.437480E-01  0.440882E-01  0.444640E-01  0.448589E-01
  0.453087E-01  0.458903E-01  0.467034E-01  0.478436E-01  0.493576E-01  0.511925E-01
  0.531738E-01  0.550273E-01  0.564317E-01  0.570977E-01  0.568829E-01  0.557180E-01
  0.545897E-01  0.533225E-01  0.525039E-01  0.525039E-01  0.533225E-01  0.545897E-01
  0.557180E-01  0.561538E-01  0.556012E-01  0.540894E-01  0.518822E-01  0.493337E-01
  0.467787E-01  0.444665E-01  0.425299E-01  0.409932E-01  0.398125E-01  0.389192E-01
  0.382436E-01  0.377266E-01  0.373312E-01  0.370511E-01  0.369025E-01  0.369025E-01
  0.370511E-01  0.373312E-01  0.377266E-01  0.382436E-01  0.389192E-01  0.398125E-01
  0.409932E-01  0.425299E-01  0.444665E-01  0.467787E-01  0.493337E-01  0.518822E-01
  0.540894E-01  0.556012E-01  0.561538E-01  0.557180E-01  0.545318E-01  0.534794E-01
  0.525039E-01  0.521132E-01  0.525039E-01  0.534794E-01  0.545318E-01  0.550604E-01
  0.546304E-01  0.531285E-01  0.507399E-01  0.478136E-01  0.447242E-01  0.417815E-01
  0.391826E-01  0.370068E-01  0.352485E-01  0.338641E-01  0.328004E-01  0.320026E-01
  0.314191E-01  0.310132E-01  0.307694E-01  0.306875E-01  0.307694E-01  0.310132E-01
  0.314191E-01  0.320026E-01  0.328004E-01  0.338641E-01  0.352485E-01  0.370068E-01
  0.391826E-01  0.417815E-01  0.447242E-01  0.478136E-01  0.507399E-01  0.531285E-01
  0.546304E-01  0.550604E-01  0.545318E-01  0.537899E-01  0.530488E-01  0.525039E-01
  0.525039E-01  0.530488E-01  0.537899E-01  0.541857E-01  0.537481E-01  0.522465E-01
  0.497615E-01  0.465927E-01  0.431199E-01  0.396920E-01  0.365607E-01  0.338553E-01
  0.316026E-01  0.297746E-01  0.283278E-01  0.272156E-01  0.263887E-01  0.258010E-01
  0.254203E-01  0.252319E-01  0.252319E-01  0.254203E-01  0.258010E-01  0.263887E-01
  0.272156E-01  0.283278E-01  0.297746E-01  0.316026E-01  0.338553E-01  0.365607E-01
  0.396920E-01  0.431199E-01  0.465927E-01  0.497615E-01  0.522465E-01  0.537481E-01
  0.541857E-01  0.537899E-01  0.537899E-01  0.534794E-01  0.533225E-01  0.534794E-01
  0.537899E-01  0.538518E-01  0.532184E-01  0.516094E-01  0.490175E-01  0.456717E-01
  0.419220E-01  0.381263E-01  0.345712E-01  0.314302E-01  0.287646E-01  0.265620E-01
  0.247824E-01  0.233819E-01  0.223142E-01  0.215320E-01  0.209958E-01  0.206810E-01
  0.205769E-01  0.206810E-01  0.209958E-01  0.215320E-01  0.223142E-01  0.233819E-01
  0.247824E-01  0.265620E-01  0.287646E-01  0.314302E-01  0.345712E-01  0.381263E-01
  0.419220E-01  0.456717E-01  0.490175E-01  0.516094E-01  0.532184E-01  0.538518E-01
  0.537899E-01  0.545318E-01  0.545897E-01  0.545897E-01  0.545318E-01  0.541857E-01
  0.532184E-01  0.513753E-01  0.486079E-01  0.450852E-01  0.411129E-01  0.370327E-01
  0.331418E-01  0.296428E-01  0.266284E-01  0.241062E-01  0.220422E-01  0.203918E-01
  0.191089E-01  0.181454E-01  0.174570E-01  0.170118E-01  0.167925E-01  0.167925E-01
  0.170118E-01  0.174570E-01  0.181454E-01  0.191089E-01  0.203918E-01  0.220422E-01
  0.241062E-01  0.266284E-01  0.296428E-01  0.331418E-01  0.370327E-01  0.411129E-01
  0.450852E-01  0.486079E-01  0.513753E-01  0.532184E-01  0.541857E-01  0.545318E-01
  0.557180E-01  0.559102E-01  0.557180E-01  0.550604E-01  0.537481E-01  0.516094E-01
  0.486079E-01  0.448819E-01  0.407002E-01  0.363807E-01  0.322157E-01  0.284202E-01
  0.251089E-01  0.223085E-01  0.199941E-01  0.181228E-01  0.166476E-01  0.155190E-01
  0.146890E-01  0.141192E-01  0.137853E-01  0.136752E-01  0.137853E-01  0.141192E-01
  0.146890E-01  0.155190E-01  0.166476E-01  0.181228E-01  0.199941E-01  0.223085E-01
  0.251089E-01  0.284202E-01  0.322157E-01  0.363807E-01  0.407002E-01  0.448819E-01
  0.486079E-01  0.516094E-01  0.537481E-01  0.550604E-01  0.557180E-01  0.568829E-01
  0.568829E-01  0.561538E-01  0.546304E-01  0.522465E-01  0.490175E-01  0.450852E-01
  0.407002E-01  0.361630E-01  0.317585E-01  0.277066E-01  0.241357E-01  0.210876E-01
  0.185470E-01  0.164739E-01  0.148213E-01  0.135387E-01  0.125751E-01  0.118868E-01
  0.114431E-01  0.112255E-01  0.112255E-01  0.114431E-01  0.118868E-01  0.125751E-01
  0.135387E-01  0.148213E-01  0.164739E-01  0.185470E-01  0.210876E-01  0.241357E-01
  0.277066E-01  0.317585E-01  0.361630E-01  0.407002E-01  0.450852E-01  0.490175E-01
  0.522465E-01  0.546304E-01  0.561538E-01  0.568829E-01  0.575969E-01  0.570977E-01
  0.556012E-01  0.531285E-01  0.497615E-01  0.456717E-01  0.411129E-01  0.363807E-01
  0.317585E-01  0.274715E-01  0.236600E-01  0.203796E-01  0.176249E-01  0.153602E-01
  0.135388E-01  0.121087E-01  0.110163E-01  0.102135E-01  0.966398E-02  0.934379E-02
  0.923869E-02  0.934379E-02  0.966398E-02  0.102135E-01  0.110163E-01  0.121087E-01
  0.135388E-01  0.153602E-01  0.176249E-01  0.203796E-01  0.236600E-01  0.274715E-01
  0.317585E-01  0.363807E-01  0.411129E-01  0.456717E-01  0.497615E-01  0.531285E-01
  0.556012E-01  0.570977E-01  0.575969E-01  0.576338E-01  0.564317E-01  0.540894E-01
  0.507399E-01  0.465927E-01  0.419220E-01  0.370327E-01  0.322157E-01  0.277066E-01
  0.236600E-01  0.201472E-01  0.171756E-01  0.147163E-01  0.127241E-01  0.111462E-01
  0.992596E-02  0.901037E-02  0.835765E-02  0.793873E-02  0.773443E-02  0.773443E-02
  0.793873E-02  0.835765E-02  0.901037E-02  0.992596E-02  0.111462E-01  0.127241E-01
  0.147163E-01  0.171756E-01  0.201472E-01  0.236600E-01  0.277066E-01  0.322157E-01
  0.370327E-01  0.419220E-01  0.465927E-01  0.507399E-01  0.540894E-01  0.564317E-01
  0.576338E-01  0.576338E-01  0.570135E-01  0.550273E-01  0.518822E-01  0.478136E-01
  0.431199E-01  0.381263E-01  0.331418E-01  0.284202E-01  0.241357E-01  0.203796E-01
  0.171756E-01  0.145052E-01  0.123274E-01  0.105899E-01  0.923386E-02  0.820161E-02
  0.744496E-02  0.692898E-02  0.662971E-02  0.653180E-02  0.662971E-02  0.692898E-02
  0.744496E-02  0.820161E-02  0.923386E-02  0.105899E-01  0.123274E-01  0.145052E-01
  0.171756E-01  0.203796E-01  0.241357E-01  0.284202E-01  0.331418E-01  0.381263E-01
  0.431199E-01  0.478136E-01  0.518822E-01  0.550273E-01  0.570135E-01  0.576924E-01
  0.570135E-01  0.559322E-01  0.531738E-01  0.493337E-01  0.447242E-01  0.396920E-01
  0.345712E-01  0.296428E-01  0.251089E-01  0.210876E-01  0.176249E-01  0.147163E-01
  0.123274E-01  0.104073E-01  0.889648E-02  0.773381E-02  0.686535E-02  0.624935E-02
  0.585595E-02  0.566477E-02  0.566477E-02  0.585595E-02  0.624935E-02  0.686535E-02
  0.773381E-02  0.889648E-02  0.104073E-01  0.123274E-01  0.147163E-01  0.176249E-01
  0.210876E-01  0.251089E-01  0.296428E-01  0.345712E-01  0.396920E-01  0.447242E-01
  0.493337E-01  0.531738E-01  0.559322E-01  0.573742E-01  0.573742E-01  0.559322E-01
  0.546633E-01  0.511925E-01  0.467787E-01  0.417815E-01  0.365607E-01  0.314302E-01
  0.266284E-01  0.223085E-01  0.185470E-01  0.153602E-01  0.127241E-01  0.105899E-01
  0.889648E-02  0.758025E-02  0.658288E-02  0.585644E-02  0.536439E-02  0.508035E-02
  0.498763E-02  0.508035E-02  0.536439E-02  0.585644E-02  0.658288E-02  0.758025E-02
  0.889648E-02  0.105899E-01  0.127241E-01  0.153602E-01  0.185470E-01  0.223085E-01
  0.266284E-01  0.314302E-01  0.365607E-01  0.417815E-01  0.467787E-01  0.511925E-01
  0.546633E-01  0.568840E-01  0.576485E-01  0.568840E-01  0.546633E-01  0.534751E-01
  0.493576E-01  0.444665E-01  0.391826E-01  0.338553E-01  0.287646E-01  0.241062E-01
  0.199941E-01  0.164739E-01  0.135388E-01  0.111462E-01  0.923386E-02  0.773381E-02
  0.658288E-02  0.572769E-02  0.512546E-02  0.474335E-02  0.455833E-02  0.455833E-02
  0.474335E-02  0.512546E-02  0.572769E-02  0.658288E-02  0.773381E-02  0.923386E-02
  0.111462E-01  0.135388E-01  0.164739E-01  0.199941E-01  0.241062E-01  0.287646E-01
  0.338553E-01  0.391826E-01  0.444665E-01  0.493576E-01  0.534751E-01  0.564591E-01
  0.580283E-01  0.580283E-01  0.564591E-01  0.534751E-01  0.525627E-01  0.478436E-01
  0.425299E-01  0.370068E-01  0.316026E-01  0.265620E-01  0.220422E-01  0.181228E-01
  0.148213E-01  0.121087E-01  0.992596E-02  0.820161E-02  0.686535E-02  0.585644E-02
  0.512546E-02  0.463331E-02  0.435055E-02  0.425846E-02  0.435055E-02  0.463331E-02
  0.512546E-02  0.585644E-02  0.686535E-02  0.820161E-02  0.992596E-02  0.121087E-01
  0.148213E-01  0.181228E-01  0.220422E-01  0.265620E-01  0.316026E-01  0.370068E-01
  0.425299E-01  0.478436E-01  0.525627E-01  0.562923E-01  0.586881E-01  0.595147E-01
  0.586881E-01  0.562923E-01  0.525627E-01  0.519974E-01  0.467034E-01  0.409932E-01
  0.352485E-01  0.297746E-01  0.247824E-01  0.203918E-01  0.166476E-01  0.135387E-01
  0.110163E-01  0.901037E-02  0.744496E-02  0.624935E-02  0.536439E-02  0.474335E-02
  0.435055E-02  0.416083E-02  0.416083E-02  0.435055E-02  0.474335E-02  0.536439E-02
  0.624935E-02  0.744496E-02  0.901037E-02  0.110163E-01  0.135387E-01  0.166476E-01
  0.203918E-01  0.247824E-01  0.297746E-01  0.352485E-01  0.409932E-01  0.467034E-01
  0.519974E-01  0.564591E-01  0.596951E-01  0.613978E-01  0.613978E-01  0.596951E-01
  0.564591E-01  0.519974E-01  0.517233E-01  0.458903E-01  0.398125E-01  0.338641E-01
  0.283278E-01  0.233819E-01  0.191089E-01  0.155190E-01  0.125751E-01  0.102135E-01
  0.835765E-02  0.692898E-02  0.585595E-02  0.508035E-02  0.455833E-02  0.425846E-02
  0.416083E-02  0.425846E-02  0.455833E-02  0.508035E-02  0.585595E-02  0.692898E-02
  0.835765E-02  0.102135E-01  0.125751E-01  0.155190E-01  0.191089E-01  0.233819E-01
  0.283278E-01  0.338641E-01  0.398125E-01  0.458903E-01  0.517233E-01  0.568840E-01
  0.609465E-01  0.635478E-01  0.644436E-01  0.635478E-01  0.609465E-01  0.568840E-01
  0.517233E-01  0.516038E-01  0.453087E-01  0.389192E-01  0.328004E-01  0.272156E-01
  0.223142E-01  0.181454E-01  0.146890E-01  0.118868E-01  0.966398E-02  0.793873E-02
  0.662971E-02  0.566477E-02  0.498763E-02  0.455833E-02  0.435055E-02  0.435055E-02
  0.455833E-02  0.498763E-02  0.566477E-02  0.662971E-02  0.793873E-02  0.966398E-02
  0.118868E-01  0.146890E-01  0.181454E-01  0.223142E-01  0.272156E-01  0.328004E-01
  0.389192E-01  0.453087E-01  0.516038E-01  0.573742E-01  0.621793E-01  0.656277E-01
  0.674289E-01  0.674289E-01  0.656277E-01  0.621793E-01  0.573742E-01  0.516038E-01
  0.514858E-01  0.448589E-01  0.382436E-01  0.320026E-01  0.263887E-01  0.215320E-01
  0.174570E-01  0.141192E-01  0.114431E-01  0.934379E-02  0.773443E-02  0.653180E-02
  0.566477E-02  0.508035E-02  0.474335E-02  0.463331E-02  0.474335E-02  0.508035E-02
  0.566477E-02  0.653180E-02  0.773443E-02  0.934379E-02  0.114431E-01  0.141192E-01
  0.174570E-01  0.215320E-01  0.263887E-01  0.320026E-01  0.382436E-01  0.448589E-01
  0.514858E-01  0.576924E-01  0.630377E-01  0.671365E-01  0.697057E-01  0.705799E-01
  0.697057E-01  0.671365E-01  0.630377E-01  0.576924E-01  0.514858E-01  0.512508E-01
  0.444640E-01  0.377266E-01  0.314191E-01  0.258010E-01  0.209958E-01  0.170118E-01
  0.137853E-01  0.112255E-01  0.923869E-02  0.773443E-02  0.662971E-02  0.585595E-02
  0.536439E-02  0.512546E-02  0.512546E-02  0.536439E-02  0.585595E-02  0.662971E-02
  0.773443E-02  0.923869E-02  0.112255E-01  0.137853E-01  0.170118E-01  0.209958E-01
  0.258010E-01  0.314191E-01  0.377266E-01  0.444640E-01  0.512508E-01  0.576338E-01
  0.631664E-01  0.674985E-01  0.704309E-01  0.718981E-01  0.718981E-01  0.704309E-01
  0.674985E-01  0.631664E-01  0.576338E-01  0.512508E-01  0.508513E-01  0.440882E-01
  0.373312E-01  0.310132E-01  0.254203E-01  0.206810E-01  0.167925E-01  0.136752E-01
  0.112255E-01  0.934379E-02  0.793873E-02  0.692898E-02  0.624935E-02  0.585644E-02
  0.572769E-02  0.585644E-02  0.624935E-02  0.692898E-02  0.793873E-02  0.934379E-02
  0.112255E-01  0.136752E-01  0.167925E-01  0.206810E-01  0.254203E-01  0.310132E-01
  0.373312E-01  0.440882E-01  0.508513E-01  0.570977E-01  0.623312E-01  0.662352E-01
  0.687698E-01  0.701241E-01  0.705399E-01  0.701241E-01  0.687698E-01  0.662352E-01
  0.623312E-01  0.570977E-01  0.508513E-01  0.503363E-01  0.437480E-01  0.370511E-01
  0.307694E-01  0.252319E-01  0.205769E-01  0.167925E-01  0.137853E-01  0.114431E-01
  0.966398E-02  0.835765E-02  0.744496E-02  0.686535E-02  0.658288E-02  0.658288E-02
  0.686535E-02  0.744496E-02  0.835765E-02  0.966398E-02  0.114431E-01  0.137853E-01
  0.167925E-01  0.205769E-01  0.252319E-01  0.307694E-01  0.370511E-01  0.437480E-01
  0.503363E-01  0.561538E-01  0.605687E-01  0.632468E-01  0.643485E-01  0.644628E-01
  0.642914E-01  0.642914E-01  0.644628E-01  0.643485E-01  0.632468E-01  0.605687E-01
  0.561538E-01  0.503363E-01  0.498431E-01  0.435011E-01  0.369025E-01  0.306875E-01
  0.252319E-01  0.206810E-01  0.170118E-01  0.141192E-01  0.118868E-01  0.102135E-01
  0.901037E-02  0.820161E-02  0.773381E-02  0.758025E-02  0.773381E-02  0.820161E-02
  0.901037E-02  0.102135E-01  0.118868E-01  0.141192E-01  0.170118E-01  0.206810E-01
  0.252319E-01  0.306875E-01  0.369025E-01  0.435011E-01  0.498431E-01  0.550604E-01
  0.582785E-01  0.590528E-01  0.577399E-01  0.554209E-01  0.533873E-01  0.525960E-01
  0.533873E-01  0.554209E-01  0.577399E-01  0.590528E-01  0.582785E-01  0.550604E-01
  0.498431E-01  0.495394E-01  0.434099E-01  0.369025E-01  0.307694E-01  0.254203E-01
  0.209958E-01  0.174570E-01  0.146890E-01  0.125751E-01  0.110163E-01  0.992596E-02
  0.923386E-02  0.889648E-02  0.889648E-02  0.923386E-02  0.992596E-02  0.110163E-01
  0.125751E-01  0.146890E-01  0.174570E-01  0.209958E-01  0.254203E-01  0.307694E-01
  0.369025E-01  0.434099E-01  0.495394E-01  0.541857E-01  0.561397E-01  0.547312E-01
  0.504743E-01  0.450034E-01  0.402336E-01  0.375396E-01  0.375396E-01  0.402336E-01
  0.450034E-01  0.504743E-01  0.547312E-01  0.561397E-01  0.541857E-01  0.495394E-01
  0.495394E-01  0.435011E-01  0.370511E-01  0.310132E-01  0.258010E-01  0.215320E-01
  0.181454E-01  0.155190E-01  0.135387E-01  0.121087E-01  0.111462E-01  0.105899E-01
  0.104073E-01  0.105899E-01  0.111462E-01  0.121087E-01  0.135387E-01  0.155190E-01
  0.181454E-01  0.215320E-01  0.258010E-01  0.310132E-01  0.370511E-01  0.435011E-01
  0.495394E-01  0.538518E-01  0.548526E-01  0.515170E-01  0.444181E-01  0.357903E-01
  0.282389E-01  0.233970E-01  0.217696E-01  0.233970E-01  0.282389E-01  0.357903E-01
  0.444181E-01  0.515170E-01  0.548526E-01  0.538518E-01  0.495394E-01  0.498431E-01
  0.437480E-01  0.373312E-01  0.314191E-01  0.263887E-01  0.223142E-01  0.191089E-01
  0.166476E-01  0.148213E-01  0.135388E-01  0.127241E-01  0.123274E-01  0.123274E-01
  0.127241E-01  0.135388E-01  0.148213E-01  0.166476E-01  0.191089E-01  0.223142E-01
  0.263887E-01  0.314191E-01  0.373312E-01  0.437480E-01  0.498431E-01  0.541857E-01
  0.548526E-01  0.503345E-01  0.410295E-01  0.297074E-01  0.198324E-01  0.133665E-01
  0.103953E-01  0.103953E-01  0.133665E-01  0.198324E-01  0.297074E-01  0.410295E-01
  0.503345E-01  0.548526E-01  0.541857E-01  0.498431E-01  0.503363E-01  0.440882E-01
  0.377266E-01  0.320026E-01  0.272156E-01  0.233819E-01  0.203918E-01  0.181228E-01
  0.164739E-01  0.153602E-01  0.147163E-01  0.145052E-01  0.147163E-01  0.153602E-01
  0.164739E-01  0.181228E-01  0.203918E-01  0.233819E-01  0.272156E-01  0.320026E-01
  0.377266E-01  0.440882E-01  0.503363E-01  0.550604E-01  0.561397E-01  0.515170E-01
  0.410295E-01  0.276168E-01  0.157150E-01  0.803241E-02  0.439926E-02  0.341808E-02
  0.439926E-02  0.803241E-02  0.157150E-01  0.276168E-01  0.410295E-01  0.515170E-01
  0.561397E-01  0.550604E-01  0.503363E-01  0.508513E-01  0.444640E-01  0.382436E-01
  0.328004E-01  0.283278E-01  0.247824E-01  0.220422E-01  0.199941E-01  0.185470E-01
  0.176249E-01  0.171756E-01  0.171756E-01  0.176249E-01  0.185470E-01  0.199941E-01
  0.220422E-01  0.247824E-01  0.283278E-01  0.328004E-01  0.382436E-01  0.444640E-01
  0.508513E-01  0.561538E-01  0.582785E-01  0.547312E-01  0.444181E-01  0.297074E-01
  0.157150E-01  0.644888E-02  0.219420E-02  0.900259E-03  0.900259E-03  0.219420E-02
  0.644888E-02  0.157150E-01  0.297074E-01  0.444181E-01  0.547312E-01  0.582785E-01
  0.561538E-01  0.508513E-01  0.512508E-01  0.448589E-01  0.389192E-01  0.338641E-01
  0.297746E-01  0.265620E-01  0.241062E-01  0.223085E-01  0.210876E-01  0.203796E-01
  0.201472E-01  0.203796E-01  0.210876E-01  0.223085E-01  0.241062E-01  0.265620E-01
  0.297746E-01  0.338641E-01  0.389192E-01  0.448589E-01  0.512508E-01  0.570977E-01
  0.605687E-01  0.590528E-01  0.504743E-01  0.357903E-01  0.198324E-01  0.803241E-02
  0.219420E-02  0.397774E-03  0.124746E-03  0.397774E-03  0.219420E-02  0.803241E-02
  0.198324E-01  0.357903E-01  0.504743E-01  0.590528E-01  0.605687E-01  0.570977E-01
  0.512508E-01  0.514858E-01  0.453087E-01  0.398125E-01  0.352485E-01  0.316026E-01
  0.287646E-01  0.266284E-01  0.251089E-01  0.241357E-01  0.236600E-01  0.236600E-01
  0.241357E-01  0.251089E-01  0.266284E-01  0.287646E-01  0.316026E-01  0.352485E-01
  0.398125E-01  0.453087E-01  0.514858E-01  0.576338E-01  0.623312E-01  0.632468E-01
  0.577399E-01  0.450034E-01  0.282389E-01  0.133665E-01  0.439926E-02  0.900259E-03
  0.124746E-03  0.124746E-03  0.900259E-03  0.439926E-02  0.133665E-01  0.282389E-01
  0.450034E-01  0.577399E-01  0.632468E-01  0.623312E-01  0.576338E-01  0.514858E-01
  0.516038E-01  0.458903E-01  0.409932E-01  0.370068E-01  0.338553E-01  0.314302E-01
  0.296428E-01  0.284202E-01  0.277066E-01  0.274715E-01  0.277066E-01  0.284202E-01
  0.296428E-01  0.314302E-01  0.338553E-01  0.370068E-01  0.409932E-01  0.458903E-01
  0.516038E-01  0.576924E-01  0.631664E-01  0.662352E-01  0.643485E-01  0.554209E-01
  0.402336E-01  0.233970E-01  0.103953E-01  0.341808E-02  0.900259E-03  0.397774E-03
  0.900259E-03  0.341808E-02  0.103953E-01  0.233970E-01  0.402336E-01  0.554209E-01
  0.643485E-01  0.662352E-01  0.631664E-01  0.576924E-01  0.516038E-01  0.517233E-01
  0.467034E-01  0.425299E-01  0.391826E-01  0.365607E-01  0.345712E-01  0.331418E-01
  0.322157E-01  0.317585E-01  0.317585E-01  0.322157E-01  0.331418E-01  0.345712E-01
  0.365607E-01  0.391826E-01  0.425299E-01  0.467034E-01  0.517233E-01  0.573742E-01
  0.630377E-01  0.674985E-01  0.687698E-01  0.644628E-01  0.533873E-01  0.375396E-01
  0.217696E-01  0.103953E-01  0.439926E-02  0.219420E-02  0.219420E-02  0.439926E-02
  0.103953E-01  0.217696E-01  0.375396E-01  0.533873E-01  0.644628E-01  0.687698E-01
  0.674985E-01  0.630377E-01  0.573742E-01  0.517233E-01  0.519974E-01  0.478436E-01
  0.444665E-01  0.417815E-01  0.396920E-01  0.381263E-01  0.370327E-01  0.363807E-01
  0.361630E-01  0.363807E-01  0.370327E-01  0.381263E-01  0.396920E-01  0.417815E-01
  0.444665E-01  0.478436E-01  0.519974E-01  0.568840E-01  0.621793E-01  0.671365E-01
  0.704309E-01  0.701241E-01  0.642914E-01  0.525960E-01  0.375396E-01  0.233970E-01
  0.133665E-01  0.803241E-02  0.644888E-02  0.803241E-02  0.133665E-01  0.233970E-01
  0.375396E-01  0.525960E-01  0.642914E-01  0.701241E-01  0.704309E-01  0.671365E-01
  0.621793E-01  0.568840E-01  0.519974E-01  0.525627E-01  0.493576E-01  0.467787E-01
  0.447242E-01  0.431199E-01  0.419220E-01  0.411129E-01  0.407002E-01  0.407002E-01
  0.411129E-01  0.419220E-01  0.431199E-01  0.447242E-01  0.467787E-01  0.493576E-01
  0.525627E-01  0.564591E-01  0.609465E-01  0.656277E-01  0.697057E-01  0.718981E-01
  0.705399E-01  0.642914E-01  0.533873E-01  0.402336E-01  0.282389E-01  0.198324E-01
  0.157150E-01  0.157150E-01  0.198324E-01  0.282389E-01  0.402336E-01  0.533873E-01
  0.642914E-01  0.705399E-01  0.718981E-01  0.697057E-01  0.656277E-01  0.609465E-01
  0.564591E-01  0.525627E-01  0.534751E-01  0.511925E-01  0.493337E-01  0.478136E-01
  0.465927E-01  0.456717E-01  0.450852E-01  0.448819E-01  0.450852E-01  0.456717E-01
  0.465927E-01  0.478136E-01  0.493337E-01  0.511925E-01  0.534751E-01  0.562923E-01
  0.596951E-01  0.635478E-01  0.674289E-01  0.705799E-01  0.718981E-01  0.701241E-01
  0.644628E-01  0.554209E-01  0.450034E-01  0.357903E-01  0.297074E-01  0.276168E-01
  0.297074E-01  0.357903E-01  0.450034E-01  0.554209E-01  0.644628E-01  0.701241E-01
  0.718981E-01  0.705799E-01  0.674289E-01  0.635478E-01  0.596951E-01  0.562923E-01
  0.534751E-01  0.546633E-01  0.531738E-01  0.518822E-01  0.507399E-01  0.497615E-01
  0.490175E-01  0.486079E-01  0.486079E-01  0.490175E-01  0.497615E-01  0.507399E-01
  0.518822E-01  0.531738E-01  0.546633E-01  0.564591E-01  0.586881E-01  0.613978E-01
  0.644436E-01  0.674289E-01  0.697057E-01  0.704309E-01  0.687698E-01  0.643485E-01
  0.577399E-01  0.504743E-01  0.444181E-01  0.410295E-01  0.410295E-01  0.444181E-01
  0.504743E-01  0.577399E-01  0.643485E-01  0.687698E-01  0.704309E-01  0.697057E-01
  0.674289E-01  0.644436E-01  0.613978E-01  0.586881E-01  0.564591E-01  0.546633E-01
  0.559322E-01  0.550273E-01  0.540894E-01  0.531285E-01  0.522465E-01  0.516094E-01
  0.513753E-01  0.516094E-01  0.522465E-01  0.531285E-01  0.540894E-01  0.550273E-01
  0.559322E-01  0.568840E-01  0.580283E-01  0.595147E-01  0.613978E-01  0.635478E-01
  0.656277E-01  0.671365E-01  0.674985E-01  0.662352E-01  0.632468E-01  0.590528E-01
  0.547312E-01  0.515170E-01  0.503345E-01  0.515170E-01  0.547312E-01  0.590528E-01
  0.632468E-01  0.662352E-01  0.674985E-01  0.671365E-01  0.656277E-01  0.635478E-01
  0.613978E-01  0.595147E-01  0.580283E-01  0.568840E-01  0.559322E-01  0.570135E-01
  0.564317E-01  0.556012E-01  0.546304E-01  0.537481E-01  0.532184E-01  0.532184E-01
  0.537481E-01  0.546304E-01  0.556012E-01  0.564317E-01  0.570135E-01  0.573742E-01
  0.576485E-01  0.580283E-01  0.586881E-01  0.596951E-01  0.609465E-01  0.621793E-01
  0.630377E-01  0.631664E-01  0.623312E-01  0.605687E-01  0.582785E-01  0.561397E-01
  0.548526E-01  0.548526E-01  0.561397E-01  0.582785E-01  0.605687E-01  0.623312E-01
  0.631664E-01  0.630377E-01  0.621793E-01  0.609465E-01  0.596951E-01  0.586881E-01
  0.580283E-01  0.576485E-01  0.573742E-01  0.570135E-01  0.576338E-01  0.570977E-01
  0.561538E-01  0.550604E-01  0.541857E-01  0.538518E-01  0.541857E-01  0.550604E-01
  0.561538E-01  0.570977E-01  0.576338E-01  0.576924E-01  0.573742E-01  0.568840E-01
  0.564591E-01  0.562923E-01  0.564591E-01  0.568840E-01  0.573742E-01  0.576924E-01
  0.576338E-01  0.570977E-01  0.561538E-01  0.550604E-01  0.541857E-01  0.538518E-01
  0.541857E-01  0.550604E-01  0.561538E-01  0.570977E-01  0.576338E-01  0.576924E-01
  0.573742E-01  0.568840E-01  0.564591E-01  0.562923E-01  0.564591E-01  0.568840E-01
  0.573742E-01  0.576924E-01  0.576338E-01  0.575969E-01  0.568829E-01  0.557180E-01
  0.545318E-01  0.537899E-01  0.537899E-01  0.545318E-01  0.557180E-01  0.568829E-01
  0.575969E-01  0.576338E-01  0.570135E-01  0.559322E-01  0.546633E-01  0.534751E-01
  0.525627E-01  0.519974E-01  0.517233E-01  0.516038E-01  0.514858E-01  0.512508E-01
  0.508513E-01  0.503363E-01  0.498431E-01  0.495394E-01  0.495394E-01  0.498431E-01
  0.503363E-01  0.508513E-01  0.512508E-01  0.514858E-01  0.516038E-01  0.517233E-01
  0.519974E-01  0.525627E-01  0.534751E-01  0.546633E-01  0.559322E-01  0.570135E-01
  0.576338E-01  0.575969E-01  0.608584E-01  0.583896E-01  0.556429E-01  0.535133E-01
  0.527142E-01  0.535133E-01  0.556429E-01  0.583896E-01  0.608584E-01  0.623312E-01
  0.625173E-01  0.615519E-01  0.598153E-01  0.577470E-01  0.557295E-01  0.540169E-01
  0.526991E-01  0.517233E-01  0.509650E-01  0.503011E-01  0.496528E-01  0.490050E-01
  0.484132E-01  0.479848E-01  0.478271E-01  0.479848E-01  0.484132E-01  0.490050E-01
  0.496528E-01  0.503011E-01  0.509650E-01  0.517233E-01  0.526991E-01  0.540169E-01
  0.557295E-01  0.577470E-01  0.598153E-01  0.615519E-01  0.625173E-01  0.623312E-01
  0.608584E-01  0.583896E-01  0.554089E-01  0.526024E-01  0.509178E-01  0.509178E-01
  0.526024E-01  0.554089E-01  0.583896E-01  0.605687E-01  0.613304E-01  0.605922E-01
  0.586834E-01  0.560998E-01  0.533193E-01  0.507095E-01  0.484847E-01  0.467034E-01
  0.453153E-01  0.442298E-01  0.433637E-01  0.426591E-01  0.420918E-01  0.416756E-01
  0.414504E-01  0.414504E-01  0.416756E-01  0.420918E-01  0.426591E-01  0.433637E-01
  0.442298E-01  0.453153E-01  0.467034E-01  0.484847E-01  0.507095E-01  0.533193E-01
  0.560998E-01  0.586834E-01  0.605922E-01  0.613304E-01  0.605687E-01  0.583896E-01
  0.556429E-01  0.526024E-01  0.502241E-01  0.493307E-01  0.502241E-01  0.526024E-01
  0.556429E-01  0.582785E-01  0.596200E-01  0.592937E-01  0.574703E-01  0.546367E-01
  0.513409E-01  0.480433E-01  0.450563E-01  0.425299E-01  0.404823E-01  0.388609E-01
  0.375965E-01  0.366262E-01  0.358980E-01  0.353784E-01  0.350597E-01  0.349512E-01
  0.350597E-01  0.353784E-01  0.358980E-01  0.366262E-01  0.375965E-01  0.388609E-01
  0.404823E-01  0.425299E-01  0.450563E-01  0.480433E-01  0.513409E-01  0.546367E-01
  0.574703E-01  0.592937E-01  0.596200E-01  0.582785E-01  0.556429E-01  0.535133E-01
  0.509178E-01  0.493307E-01  0.493307E-01  0.509178E-01  0.535133E-01  0.561397E-01
  0.577883E-01  0.578306E-01  0.562095E-01  0.533135E-01  0.497055E-01  0.459130E-01
  0.423293E-01  0.391826E-01  0.365502E-01  0.344129E-01  0.327161E-01  0.314030E-01
  0.304189E-01  0.297139E-01  0.292532E-01  0.290231E-01  0.290231E-01  0.292532E-01
  0.297139E-01  0.304189E-01  0.314030E-01  0.327161E-01  0.344129E-01  0.365502E-01
  0.391826E-01  0.423293E-01  0.459130E-01  0.497055E-01  0.533135E-01  0.562095E-01
  0.578306E-01  0.577883E-01  0.561397E-01  0.535133E-01  0.527142E-01  0.509178E-01
  0.502241E-01  0.509178E-01  0.527142E-01  0.548526E-01  0.563767E-01  0.565307E-01
  0.550493E-01  0.521627E-01  0.483779E-01  0.442425E-01  0.402055E-01  0.365607E-01
  0.334415E-01  0.308608E-01  0.287745E-01  0.271283E-01  0.258699E-01  0.249472E-01
  0.243140E-01  0.239410E-01  0.238172E-01  0.239410E-01  0.243140E-01  0.249472E-01
  0.258699E-01  0.271283E-01  0.287745E-01  0.308608E-01  0.334415E-01  0.365607E-01
  0.402055E-01  0.442425E-01  0.483779E-01  0.521627E-01  0.550493E-01  0.565307E-01
  0.563767E-01  0.548526E-01  0.527142E-01  0.535133E-01  0.526024E-01  0.526024E-01
  0.535133E-01  0.548526E-01  0.558462E-01  0.557599E-01  0.542123E-01  0.512805E-01
  0.473681E-01  0.429902E-01  0.386122E-01  0.345712E-01  0.310496E-01  0.280954E-01
  0.256776E-01  0.237415E-01  0.222333E-01  0.211002E-01  0.202918E-01  0.197689E-01
  0.195108E-01  0.195108E-01  0.197689E-01  0.202918E-01  0.211002E-01  0.222333E-01
  0.237415E-01  0.256776E-01  0.280954E-01  0.310496E-01  0.345712E-01  0.386122E-01
  0.429902E-01  0.473681E-01  0.512805E-01  0.542123E-01  0.557599E-01  0.558462E-01
  0.548526E-01  0.535133E-01  0.556429E-01  0.554089E-01  0.556429E-01  0.561397E-01
  0.563767E-01  0.557599E-01  0.539051E-01  0.507931E-01  0.467221E-01  0.421418E-01
  0.374983E-01  0.331418E-01  0.292871E-01  0.260143E-01  0.233103E-01  0.211233E-01
  0.193962E-01  0.180743E-01  0.171035E-01  0.164378E-01  0.160469E-01  0.159177E-01
  0.160469E-01  0.164378E-01  0.171035E-01  0.180743E-01  0.193962E-01  0.211233E-01
  0.233103E-01  0.260143E-01  0.292871E-01  0.331418E-01  0.374983E-01  0.421418E-01
  0.467221E-01  0.507931E-01  0.539051E-01  0.557599E-01  0.563767E-01  0.561397E-01
  0.556429E-01  0.583896E-01  0.583896E-01  0.582785E-01  0.577883E-01  0.565307E-01
  0.542123E-01  0.507931E-01  0.464977E-01  0.417085E-01  0.368338E-01  0.322157E-01
  0.280818E-01  0.245344E-01  0.215780E-01  0.191670E-01  0.172436E-01  0.157502E-01
  0.146302E-01  0.138319E-01  0.133168E-01  0.130634E-01  0.130634E-01  0.133168E-01
  0.138319E-01  0.146302E-01  0.157502E-01  0.172436E-01  0.191670E-01  0.215780E-01
  0.245344E-01  0.280818E-01  0.322157E-01  0.368338E-01  0.417085E-01  0.464977E-01
  0.507931E-01  0.542123E-01  0.565307E-01  0.577883E-01  0.582785E-01  0.583896E-01
  0.608584E-01  0.605687E-01  0.596200E-01  0.578306E-01  0.550493E-01  0.512805E-01
  0.467221E-01  0.417085E-01  0.366118E-01  0.317585E-01  0.273783E-01  0.235865E-01
  0.204015E-01  0.177851E-01  0.156798E-01  0.140265E-01  0.127660E-01  0.118424E-01
  0.112108E-01  0.108418E-01  0.107203E-01  0.108418E-01  0.112108E-01  0.118424E-01
  0.127660E-01  0.140265E-01  0.156798E-01  0.177851E-01  0.204015E-01  0.235865E-01
  0.273783E-01  0.317585E-01  0.366118E-01  0.417085E-01  0.467221E-01  0.512805E-01
  0.550493E-01  0.578306E-01  0.596200E-01  0.605687E-01  0.608584E-01  0.623312E-01
  0.613304E-01  0.592937E-01  0.562095E-01  0.521627E-01  0.473681E-01  0.421418E-01
  0.368338E-01  0.317585E-01  0.271465E-01  0.231230E-01  0.197188E-01  0.169039E-01
  0.146233E-01  0.128159E-01  0.114199E-01  0.103757E-01  0.963287E-02  0.915565E-02
  0.892219E-02  0.892219E-02  0.915565E-02  0.963287E-02  0.103757E-01  0.114199E-01
  0.128159E-01  0.146233E-01  0.169039E-01  0.197188E-01  0.231230E-01  0.271465E-01
  0.317585E-01  0.368338E-01  0.421418E-01  0.473681E-01  0.521627E-01  0.562095E-01
  0.592937E-01  0.613304E-01  0.623312E-01  0.623312E-01  0.625173E-01  0.605922E-01
  0.574703E-01  0.533135E-01  0.483779E-01  0.429902E-01  0.374983E-01  0.322157E-01
  0.273783E-01  0.231230E-01  0.194946E-01  0.164741E-01  0.140115E-01  0.120460E-01
  0.105132E-01  0.934907E-02  0.849757E-02  0.791693E-02  0.757943E-02  0.746879E-02
  0.757943E-02  0.791693E-02  0.849757E-02  0.934907E-02  0.105132E-01  0.120460E-01
  0.140115E-01  0.164741E-01  0.194946E-01  0.231230E-01  0.273783E-01  0.322157E-01
  0.374983E-01  0.429902E-01  0.483779E-01  0.533135E-01  0.574703E-01  0.605922E-01
  0.625173E-01  0.631664E-01  0.625173E-01  0.615519E-01  0.586834E-01  0.546367E-01
  0.497055E-01  0.442425E-01  0.386122E-01  0.331418E-01  0.280818E-01  0.235865E-01
  0.197188E-01  0.164741E-01  0.138107E-01  0.116705E-01  0.998833E-02  0.869654E-02
  0.773329E-02  0.705002E-02  0.661297E-02  0.640019E-02  0.640019E-02  0.661297E-02
  0.705002E-02  0.773329E-02  0.869654E-02  0.998833E-02  0.116705E-01  0.138107E-01
  0.164741E-01  0.197188E-01  0.235865E-01  0.280818E-01  0.331418E-01  0.386122E-01
  0.442425E-01  0.497055E-01  0.546367E-01  0.586834E-01  0.615519E-01  0.630377E-01
  0.630377E-01  0.615519E-01  0.598153E-01  0.560998E-01  0.513409E-01  0.459130E-01
  0.402055E-01  0.345712E-01  0.292871E-01  0.245344E-01  0.204015E-01  0.169039E-01
  0.140115E-01  0.116705E-01  0.981594E-02  0.837818E-02  0.729089E-02  0.649892E-02
  0.596162E-02  0.565095E-02  0.554944E-02  0.565095E-02  0.596162E-02  0.649892E-02
  0.729089E-02  0.837818E-02  0.981594E-02  0.116705E-01  0.140115E-01  0.169039E-01
  0.204015E-01  0.245344E-01  0.292871E-01  0.345712E-01  0.402055E-01  0.459130E-01
  0.513409E-01  0.560998E-01  0.598153E-01  0.621793E-01  0.629905E-01  0.621793E-01
  0.598153E-01  0.577470E-01  0.533193E-01  0.480433E-01  0.423293E-01  0.365607E-01
  0.310496E-01  0.260143E-01  0.215780E-01  0.177851E-01  0.146233E-01  0.120460E-01
  0.998833E-02  0.837818E-02  0.714569E-02  0.623045E-02  0.558518E-02  0.517513E-02
  0.497644E-02  0.497644E-02  0.517513E-02  0.558518E-02  0.623045E-02  0.714569E-02
  0.837818E-02  0.998833E-02  0.120460E-01  0.146233E-01  0.177851E-01  0.215780E-01
  0.260143E-01  0.310496E-01  0.365607E-01  0.423293E-01  0.480433E-01  0.533193E-01
  0.577470E-01  0.609465E-01  0.626256E-01  0.626256E-01  0.609465E-01  0.577470E-01
  0.557295E-01  0.507095E-01  0.450563E-01  0.391826E-01  0.334415E-01  0.280954E-01
  0.233103E-01  0.191670E-01  0.156798E-01  0.128159E-01  0.105132E-01  0.869654E-02
  0.729089E-02  0.623045E-02  0.546195E-02  0.494418E-02  0.464661E-02  0.454971E-02
  0.464661E-02  0.494418E-02  0.546195E-02  0.623045E-02  0.729089E-02  0.869654E-02
  0.105132E-01  0.128159E-01  0.156798E-01  0.191670E-01  0.233103E-01  0.280954E-01
  0.334415E-01  0.391826E-01  0.450563E-01  0.507095E-01  0.557295E-01  0.596951E-01
  0.622413E-01  0.631194E-01  0.622413E-01  0.596951E-01  0.557295E-01  0.540169E-01
  0.484847E-01  0.425299E-01  0.365502E-01  0.308608E-01  0.256776E-01  0.211233E-01
  0.172436E-01  0.140265E-01  0.114199E-01  0.934907E-02  0.773329E-02  0.649892E-02
  0.558518E-02  0.494418E-02  0.453908E-02  0.434356E-02  0.434356E-02  0.453908E-02
  0.494418E-02  0.558518E-02  0.649892E-02  0.773329E-02  0.934907E-02  0.114199E-01
  0.140265E-01  0.172436E-01  0.211233E-01  0.256776E-01  0.308608E-01  0.365502E-01
  0.425299E-01  0.484847E-01  0.540169E-01  0.586881E-01  0.620815E-01  0.638688E-01
  0.638688E-01  0.620815E-01  0.586881E-01  0.540169E-01  0.526991E-01  0.467034E-01
  0.404823E-01  0.344129E-01  0.287745E-01  0.237415E-01  0.193962E-01  0.157502E-01
  0.127660E-01  0.103757E-01  0.849757E-02  0.705002E-02  0.596162E-02  0.517513E-02
  0.464661E-02  0.434356E-02  0.424500E-02  0.434356E-02  0.464661E-02  0.517513E-02
  0.596162E-02  0.705002E-02  0.849757E-02  0.103757E-01  0.127660E-01  0.157502E-01
  0.193962E-01  0.237415E-01  0.287745E-01  0.344129E-01  0.404823E-01  0.467034E-01
  0.526991E-01  0.580283E-01  0.622413E-01  0.649479E-01  0.658816E-01  0.649479E-01
  0.622413E-01  0.580283E-01  0.526991E-01  0.517233E-01  0.453153E-01  0.388609E-01
  0.327161E-01  0.271283E-01  0.222333E-01  0.180743E-01  0.146302E-01  0.118424E-01
  0.963287E-02  0.791693E-02  0.661297E-02  0.565095E-02  0.497644E-02  0.454971E-02
  0.434356E-02  0.434356E-02  0.454971E-02  0.497644E-02  0.565095E-02  0.661297E-02
  0.791693E-02  0.963287E-02  0.118424E-01  0.146302E-01  0.180743E-01  0.222333E-01
  0.271283E-01  0.327161E-01  0.388609E-01  0.453153E-01  0.517233E-01  0.576485E-01
  0.626256E-01  0.662244E-01  0.681139E-01  0.681139E-01  0.662244E-01  0.626256E-01
  0.576485E-01  0.517233E-01  0.509650E-01  0.442298E-01  0.375965E-01  0.314030E-01
  0.258699E-01  0.211002E-01  0.171035E-01  0.138319E-01  0.112108E-01  0.915565E-02
  0.757943E-02  0.640019E-02  0.554944E-02  0.497644E-02  0.464661E-02  0.453908E-02
  0.464661E-02  0.497644E-02  0.554944E-02  0.640019E-02  0.757943E-02  0.915565E-02
  0.112108E-01  0.138319E-01  0.171035E-01  0.211002E-01  0.258699E-01  0.314030E-01
  0.375965E-01  0.442298E-01  0.509650E-01  0.573742E-01  0.629905E-01  0.673706E-01
  0.701543E-01  0.711089E-01  0.701543E-01  0.673706E-01  0.629905E-01  0.573742E-01
  0.509650E-01  0.503011E-01  0.433637E-01  0.366262E-01  0.304189E-01  0.249472E-01
  0.202918E-01  0.164378E-01  0.133168E-01  0.108418E-01  0.892219E-02  0.746879E-02
  0.640019E-02  0.565095E-02  0.517513E-02  0.494418E-02  0.494418E-02  0.517513E-02
  0.565095E-02  0.640019E-02  0.746879E-02  0.892219E-02  0.108418E-01  0.133168E-01
  0.164378E-01  0.202918E-01  0.249472E-01  0.304189E-01  0.366262E-01  0.433637E-01
  0.503011E-01  0.570135E-01  0.630377E-01  0.679426E-01  0.713906E-01  0.731649E-01
  0.731649E-01  0.713906E-01  0.679426E-01  0.630377E-01  0.570135E-01  0.503011E-01
  0.496528E-01  0.426591E-01  0.358980E-01  0.297139E-01  0.243140E-01  0.197689E-01
  0.160469E-01  0.130634E-01  0.107203E-01  0.892219E-02  0.757943E-02  0.661297E-02
  0.596162E-02  0.558518E-02  0.546195E-02  0.558518E-02  0.596162E-02  0.661297E-02
  0.757943E-02  0.892219E-02  0.107203E-01  0.130634E-01  0.160469E-01  0.197689E-01
  0.243140E-01  0.297139E-01  0.358980E-01  0.426591E-01  0.496528E-01  0.564317E-01
  0.625173E-01  0.674985E-01  0.711164E-01  0.732786E-01  0.739938E-01  0.732786E-01
  0.711164E-01  0.674985E-01  0.625173E-01  0.564317E-01  0.496528E-01  0.490050E-01
  0.420918E-01  0.353784E-01  0.292532E-01  0.239410E-01  0.195108E-01  0.159177E-01
  0.130634E-01  0.108418E-01  0.915565E-02  0.791693E-02  0.705002E-02  0.649892E-02
  0.623045E-02  0.623045E-02  0.649892E-02  0.705002E-02  0.791693E-02  0.915565E-02
  0.108418E-01  0.130634E-01  0.159177E-01  0.195108E-01  0.239410E-01  0.292532E-01
  0.353784E-01  0.420918E-01  0.490050E-01  0.556012E-01  0.613304E-01  0.657687E-01
  0.687698E-01  0.704877E-01  0.712299E-01  0.712299E-01  0.704877E-01  0.687698E-01
  0.657687E-01  0.613304E-01  0.556012E-01  0.490050E-01  0.484132E-01  0.416756E-01
  0.350597E-01  0.290231E-01  0.238172E-01  0.195108E-01  0.160469E-01  0.133168E-01
  0.112108E-01  0.963287E-02  0.849757E-02  0.773329E-02  0.729089E-02  0.714569E-02
  0.729089E-02  0.773329E-02  0.849757E-02  0.963287E-02  0.112108E-01  0.133168E-01
  0.160469E-01  0.195108E-01  0.238172E-01  0.290231E-01  0.350597E-01  0.416756E-01
  0.484132E-01  0.546304E-01  0.596200E-01  0.628642E-01  0.643148E-01  0.644628E-01
  0.640920E-01  0.638809E-01  0.640920E-01  0.644628E-01  0.643148E-01  0.628642E-01
  0.596200E-01  0.546304E-01  0.484132E-01  0.479848E-01  0.414504E-01  0.349512E-01
  0.290231E-01  0.239410E-01  0.197689E-01  0.164378E-01  0.138319E-01  0.118424E-01
  0.103757E-01  0.934907E-02  0.869654E-02  0.837818E-02  0.837818E-02  0.869654E-02
  0.934907E-02  0.103757E-01  0.118424E-01  0.138319E-01  0.164378E-01  0.197689E-01
  0.239410E-01  0.290231E-01  0.349512E-01  0.414504E-01  0.479848E-01  0.537481E-01
  0.577883E-01  0.593826E-01  0.585206E-01  0.560688E-01  0.533873E-01  0.517061E-01
  0.517061E-01  0.533873E-01  0.560688E-01  0.585206E-01  0.593826E-01  0.577883E-01
  0.537481E-01  0.479848E-01  0.478271E-01  0.414504E-01  0.350597E-01  0.292532E-01
  0.243140E-01  0.202918E-01  0.171035E-01  0.146302E-01  0.127660E-01  0.114199E-01
  0.105132E-01  0.998833E-02  0.981594E-02  0.998833E-02  0.105132E-01  0.114199E-01
  0.127660E-01  0.146302E-01  0.171035E-01  0.202918E-01  0.243140E-01  0.292532E-01
  0.350597E-01  0.414504E-01  0.478271E-01  0.532184E-01  0.563767E-01  0.562621E-01
  0.528033E-01  0.472457E-01  0.415779E-01  0.375396E-01  0.361006E-01  0.375396E-01
  0.415779E-01  0.472457E-01  0.528033E-01  0.562621E-01  0.563767E-01  0.532184E-01
  0.478271E-01  0.479848E-01  0.416756E-01  0.353784E-01  0.297139E-01  0.249472E-01
  0.211002E-01  0.180743E-01  0.157502E-01  0.140265E-01  0.128159E-01  0.120460E-01
  0.116705E-01  0.116705E-01  0.120460E-01  0.128159E-01  0.140265E-01  0.157502E-01
  0.180743E-01  0.211002E-01  0.249472E-01  0.297139E-01  0.353784E-01  0.416756E-01
  0.479848E-01  0.532184E-01  0.558462E-01  0.544242E-01  0.486672E-01  0.401387E-01
  0.315275E-01  0.250749E-01  0.217696E-01  0.217696E-01  0.250749E-01  0.315275E-01
  0.401387E-01  0.486672E-01  0.544242E-01  0.558462E-01  0.532184E-01  0.479848E-01
  0.484132E-01  0.420918E-01  0.358980E-01  0.304189E-01  0.258699E-01  0.222333E-01
  0.193962E-01  0.172436E-01  0.156798E-01  0.146233E-01  0.140115E-01  0.138107E-01
  0.140115E-01  0.146233E-01  0.156798E-01  0.172436E-01  0.193962E-01  0.222333E-01
  0.258699E-01  0.304189E-01  0.358980E-01  0.420918E-01  0.484132E-01  0.537481E-01
  0.563767E-01  0.544242E-01  0.471670E-01  0.362535E-01  0.251044E-01  0.166537E-01
  0.118765E-01  0.103953E-01  0.118765E-01  0.166537E-01  0.251044E-01  0.362535E-01
  0.471670E-01  0.544242E-01  0.563767E-01  0.537481E-01  0.484132E-01  0.490050E-01
  0.426591E-01  0.366262E-01  0.314030E-01  0.271283E-01  0.237415E-01  0.211233E-01
  0.191670E-01  0.177851E-01  0.169039E-01  0.164741E-01  0.164741E-01  0.169039E-01
  0.177851E-01  0.191670E-01  0.211233E-01  0.237415E-01  0.271283E-01  0.314030E-01
  0.366262E-01  0.426591E-01  0.490050E-01  0.546304E-01  0.577883E-01  0.562621E-01
  0.486672E-01  0.362535E-01  0.229401E-01  0.126547E-01  0.677191E-02  0.439926E-02
  0.439926E-02  0.677191E-02  0.126547E-01  0.229401E-01  0.362535E-01  0.486672E-01
  0.562621E-01  0.577883E-01  0.546304E-01  0.490050E-01  0.496528E-01  0.433637E-01
  0.375965E-01  0.327161E-01  0.287745E-01  0.256776E-01  0.233103E-01  0.215780E-01
  0.204015E-01  0.197188E-01  0.194946E-01  0.197188E-01  0.204015E-01  0.215780E-01
  0.233103E-01  0.256776E-01  0.287745E-01  0.327161E-01  0.375965E-01  0.433637E-01
  0.496528E-01  0.556012E-01  0.596200E-01  0.593826E-01  0.528033E-01  0.401387E-01
  0.251044E-01  0.126547E-01  0.529121E-02  0.219420E-02  0.144769E-02  0.219420E-02
  0.529121E-02  0.126547E-01  0.251044E-01  0.401387E-01  0.528033E-01  0.593826E-01
  0.596200E-01  0.556012E-01  0.496528E-01  0.503011E-01  0.442298E-01  0.388609E-01
  0.344129E-01  0.308608E-01  0.280954E-01  0.260143E-01  0.245344E-01  0.235865E-01
  0.231230E-01  0.231230E-01  0.235865E-01  0.245344E-01  0.260143E-01  0.280954E-01
  0.308608E-01  0.344129E-01  0.388609E-01  0.442298E-01  0.503011E-01  0.564317E-01
  0.613304E-01  0.628642E-01  0.585206E-01  0.472457E-01  0.315275E-01  0.166537E-01
  0.677191E-02  0.219420E-02  0.785995E-03  0.785995E-03  0.219420E-02  0.677191E-02
  0.166537E-01  0.315275E-01  0.472457E-01  0.585206E-01  0.628642E-01  0.613304E-01
  0.564317E-01  0.503011E-01  0.509650E-01  0.453153E-01  0.404823E-01  0.365502E-01
  0.334415E-01  0.310496E-01  0.292871E-01  0.280818E-01  0.273783E-01  0.271465E-01
  0.273783E-01  0.280818E-01  0.292871E-01  0.310496E-01  0.334415E-01  0.365502E-01
  0.404823E-01  0.453153E-01  0.509650E-01  0.570135E-01  0.625173E-01  0.657687E-01
  0.643148E-01  0.560688E-01  0.415779E-01  0.250749E-01  0.118765E-01  0.439926E-02
  0.144769E-02  0.785995E-03  0.144769E-02  0.439926E-02  0.118765E-01  0.250749E-01
  0.415779E-01  0.560688E-01  0.643148E-01  0.657687E-01  0.625173E-01  0.570135E-01
  0.509650E-01  0.517233E-01  0.467034E-01  0.425299E-01  0.391826E-01  0.365607E-01
  0.345712E-01  0.331418E-01  0.322157E-01  0.317585E-01  0.317585E-01  0.322157E-01
  0.331418E-01  0.345712E-01  0.365607E-01  0.391826E-01  0.425299E-01  0.467034E-01
  0.517233E-01  0.573742E-01  0.630377E-01  0.674985E-01  0.687698E-01  0.644628E-01
  0.533873E-01  0.375396E-01  0.217696E-01  0.103953E-01  0.439926E-02  0.219420E-02
  0.219420E-02  0.439926E-02  0.103953E-01  0.217696E-01  0.375396E-01  0.533873E-01
  0.644628E-01  0.687698E-01  0.674985E-01  0.630377E-01  0.573742E-01  0.517233E-01
  0.526991E-01  0.484847E-01  0.450563E-01  0.423293E-01  0.402055E-01  0.386122E-01
  0.374983E-01  0.368338E-01  0.366118E-01  0.368338E-01  0.374983E-01  0.386122E-01
  0.402055E-01  0.423293E-01  0.450563E-01  0.484847E-01  0.526991E-01  0.576485E-01
  0.629905E-01  0.679426E-01  0.711164E-01  0.704877E-01  0.640920E-01  0.517061E-01
  0.361006E-01  0.217696E-01  0.118765E-01  0.677191E-02  0.529121E-02  0.677191E-02
  0.118765E-01  0.217696E-01  0.361006E-01  0.517061E-01  0.640920E-01  0.704877E-01
  0.711164E-01  0.679426E-01  0.629905E-01  0.576485E-01  0.526991E-01  0.540169E-01
  0.507095E-01  0.480433E-01  0.459130E-01  0.442425E-01  0.429902E-01  0.421418E-01
  0.417085E-01  0.417085E-01  0.421418E-01  0.429902E-01  0.442425E-01  0.459130E-01
  0.480433E-01  0.507095E-01  0.540169E-01  0.580283E-01  0.626256E-01  0.673706E-01
  0.713906E-01  0.732786E-01  0.712299E-01  0.638809E-01  0.517061E-01  0.375396E-01
  0.250749E-01  0.166537E-01  0.126547E-01  0.126547E-01  0.166537E-01  0.250749E-01
  0.375396E-01  0.517061E-01  0.638809E-01  0.712299E-01  0.732786E-01  0.713906E-01
  0.673706E-01  0.626256E-01  0.580283E-01  0.540169E-01  0.557295E-01  0.533193E-01
  0.513409E-01  0.497055E-01  0.483779E-01  0.473681E-01  0.467221E-01  0.464977E-01
  0.467221E-01  0.473681E-01  0.483779E-01  0.497055E-01  0.513409E-01  0.533193E-01
  0.557295E-01  0.586881E-01  0.622413E-01  0.662244E-01  0.701543E-01  0.731649E-01
  0.739938E-01  0.712299E-01  0.640920E-01  0.533873E-01  0.415779E-01  0.315275E-01
  0.251044E-01  0.229401E-01  0.251044E-01  0.315275E-01  0.415779E-01  0.533873E-01
  0.640920E-01  0.712299E-01  0.739938E-01  0.731649E-01  0.701543E-01  0.662244E-01
  0.622413E-01  0.586881E-01  0.557295E-01  0.577470E-01  0.560998E-01  0.546367E-01
  0.533135E-01  0.521627E-01  0.512805E-01  0.507931E-01  0.507931E-01  0.512805E-01
  0.521627E-01  0.533135E-01  0.546367E-01  0.560998E-01  0.577470E-01  0.596951E-01
  0.620815E-01  0.649479E-01  0.681139E-01  0.711089E-01  0.731649E-01  0.732786E-01
  0.704877E-01  0.644628E-01  0.560688E-01  0.472457E-01  0.401387E-01  0.362535E-01
  0.362535E-01  0.401387E-01  0.472457E-01  0.560688E-01  0.644628E-01  0.704877E-01
  0.732786E-01  0.731649E-01  0.711089E-01  0.681139E-01  0.649479E-01  0.620815E-01
  0.596951E-01  0.577470E-01  0.598153E-01  0.586834E-01  0.574703E-01  0.562095E-01
  0.550493E-01  0.542123E-01  0.539051E-01  0.542123E-01  0.550493E-01  0.562095E-01
  0.574703E-01  0.586834E-01  0.598153E-01  0.609465E-01  0.622413E-01  0.638688E-01
  0.658816E-01  0.681139E-01  0.701543E-01  0.713906E-01  0.711164E-01  0.687698E-01
  0.643148E-01  0.585206E-01  0.528033E-01  0.486672E-01  0.471670E-01  0.486672E-01
  0.528033E-01  0.585206E-01  0.643148E-01  0.687698E-01  0.711164E-01  0.713906E-01
  0.701543E-01  0.681139E-01  0.658816E-01  0.638688E-01  0.622413E-01  0.609465E-01
  0.598153E-01  0.615519E-01  0.605922E-01  0.592937E-01  0.578306E-01  0.565307E-01
  0.557599E-01  0.557599E-01  0.565307E-01  0.578306E-01  0.592937E-01  0.605922E-01
  0.615519E-01  0.621793E-01  0.626256E-01  0.631194E-01  0.638688E-01  0.649479E-01
  0.662244E-01  0.673706E-01  0.679426E-01  0.674985E-01  0.657687E-01  0.628642E-01
  0.593826E-01  0.562621E-01  0.544242E-01  0.544242E-01  0.562621E-01  0.593826E-01
  0.628642E-01  0.657687E-01  0.674985E-01  0.679426E-01  0.673706E-01  0.662244E-01
  0.649479E-01  0.638688E-01  0.631194E-01  0.626256E-01  0.621793E-01  0.615519E-01
  0.625173E-01  0.613304E-01  0.596200E-01  0.577883E-01  0.563767E-01  0.558462E-01
  0.563767E-01  0.577883E-01  0.596200E-01  0.613304E-01  0.625173E-01  0.630377E-01
  0.629905E-01  0.626256E-01  0.622413E-01  0.620815E-01  0.622413E-01  0.626256E-01
  0.629905E-01  0.630377E-01  0.625173E-01  0.613304E-01  0.596200E-01  0.577883E-01
  0.563767E-01  0.558462E-01  0.563767E-01  0.577883E-01  0.596200E-01  0.613304E-01
  0.625173E-01  0.630377E-01  0.629905E-01  0.626256E-01  0.622413E-01  0.620815E-01
  0.622413E-01  0.626256E-01  0.629905E-01  0.630377E-01  0.625173E-01  0.623312E-01
  0.605687E-01  0.582785E-01  0.561397E-01  0.548526E-01  0.548526E-01  0.561397E-01
  0.582785E-01  0.605687E-01  0.623312E-01  0.631664E-01  0.630377E-01  0.621793E-01
  0.609465E-01  0.596951E-01  0.586881E-01  0.580283E-01  0.576485E-01  0.573742E-01
  0.570135E-01  0.564317E-01  0.556012E-01  0.546304E-01  0.537481E-01  0.532184E-01
  0.532184E-01  0.537481E-01  0.546304E-01  0.556012E-01  0.564317E-01  0.570135E-01
  0.573742E-01  0.576485E-01  0.580283E-01  0.586881E-01  0.596951E-01  0.609465E-01
  0.621793E-01  0.630377E-01  0.631664E-01  0.623312E-01  0.608584E-01  0.583896E-01
  0.556429E-01  0.535133E-01  0.527142E-01  0.535133E-01  0.556429E-01  0.583896E-01
  0.608584E-01  0.623312E-01  0.625173E-01  0.615519E-01  0.598153E-01  0.577470E-01
  0.557295E-01  0.540169E-01  0.526991E-01  0.517233E-01  0.509650E-01  0.503011E-01
  0.496528E-01  0.490050E-01  0.484132E-01  0.479848E-01  0.478271E-01  0.479848E-01
  0.484132E-01  0.490050E-01  0.496528E-01  0.503011E-01  0.509650E-01  0.517233E-01
  0.526991E-01  0.540169E-01  0.557295E-01  0.577470E-01  0.598153E-01  0.615519E-01
  0.625173E-01  0.623312E-01  0.608584E-01  0.588714E-01  0.536934E-01  0.491626E-01
  0.465490E-01  0.465490E-01  0.491626E-01  0.536934E-01  0.588714E-01  0.632468E-01
  0.657687E-01  0.661508E-01  0.647684E-01  0.622884E-01  0.593659E-01  0.565067E-01
  0.540169E-01  0.519974E-01  0.503972E-01  0.491053E-01  0.480248E-01  0.471020E-01
  0.463310E-01  0.457528E-01  0.454365E-01  0.454365E-01  0.457528E-01  0.463310E-01
  0.471020E-01  0.480248E-01  0.491053E-01  0.503972E-01  0.519974E-01  0.540169E-01
  0.565067E-01  0.593659E-01  0.622884E-01  0.647684E-01  0.661508E-01  0.657687E-01
  0.632468E-01  0.588714E-01  0.536934E-01  0.482686E-01  0.443155E-01  0.428799E-01
  0.443155E-01  0.482686E-01  0.536934E-01  0.590528E-01  0.628642E-01  0.643180E-01
  0.634809E-01  0.609927E-01  0.576306E-01  0.540516E-01  0.507095E-01  0.478436E-01
  0.455075E-01  0.436442E-01  0.421678E-01  0.410067E-01  0.401117E-01  0.394581E-01
  0.390504E-01  0.389104E-01  0.390504E-01  0.394581E-01  0.401117E-01  0.410067E-01
  0.421678E-01  0.436442E-01  0.455075E-01  0.478436E-01  0.507095E-01  0.540516E-01
  0.576306E-01  0.609927E-01  0.634809E-01  0.643180E-01  0.628642E-01  0.590528E-01
  0.536934E-01  0.491626E-01  0.443155E-01  0.415410E-01  0.415410E-01  0.443155E-01
  0.491626E-01  0.547312E-01  0.593826E-01  0.618579E-01  0.617775E-01  0.595795E-01
  0.560707E-01  0.520307E-01  0.480433E-01  0.444665E-01  0.414506E-01  0.389978E-01
  0.370445E-01  0.355210E-01  0.343666E-01  0.335305E-01  0.329785E-01  0.327008E-01
  0.327008E-01  0.329785E-01  0.335305E-01  0.343666E-01  0.355210E-01  0.370445E-01
  0.389978E-01  0.414506E-01  0.444665E-01  0.480433E-01  0.520307E-01  0.560707E-01
  0.595795E-01  0.617775E-01  0.618579E-01  0.593826E-01  0.547312E-01  0.491626E-01
  0.465490E-01  0.428799E-01  0.415410E-01  0.428799E-01  0.465490E-01  0.515170E-01
  0.562621E-01  0.593150E-01  0.598902E-01  0.581001E-01  0.546448E-01  0.503541E-01
  0.459130E-01  0.417815E-01  0.381979E-01  0.352229E-01  0.328175E-01  0.309158E-01
  0.294568E-01  0.283834E-01  0.276449E-01  0.272087E-01  0.270636E-01  0.272087E-01
  0.276449E-01  0.283834E-01  0.294568E-01  0.309158E-01  0.328175E-01  0.352229E-01
  0.381979E-01  0.417815E-01  0.459130E-01  0.503541E-01  0.546448E-01  0.581001E-01
  0.598902E-01  0.593150E-01  0.562621E-01  0.515170E-01  0.465490E-01  0.465490E-01
  0.443155E-01  0.443155E-01  0.465490E-01  0.503345E-01  0.544242E-01  0.573932E-01
  0.582328E-01  0.567368E-01  0.533955E-01  0.489882E-01  0.442425E-01  0.396920E-01
  0.356507E-01  0.322382E-01  0.294434E-01  0.272043E-01  0.254568E-01  0.241423E-01
  0.232048E-01  0.225987E-01  0.222992E-01  0.222992E-01  0.225987E-01  0.232048E-01
  0.241423E-01  0.254568E-01  0.272043E-01  0.294434E-01  0.322382E-01  0.356507E-01
  0.396920E-01  0.442425E-01  0.489882E-01  0.533955E-01  0.567368E-01  0.582328E-01
  0.573932E-01  0.544242E-01  0.503345E-01  0.465490E-01  0.491626E-01  0.482686E-01
  0.491626E-01  0.515170E-01  0.544242E-01  0.566775E-01  0.572566E-01  0.557541E-01
  0.524341E-01  0.479464E-01  0.429902E-01  0.381263E-01  0.337198E-01  0.299422E-01
  0.268160E-01  0.242878E-01  0.222887E-01  0.207564E-01  0.196318E-01  0.188616E-01
  0.184095E-01  0.182599E-01  0.184095E-01  0.188616E-01  0.196318E-01  0.207564E-01
  0.222887E-01  0.242878E-01  0.268160E-01  0.299422E-01  0.337198E-01  0.381263E-01
  0.429902E-01  0.479464E-01  0.524341E-01  0.557541E-01  0.572566E-01  0.566775E-01
  0.544242E-01  0.515170E-01  0.491626E-01  0.536934E-01  0.536934E-01  0.547312E-01
  0.562621E-01  0.573932E-01  0.572566E-01  0.553937E-01  0.519023E-01  0.472789E-01
  0.421418E-01  0.370327E-01  0.323339E-01  0.282516E-01  0.248396E-01  0.220586E-01
  0.198391E-01  0.181140E-01  0.168205E-01  0.159000E-01  0.153064E-01  0.150140E-01
  0.150140E-01  0.153064E-01  0.159000E-01  0.168205E-01  0.181140E-01  0.198391E-01
  0.220586E-01  0.248396E-01  0.282516E-01  0.323339E-01  0.370327E-01  0.421418E-01
  0.472789E-01  0.519023E-01  0.553937E-01  0.572566E-01  0.573932E-01  0.562621E-01
  0.547312E-01  0.536934E-01  0.588714E-01  0.590528E-01  0.593826E-01  0.593150E-01
  0.582328E-01  0.557541E-01  0.519023E-01  0.470469E-01  0.417085E-01  0.363807E-01
  0.314366E-01  0.270961E-01  0.234348E-01  0.204283E-01  0.180100E-01  0.161097E-01
  0.146613E-01  0.136023E-01  0.128792E-01  0.124563E-01  0.123167E-01  0.124563E-01
  0.128792E-01  0.136023E-01  0.146613E-01  0.161097E-01  0.180100E-01  0.204283E-01
  0.234348E-01  0.270961E-01  0.314366E-01  0.363807E-01  0.417085E-01  0.470469E-01
  0.519023E-01  0.557541E-01  0.582328E-01  0.593150E-01  0.593826E-01  0.590528E-01
  0.588714E-01  0.632468E-01  0.628642E-01  0.618579E-01  0.598902E-01  0.567368E-01
  0.524341E-01  0.472789E-01  0.417085E-01  0.361630E-01  0.309936E-01  0.264215E-01
  0.225346E-01  0.193208E-01  0.167181E-01  0.146544E-01  0.130606E-01  0.118711E-01
  0.110272E-01  0.104851E-01  0.102192E-01  0.102192E-01  0.104851E-01  0.110272E-01
  0.118711E-01  0.130606E-01  0.146544E-01  0.167181E-01  0.193208E-01  0.225346E-01
  0.264215E-01  0.309936E-01  0.361630E-01  0.417085E-01  0.472789E-01  0.524341E-01
  0.567368E-01  0.598902E-01  0.618579E-01  0.628642E-01  0.632468E-01  0.632468E-01
  0.657687E-01  0.643180E-01  0.617775E-01  0.581001E-01  0.533955E-01  0.479464E-01
  0.421418E-01  0.363807E-01  0.309936E-01  0.261991E-01  0.220940E-01  0.186773E-01
  0.158934E-01  0.136703E-01  0.119360E-01  0.106209E-01  0.966180E-02  0.900858E-02
  0.862824E-02  0.850324E-02  0.862824E-02  0.900858E-02  0.966180E-02  0.106209E-01
  0.119360E-01  0.136703E-01  0.158934E-01  0.186773E-01  0.220940E-01  0.261991E-01
  0.309936E-01  0.363807E-01  0.421418E-01  0.479464E-01  0.533955E-01  0.581001E-01
  0.617775E-01  0.643180E-01  0.657687E-01  0.662352E-01  0.657687E-01  0.661508E-01
  0.634809E-01  0.595795E-01  0.546448E-01  0.489882E-01  0.429902E-01  0.370327E-01
  0.314366E-01  0.264215E-01  0.220940E-01  0.184657E-01  0.154904E-01  0.130995E-01
  0.112196E-01  0.977755E-02  0.870471E-02  0.794486E-02  0.745836E-02  0.722094E-02
  0.722094E-02  0.745836E-02  0.794486E-02  0.870471E-02  0.977755E-02  0.112196E-01
  0.130995E-01  0.154904E-01  0.184657E-01  0.220940E-01  0.264215E-01  0.314366E-01
  0.370327E-01  0.429902E-01  0.489882E-01  0.546448E-01  0.595795E-01  0.634809E-01
  0.661508E-01  0.674985E-01  0.674985E-01  0.661508E-01  0.647684E-01  0.609927E-01
  0.560707E-01  0.503541E-01  0.442425E-01  0.381263E-01  0.323339E-01  0.270961E-01
  0.225346E-01  0.186773E-01  0.154904E-01  0.129118E-01  0.108697E-01  0.928862E-02
  0.809547E-02  0.722746E-02  0.663810E-02  0.629659E-02  0.618480E-02  0.629659E-02
  0.663810E-02  0.722746E-02  0.809547E-02  0.928862E-02  0.108697E-01  0.129118E-01
  0.154904E-01  0.186773E-01  0.225346E-01  0.270961E-01  0.323339E-01  0.381263E-01
  0.442425E-01  0.503541E-01  0.560707E-01  0.609927E-01  0.647684E-01  0.671365E-01
  0.679426E-01  0.671365E-01  0.647684E-01  0.622884E-01  0.576306E-01  0.520307E-01
  0.459130E-01  0.396920E-01  0.337198E-01  0.282516E-01  0.234348E-01  0.193208E-01
  0.158934E-01  0.130995E-01  0.108697E-01  0.912794E-02  0.779810E-02  0.681200E-02
  0.611628E-02  0.567322E-02  0.545812E-02  0.545812E-02  0.567322E-02  0.611628E-02
  0.681200E-02  0.779810E-02  0.912794E-02  0.108697E-01  0.130995E-01  0.158934E-01
  0.193208E-01  0.234348E-01  0.282516E-01  0.337198E-01  0.396920E-01  0.459130E-01
  0.520307E-01  0.576306E-01  0.622884E-01  0.656277E-01  0.673706E-01  0.673706E-01
  0.656277E-01  0.622884E-01  0.593659E-01  0.540516E-01  0.480433E-01  0.417815E-01
  0.356507E-01  0.299422E-01  0.248396E-01  0.204283E-01  0.167181E-01  0.136703E-01
  0.112196E-01  0.928862E-02  0.779810E-02  0.667571E-02  0.586227E-02  0.531333E-02
  0.499728E-02  0.489426E-02  0.499728E-02  0.531333E-02  0.586227E-02  0.667571E-02
  0.779810E-02  0.928862E-02  0.112196E-01  0.136703E-01  0.167181E-01  0.204283E-01
  0.248396E-01  0.299422E-01  0.356507E-01  0.417815E-01  0.480433E-01  0.540516E-01
  0.593659E-01  0.635478E-01  0.662244E-01  0.671459E-01  0.662244E-01  0.635478E-01
  0.593659E-01  0.565067E-01  0.507095E-01  0.444665E-01  0.381979E-01  0.322382E-01
  0.268160E-01  0.220586E-01  0.180100E-01  0.146544E-01  0.119360E-01  0.977755E-02
  0.809547E-02  0.681200E-02  0.586227E-02  0.519568E-02  0.477407E-02  0.457049E-02
  0.457049E-02  0.477407E-02  0.519568E-02  0.586227E-02  0.681200E-02  0.809547E-02
  0.977755E-02  0.119360E-01  0.146544E-01  0.180100E-01  0.220586E-01  0.268160E-01
  0.322382E-01  0.381979E-01  0.444665E-01  0.507095E-01  0.565067E-01  0.613978E-01
  0.649479E-01  0.668165E-01  0.668165E-01  0.649479E-01  0.613978E-01  0.565067E-01
  0.540169E-01  0.478436E-01  0.414506E-01  0.352229E-01  0.294434E-01  0.242878E-01
  0.198391E-01  0.161097E-01  0.130606E-01  0.106209E-01  0.870471E-02  0.722746E-02
  0.611628E-02  0.531333E-02  0.477407E-02  0.446510E-02  0.436467E-02  0.446510E-02
  0.477407E-02  0.531333E-02  0.611628E-02  0.722746E-02  0.870471E-02  0.106209E-01
  0.130606E-01  0.161097E-01  0.198391E-01  0.242878E-01  0.294434E-01  0.352229E-01
  0.414506E-01  0.478436E-01  0.540169E-01  0.595147E-01  0.638688E-01  0.666696E-01
  0.676366E-01  0.666696E-01  0.638688E-01  0.595147E-01  0.540169E-01  0.519974E-01
  0.455075E-01  0.389978E-01  0.328175E-01  0.272043E-01  0.222887E-01  0.181140E-01
  0.146613E-01  0.118711E-01  0.966180E-02  0.794486E-02  0.663810E-02  0.567322E-02
  0.499728E-02  0.457049E-02  0.436467E-02  0.436467E-02  0.457049E-02  0.499728E-02
  0.567322E-02  0.663810E-02  0.794486E-02  0.966180E-02  0.118711E-01  0.146613E-01
  0.181140E-01  0.222887E-01  0.272043E-01  0.328175E-01  0.389978E-01  0.455075E-01
  0.519974E-01  0.580283E-01  0.631194E-01  0.668165E-01  0.687631E-01  0.687631E-01
  0.668165E-01  0.631194E-01  0.580283E-01  0.519974E-01  0.503972E-01  0.436442E-01
  0.370445E-01  0.309158E-01  0.254568E-01  0.207564E-01  0.168205E-01  0.136023E-01
  0.110272E-01  0.900858E-02  0.745836E-02  0.629659E-02  0.545812E-02  0.489426E-02
  0.457049E-02  0.446510E-02  0.457049E-02  0.489426E-02  0.545812E-02  0.629659E-02
  0.745836E-02  0.900858E-02  0.110272E-01  0.136023E-01  0.168205E-01  0.207564E-01
  0.254568E-01  0.309158E-01  0.370445E-01  0.436442E-01  0.503972E-01  0.568840E-01
  0.626256E-01  0.671459E-01  0.700402E-01  0.710369E-01  0.700402E-01  0.671459E-01
  0.626256E-01  0.568840E-01  0.503972E-01  0.491053E-01  0.421678E-01  0.355210E-01
  0.294568E-01  0.241423E-01  0.196318E-01  0.159000E-01  0.128792E-01  0.104851E-01
  0.862824E-02  0.722094E-02  0.618480E-02  0.545812E-02  0.499728E-02  0.477407E-02
  0.477407E-02  0.499728E-02  0.545812E-02  0.618480E-02  0.722094E-02  0.862824E-02
  0.104851E-01  0.128792E-01  0.159000E-01  0.196318E-01  0.241423E-01  0.294568E-01
  0.355210E-01  0.421678E-01  0.491053E-01  0.559322E-01  0.621793E-01  0.673706E-01
  0.710885E-01  0.730275E-01  0.730275E-01  0.710885E-01  0.673706E-01  0.621793E-01
  0.559322E-01  0.491053E-01  0.480248E-01  0.410067E-01  0.343666E-01  0.283834E-01
  0.232048E-01  0.188616E-01  0.153064E-01  0.124563E-01  0.102192E-01  0.850324E-02
  0.722094E-02  0.629659E-02  0.567322E-02  0.531333E-02  0.519568E-02  0.531333E-02
  0.567322E-02  0.629659E-02  0.722094E-02  0.850324E-02  0.102192E-01  0.124563E-01
  0.153064E-01  0.188616E-01  0.232048E-01  0.283834E-01  0.343666E-01  0.410067E-01
  0.480248E-01  0.550273E-01  0.615519E-01  0.671365E-01  0.713906E-01  0.740416E-01
  0.749405E-01  0.740416E-01  0.713906E-01  0.671365E-01  0.615519E-01  0.550273E-01
  0.480248E-01  0.471020E-01  0.401117E-01  0.335305E-01  0.276449E-01  0.225987E-01
  0.184095E-01  0.150140E-01  0.123167E-01  0.102192E-01  0.862824E-02  0.745836E-02
  0.663810E-02  0.611628E-02  0.586227E-02  0.586227E-02  0.611628E-02  0.663810E-02
  0.745836E-02  0.862824E-02  0.102192E-01  0.123167E-01  0.150140E-01  0.184095E-01
  0.225987E-01  0.276449E-01  0.335305E-01  0.401117E-01  0.471020E-01  0.540894E-01
  0.605922E-01  0.661508E-01  0.704309E-01  0.732786E-01  0.746844E-01  0.746844E-01
  0.732786E-01  0.704309E-01  0.661508E-01  0.605922E-01  0.540894E-01  0.471020E-01
  0.463310E-01  0.394581E-01  0.329785E-01  0.272087E-01  0.222992E-01  0.182599E-01
  0.150140E-01  0.124563E-01  0.104851E-01  0.900858E-02  0.794486E-02  0.722746E-02
  0.681200E-02  0.667571E-02  0.681200E-02  0.722746E-02  0.794486E-02  0.900858E-02
  0.104851E-01  0.124563E-01  0.150140E-01  0.182599E-01  0.222992E-01  0.272087E-01
  0.329785E-01  0.394581E-01  0.463310E-01  0.531285E-01  0.592937E-01  0.643180E-01
  0.679156E-01  0.701241E-01  0.712299E-01  0.715532E-01  0.712299E-01  0.701241E-01
  0.679156E-01  0.643180E-01  0.592937E-01  0.531285E-01  0.463310E-01  0.457528E-01
  0.390504E-01  0.327008E-01  0.270636E-01  0.222992E-01  0.184095E-01  0.153064E-01
  0.128792E-01  0.110272E-01  0.966180E-02  0.870471E-02  0.809547E-02  0.779810E-02
  0.779810E-02  0.809547E-02  0.870471E-02  0.966180E-02  0.110272E-01  0.128792E-01
  0.153064E-01  0.184095E-01  0.222992E-01  0.270636E-01  0.327008E-01  0.390504E-01
  0.457528E-01  0.522465E-01  0.578306E-01  0.618579E-01  0.640315E-01  0.646071E-01
  0.642914E-01  0.638809E-01  0.638809E-01  0.642914E-01  0.646071E-01  0.640315E-01
  0.618579E-01  0.578306E-01  0.522465E-01  0.457528E-01  0.454365E-01  0.389104E-01
  0.327008E-01  0.272087E-01  0.225987E-01  0.188616E-01  0.159000E-01  0.136023E-01
  0.118711E-01  0.106209E-01  0.977755E-02  0.928862E-02  0.912794E-02  0.928862E-02
  0.977755E-02  0.106209E-01  0.118711E-01  0.136023E-01  0.159000E-01  0.188616E-01
  0.225987E-01  0.272087E-01  0.327008E-01  0.389104E-01  0.454365E-01  0.516094E-01
  0.565307E-01  0.593150E-01  0.595544E-01  0.576945E-01  0.549204E-01  0.525960E-01
  0.517061E-01  0.525960E-01  0.549204E-01  0.576945E-01  0.595544E-01  0.593150E-01
  0.565307E-01  0.516094E-01  0.454365E-01  0.454365E-01  0.390504E-01  0.329785E-01
  0.276449E-01  0.232048E-01  0.196318E-01  0.168205E-01  0.146613E-01  0.130606E-01
  0.119360E-01  0.112196E-01  0.108697E-01  0.108697E-01  0.112196E-01  0.119360E-01
  0.130606E-01  0.146613E-01  0.168205E-01  0.196318E-01  0.232048E-01  0.276449E-01
  0.329785E-01  0.390504E-01  0.454365E-01  0.513753E-01  0.557599E-01  0.573932E-01
  0.556342E-01  0.510403E-01  0.452903E-01  0.403287E-01  0.375396E-01  0.375396E-01
  0.403287E-01  0.452903E-01  0.510403E-01  0.556342E-01  0.573932E-01  0.557599E-01
  0.513753E-01  0.454365E-01  0.457528E-01  0.394581E-01  0.335305E-01  0.283834E-01
  0.241423E-01  0.207564E-01  0.181140E-01  0.161097E-01  0.146544E-01  0.136703E-01
  0.130995E-01  0.129118E-01  0.130995E-01  0.136703E-01  0.146544E-01  0.161097E-01
  0.181140E-01  0.207564E-01  0.241423E-01  0.283834E-01  0.335305E-01  0.394581E-01
  0.457528E-01  0.516094E-01  0.557599E-01  0.566775E-01  0.533565E-01  0.463092E-01
  0.376753E-01  0.300317E-01  0.250749E-01  0.233970E-01  0.250749E-01  0.300317E-01
  0.376753E-01  0.463092E-01  0.533565E-01  0.566775E-01  0.557599E-01  0.516094E-01
  0.457528E-01  0.463310E-01  0.401117E-01  0.343666E-01  0.294568E-01  0.254568E-01
  0.222887E-01  0.198391E-01  0.180100E-01  0.167181E-01  0.158934E-01  0.154904E-01
  0.154904E-01  0.158934E-01  0.167181E-01  0.180100E-01  0.198391E-01  0.222887E-01
  0.254568E-01  0.294568E-01  0.343666E-01  0.401117E-01  0.463310E-01  0.522465E-01
  0.565307E-01  0.573932E-01  0.533565E-01  0.446090E-01  0.335667E-01  0.235303E-01
  0.166537E-01  0.133665E-01  0.133665E-01  0.166537E-01  0.235303E-01  0.335667E-01
  0.446090E-01  0.533565E-01  0.573932E-01  0.565307E-01  0.522465E-01  0.463310E-01
  0.471020E-01  0.410067E-01  0.355210E-01  0.309158E-01  0.272043E-01  0.242878E-01
  0.220586E-01  0.204283E-01  0.193208E-01  0.186773E-01  0.184657E-01  0.186773E-01
  0.193208E-01  0.204283E-01  0.220586E-01  0.242878E-01  0.272043E-01  0.309158E-01
  0.355210E-01  0.410067E-01  0.471020E-01  0.531285E-01  0.578306E-01  0.593150E-01
  0.556342E-01  0.463092E-01  0.335667E-01  0.213560E-01  0.126547E-01  0.803241E-02
  0.666228E-02  0.803241E-02  0.126547E-01  0.213560E-01  0.335667E-01  0.463092E-01
  0.556342E-01  0.593150E-01  0.578306E-01  0.531285E-01  0.471020E-01  0.480248E-01
  0.421678E-01  0.370445E-01  0.328175E-01  0.294434E-01  0.268160E-01  0.248396E-01
  0.234348E-01  0.225346E-01  0.220940E-01  0.220940E-01  0.225346E-01  0.234348E-01
  0.248396E-01  0.268160E-01  0.294434E-01  0.328175E-01  0.370445E-01  0.421678E-01
  0.480248E-01  0.540894E-01  0.592937E-01  0.618579E-01  0.595544E-01  0.510403E-01
  0.376753E-01  0.235303E-01  0.126547E-01  0.644888E-02  0.395318E-02  0.395318E-02
  0.644888E-02  0.126547E-01  0.235303E-01  0.376753E-01  0.510403E-01  0.595544E-01
  0.618579E-01  0.592937E-01  0.540894E-01  0.480248E-01  0.491053E-01  0.436442E-01
  0.389978E-01  0.352229E-01  0.322382E-01  0.299422E-01  0.282516E-01  0.270961E-01
  0.264215E-01  0.261991E-01  0.264215E-01  0.270961E-01  0.282516E-01  0.299422E-01
  0.322382E-01  0.352229E-01  0.389978E-01  0.436442E-01  0.491053E-01  0.550273E-01
  0.605922E-01  0.643180E-01  0.640315E-01  0.576945E-01  0.452903E-01  0.300317E-01
  0.166537E-01  0.803241E-02  0.395318E-02  0.285305E-02  0.395318E-02  0.803241E-02
  0.166537E-01  0.300317E-01  0.452903E-01  0.576945E-01  0.640315E-01  0.643180E-01
  0.605922E-01  0.550273E-01  0.491053E-01  0.503972E-01  0.455075E-01  0.414506E-01
  0.381979E-01  0.356507E-01  0.337198E-01  0.323339E-01  0.314366E-01  0.309936E-01
  0.309936E-01  0.314366E-01  0.323339E-01  0.337198E-01  0.356507E-01  0.381979E-01
  0.414506E-01  0.455075E-01  0.503972E-01  0.559322E-01  0.615519E-01  0.661508E-01
  0.679156E-01  0.646071E-01  0.549204E-01  0.403287E-01  0.250749E-01  0.133665E-01
  0.666228E-02  0.395318E-02  0.395318E-02  0.666228E-02  0.133665E-01  0.250749E-01
  0.403287E-01  0.549204E-01  0.646071E-01  0.679156E-01  0.661508E-01  0.615519E-01
  0.559322E-01  0.503972E-01  0.519974E-01  0.478436E-01  0.444665E-01  0.417815E-01
  0.396920E-01  0.381263E-01  0.370327E-01  0.363807E-01  0.361630E-01  0.363807E-01
  0.370327E-01  0.381263E-01  0.396920E-01  0.417815E-01  0.444665E-01  0.478436E-01
  0.519974E-01  0.568840E-01  0.621793E-01  0.671365E-01  0.704309E-01  0.701241E-01
  0.642914E-01  0.525960E-01  0.375396E-01  0.233970E-01  0.133665E-01  0.803241E-02
  0.644888E-02  0.803241E-02  0.133665E-01  0.233970E-01  0.375396E-01  0.525960E-01
  0.642914E-01  0.701241E-01  0.704309E-01  0.671365E-01  0.621793E-01  0.568840E-01
  0.519974E-01  0.540169E-01  0.507095E-01  0.480433E-01  0.459130E-01  0.442425E-01
  0.429902E-01  0.421418E-01  0.417085E-01  0.417085E-01  0.421418E-01  0.429902E-01
  0.442425E-01  0.459130E-01  0.480433E-01  0.507095E-01  0.540169E-01  0.580283E-01
  0.626256E-01  0.673706E-01  0.713906E-01  0.732786E-01  0.712299E-01  0.638809E-01
  0.517061E-01  0.375396E-01  0.250749E-01  0.166537E-01  0.126547E-01  0.126547E-01
  0.166537E-01  0.250749E-01  0.375396E-01  0.517061E-01  0.638809E-01  0.712299E-01
  0.732786E-01  0.713906E-01  0.673706E-01  0.626256E-01  0.580283E-01  0.540169E-01
  0.565067E-01  0.540516E-01  0.520307E-01  0.503541E-01  0.489882E-01  0.479464E-01
  0.472789E-01  0.470469E-01  0.472789E-01  0.479464E-01  0.489882E-01  0.503541E-01
  0.520307E-01  0.540516E-01  0.565067E-01  0.595147E-01  0.631194E-01  0.671459E-01
  0.710885E-01  0.740416E-01  0.746844E-01  0.715532E-01  0.638809E-01  0.525960E-01
  0.403287E-01  0.300317E-01  0.235303E-01  0.213560E-01  0.235303E-01  0.300317E-01
  0.403287E-01  0.525960E-01  0.638809E-01  0.715532E-01  0.746844E-01  0.740416E-01
  0.710885E-01  0.671459E-01  0.631194E-01  0.595147E-01  0.565067E-01  0.593659E-01
  0.576306E-01  0.560707E-01  0.546448E-01  0.533955E-01  0.524341E-01  0.519023E-01
  0.519023E-01  0.524341E-01  0.533955E-01  0.546448E-01  0.560707E-01  0.576306E-01
  0.593659E-01  0.613978E-01  0.638688E-01  0.668165E-01  0.700402E-01  0.730275E-01
  0.749405E-01  0.746844E-01  0.712299E-01  0.642914E-01  0.549204E-01  0.452903E-01
  0.376753E-01  0.335667E-01  0.335667E-01  0.376753E-01  0.452903E-01  0.549204E-01
  0.642914E-01  0.712299E-01  0.746844E-01  0.749405E-01  0.730275E-01  0.700402E-01
  0.668165E-01  0.638688E-01  0.613978E-01  0.593659E-01  0.622884E-01  0.609927E-01
  0.595795E-01  0.581001E-01  0.567368E-01  0.557541E-01  0.553937E-01  0.557541E-01
  0.567368E-01  0.581001E-01  0.595795E-01  0.609927E-01  0.622884E-01  0.635478E-01
  0.649479E-01  0.666696E-01  0.687631E-01  0.710369E-01  0.730275E-01  0.740416E-01
  0.732786E-01  0.701241E-01  0.646071E-01  0.576945E-01  0.510403E-01  0.463092E-01
  0.446090E-01  0.463092E-01  0.510403E-01  0.576945E-01  0.646071E-01  0.701241E-01
  0.732786E-01  0.740416E-01  0.730275E-01  0.710369E-01  0.687631E-01  0.666696E-01
  0.649479E-01  0.635478E-01  0.622884E-01  0.647684E-01  0.634809E-01  0.617775E-01
  0.598902E-01  0.582328E-01  0.572566E-01  0.572566E-01  0.582328E-01  0.598902E-01
  0.617775E-01  0.634809E-01  0.647684E-01  0.656277E-01  0.662244E-01  0.668165E-01
  0.676366E-01  0.687631E-01  0.700402E-01  0.710885E-01  0.713906E-01  0.704309E-01
  0.679156E-01  0.640315E-01  0.595544E-01  0.556342E-01  0.533565E-01  0.533565E-01
  0.556342E-01  0.595544E-01  0.640315E-01  0.679156E-01  0.704309E-01  0.713906E-01
  0.710885E-01  0.700402E-01  0.687631E-01  0.676366E-01  0.668165E-01  0.662244E-01
  0.656277E-01  0.647684E-01  0.661508E-01  0.643180E-01  0.618579E-01  0.593150E-01
  0.573932E-01  0.566775E-01  0.573932E-01  0.593150E-01  0.618579E-01  0.643180E-01
  0.661508E-01  0.671365E-01  0.673706E-01  0.671459E-01  0.668165E-01  0.666696E-01
  0.668165E-01  0.671459E-01  0.673706E-01  0.671365E-01  0.661508E-01  0.643180E-01
  0.618579E-01  0.593150E-01  0.573932E-01  0.566775E-01  0.573932E-01  0.593150E-01
  0.618579E-01  0.643180E-01  0.661508E-01  0.671365E-01  0.673706E-01  0.671459E-01
  0.668165E-01  0.666696E-01  0.668165E-01  0.671459E-01  0.673706E-01  0.671365E-01
  0.661508E-01  0.657687E-01  0.628642E-01  0.593826E-01  0.562621E-01  0.544242E-01
  0.544242E-01  0.562621E-01  0.593826E-01  0.628642E-01  0.657687E-01  0.674985E-01
  0.679426E-01  0.673706E-01  0.662244E-01  0.649479E-01  0.638688E-01  0.631194E-01
  0.626256E-01  0.621793E-01  0.615519E-01  0.605922E-01  0.592937E-01  0.578306E-01
  0.565307E-01  0.557599E-01  0.557599E-01  0.565307E-01  0.578306E-01  0.592937E-01
  0.605922E-01  0.615519E-01  0.621793E-01  0.626256E-01  0.631194E-01  0.638688E-01
  0.649479E-01  0.662244E-01  0.673706E-01  0.679426E-01  0.674985E-01  0.657687E-01
  0.632468E-01  0.590528E-01  0.547312E-01  0.515170E-01  0.503345E-01  0.515170E-01
  0.547312E-01  0.590528E-01  0.632468E-01  0.662352E-01  0.674985E-01  0.671365E-01
  0.656277E-01  0.635478E-01  0.613978E-01  0.595147E-01  0.580283E-01  0.568840E-01
  0.559322E-01  0.550273E-01  0.540894E-01  0.531285E-01  0.522465E-01  0.516094E-01
  0.513753E-01  0.516094E-01  0.522465E-01  0.531285E-01  0.540894E-01  0.550273E-01
  0.559322E-01  0.568840E-01  0.580283E-01  0.595147E-01  0.613978E-01  0.635478E-01
  0.656277E-01  0.671365E-01  0.674985E-01  0.662352E-01  0.632468E-01  0.588714E-01
  0.536934E-01  0.491626E-01  0.465490E-01  0.465490E-01  0.491626E-01  0.536934E-01
  0.588714E-01  0.632468E-01  0.657687E-01  0.661508E-01  0.647684E-01  0.622884E-01
  0.593659E-01  0.565067E-01  0.540169E-01  0.519974E-01  0.503972E-01  0.491053E-01
  0.480248E-01  0.471020E-01  0.463310E-01  0.457528E-01  0.454365E-01  0.454365E-01
  0.457528E-01  0.463310E-01  0.471020E-01  0.480248E-01  0.491053E-01  0.503972E-01
  0.519974E-01  0.540169E-01  0.565067E-01  0.593659E-01  0.622884E-01  0.647684E-01
  0.661508E-01  0.657687E-01  0.632468E-01  0.588714E-01  0.495863E-01  0.419489E-01
  0.366729E-01  0.348114E-01  0.366729E-01  0.419489E-01  0.495863E-01  0.577399E-01
  0.643148E-01  0.679156E-01  0.683705E-01  0.664337E-01  0.631375E-01  0.593659E-01
  0.557295E-01  0.525627E-01  0.499613E-01  0.478695E-01  0.461868E-01  0.448340E-01
  0.437665E-01  0.429721E-01  0.424704E-01  0.422971E-01  0.424704E-01  0.429721E-01
  0.437665E-01  0.448340E-01  0.461868E-01  0.478695E-01  0.499613E-01  0.525627E-01
  0.557295E-01  0.593659E-01  0.631375E-01  0.664337E-01  0.683705E-01  0.679156E-01
  0.643148E-01  0.577399E-01  0.495863E-01  0.419489E-01  0.351179E-01  0.314123E-01
  0.314123E-01  0.351179E-01  0.419489E-01  0.504743E-01  0.585206E-01  0.640315E-01
  0.660576E-01  0.649545E-01  0.617819E-01  0.576306E-01  0.533193E-01  0.493576E-01
  0.459832E-01  0.432298E-01  0.410296E-01  0.392993E-01  0.379727E-01  0.370004E-01
  0.363524E-01  0.360244E-01  0.360244E-01  0.363524E-01  0.370004E-01  0.379727E-01
  0.392993E-01  0.410296E-01  0.432298E-01  0.459832E-01  0.493576E-01  0.533193E-01
  0.576306E-01  0.617819E-01  0.649545E-01  0.660576E-01  0.640315E-01  0.585206E-01
  0.504743E-01  0.419489E-01  0.366729E-01  0.314123E-01  0.295769E-01  0.314123E-01
  0.366729E-01  0.444181E-01  0.528033E-01  0.595544E-01  0.630464E-01  0.630146E-01
  0.602953E-01  0.560707E-01  0.513409E-01  0.467787E-01  0.427539E-01  0.393940E-01
  0.366755E-01  0.345230E-01  0.328645E-01  0.316384E-01  0.307916E-01  0.302900E-01
  0.301229E-01  0.302900E-01  0.307916E-01  0.316384E-01  0.328645E-01  0.345230E-01
  0.366755E-01  0.393940E-01  0.427539E-01  0.467787E-01  0.513409E-01  0.560707E-01
  0.602953E-01  0.630146E-01  0.630464E-01  0.595544E-01  0.528033E-01  0.444181E-01
  0.366729E-01  0.348114E-01  0.314123E-01  0.314123E-01  0.348114E-01  0.410295E-01
  0.486672E-01  0.556342E-01  0.599877E-01  0.608806E-01  0.587356E-01  0.546448E-01
  0.497055E-01  0.447242E-01  0.401892E-01  0.363200E-01  0.331447E-01  0.306010E-01
  0.286129E-01  0.271147E-01  0.260454E-01  0.253543E-01  0.250130E-01  0.250130E-01
  0.253543E-01  0.260454E-01  0.271147E-01  0.286129E-01  0.306010E-01  0.331447E-01
  0.363200E-01  0.401892E-01  0.447242E-01  0.497055E-01  0.546448E-01  0.587356E-01
  0.608806E-01  0.599877E-01  0.556342E-01  0.486672E-01  0.410295E-01  0.348114E-01
  0.366729E-01  0.351179E-01  0.366729E-01  0.410295E-01  0.471670E-01  0.533565E-01
  0.577003E-01  0.590161E-01  0.572976E-01  0.533955E-01  0.483779E-01  0.431199E-01
  0.381981E-01  0.339140E-01  0.303524E-01  0.274716E-01  0.251927E-01  0.234433E-01
  0.221590E-01  0.212807E-01  0.207659E-01  0.205956E-01  0.207659E-01  0.212807E-01
  0.221590E-01  0.234433E-01  0.251927E-01  0.274716E-01  0.303524E-01  0.339140E-01
  0.381981E-01  0.431199E-01  0.483779E-01  0.533955E-01  0.572976E-01  0.590161E-01
  0.577003E-01  0.533565E-01  0.471670E-01  0.410295E-01  0.366729E-01  0.419489E-01
  0.419489E-01  0.444181E-01  0.486672E-01  0.533565E-01  0.568528E-01  0.579216E-01
  0.562615E-01  0.524341E-01  0.473681E-01  0.419220E-01  0.367110E-01  0.320930E-01
  0.282053E-01  0.250345E-01  0.225043E-01  0.205354E-01  0.190581E-01  0.180079E-01
  0.173318E-01  0.169990E-01  0.169990E-01  0.173318E-01  0.180079E-01  0.190581E-01
  0.205354E-01  0.225043E-01  0.250345E-01  0.282053E-01  0.320930E-01  0.367110E-01
  0.419220E-01  0.473681E-01  0.524341E-01  0.562615E-01  0.579216E-01  0.568528E-01
  0.533565E-01  0.486672E-01  0.444181E-01  0.419489E-01  0.495863E-01  0.504743E-01
  0.528033E-01  0.556342E-01  0.577003E-01  0.579216E-01  0.558816E-01  0.519023E-01
  0.467221E-01  0.411129E-01  0.356751E-01  0.307885E-01  0.266260E-01  0.232023E-01
  0.204504E-01  0.182869E-01  0.166370E-01  0.154318E-01  0.146102E-01  0.141299E-01
  0.139713E-01  0.141299E-01  0.146102E-01  0.154318E-01  0.166370E-01  0.182869E-01
  0.204504E-01  0.232023E-01  0.266260E-01  0.307885E-01  0.356751E-01  0.411129E-01
  0.467221E-01  0.519023E-01  0.558816E-01  0.579216E-01  0.577003E-01  0.556342E-01
  0.528033E-01  0.504743E-01  0.495863E-01  0.577399E-01  0.585206E-01  0.595544E-01
  0.599877E-01  0.590161E-01  0.562615E-01  0.519023E-01  0.464977E-01  0.407002E-01
  0.350585E-01  0.299446E-01  0.255469E-01  0.219006E-01  0.189493E-01  0.166093E-01
  0.148014E-01  0.134535E-01  0.124993E-01  0.118869E-01  0.115863E-01  0.115863E-01
  0.118869E-01  0.124993E-01  0.134535E-01  0.148014E-01  0.166093E-01  0.189493E-01
  0.219006E-01  0.255469E-01  0.299446E-01  0.350585E-01  0.407002E-01  0.464977E-01
  0.519023E-01  0.562615E-01  0.590161E-01  0.599877E-01  0.595544E-01  0.585206E-01
  0.577399E-01  0.577399E-01  0.643148E-01  0.640315E-01  0.630464E-01  0.608806E-01
  0.572976E-01  0.524341E-01  0.467221E-01  0.407002E-01  0.348526E-01  0.295281E-01
  0.249165E-01  0.210656E-01  0.179289E-01  0.154243E-01  0.134690E-01  0.119873E-01
  0.109095E-01  0.101769E-01  0.975009E-02  0.960958E-02  0.975009E-02  0.101769E-01
  0.109095E-01  0.119873E-01  0.134690E-01  0.154243E-01  0.179289E-01  0.210656E-01
  0.249165E-01  0.295281E-01  0.348526E-01  0.407002E-01  0.467221E-01  0.524341E-01
  0.572976E-01  0.608806E-01  0.630464E-01  0.640315E-01  0.643148E-01  0.643485E-01
  0.643148E-01  0.679156E-01  0.660576E-01  0.630146E-01  0.587356E-01  0.533955E-01
  0.473681E-01  0.411129E-01  0.350585E-01  0.295281E-01  0.247085E-01  0.206562E-01
  0.173348E-01  0.146665E-01  0.125668E-01  0.109561E-01  0.976028E-02  0.891540E-02
  0.837460E-02  0.811017E-02  0.811017E-02  0.837460E-02  0.891540E-02  0.976028E-02
  0.109561E-01  0.125668E-01  0.146665E-01  0.173348E-01  0.206562E-01  0.247085E-01
  0.295281E-01  0.350585E-01  0.411129E-01  0.473681E-01  0.533955E-01  0.587356E-01
  0.630146E-01  0.660576E-01  0.679156E-01  0.687698E-01  0.687698E-01  0.679156E-01
  0.683705E-01  0.649545E-01  0.602953E-01  0.546448E-01  0.483779E-01  0.419220E-01
  0.356751E-01  0.299446E-01  0.249165E-01  0.206562E-01  0.171392E-01  0.142955E-01
  0.120424E-01  0.102980E-01  0.898353E-02  0.802931E-02  0.738181E-02  0.700599E-02
  0.688272E-02  0.700599E-02  0.738181E-02  0.802931E-02  0.898353E-02  0.102980E-01
  0.120424E-01  0.142955E-01  0.171392E-01  0.206562E-01  0.249165E-01  0.299446E-01
  0.356751E-01  0.419220E-01  0.483779E-01  0.546448E-01  0.602953E-01  0.649545E-01
  0.683705E-01  0.704309E-01  0.711164E-01  0.704309E-01  0.683705E-01  0.664337E-01
  0.617819E-01  0.560707E-01  0.497055E-01  0.431199E-01  0.367110E-01  0.307885E-01
  0.255469E-01  0.210656E-01  0.173348E-01  0.142955E-01  0.118698E-01  0.997613E-02
  0.853268E-02  0.746443E-02  0.671112E-02  0.623062E-02  0.599679E-02  0.599679E-02
  0.623062E-02  0.671112E-02  0.746443E-02  0.853268E-02  0.997613E-02  0.118698E-01
  0.142955E-01  0.173348E-01  0.210656E-01  0.255469E-01  0.307885E-01  0.367110E-01
  0.431199E-01  0.497055E-01  0.560707E-01  0.617819E-01  0.664337E-01  0.697057E-01
  0.713906E-01  0.713906E-01  0.697057E-01  0.664337E-01  0.631375E-01  0.576306E-01
  0.513409E-01  0.447242E-01  0.381981E-01  0.320930E-01  0.266260E-01  0.219006E-01
  0.179289E-01  0.146665E-01  0.120424E-01  0.997613E-02  0.838449E-02  0.718874E-02
  0.632273E-02  0.573743E-02  0.539960E-02  0.528928E-02  0.539960E-02  0.573743E-02
  0.632273E-02  0.718874E-02  0.838449E-02  0.997613E-02  0.120424E-01  0.146665E-01
  0.179289E-01  0.219006E-01  0.266260E-01  0.320930E-01  0.381981E-01  0.447242E-01
  0.513409E-01  0.576306E-01  0.631375E-01  0.674289E-01  0.701543E-01  0.710885E-01
  0.701543E-01  0.674289E-01  0.631375E-01  0.593659E-01  0.533193E-01  0.467787E-01
  0.401892E-01  0.339140E-01  0.282053E-01  0.232023E-01  0.189493E-01  0.154243E-01
  0.125668E-01  0.102980E-01  0.853268E-02  0.718874E-02  0.619545E-02  0.549772E-02
  0.505551E-02  0.484159E-02  0.484159E-02  0.505551E-02  0.549772E-02  0.619545E-02
  0.718874E-02  0.853268E-02  0.102980E-01  0.125668E-01  0.154243E-01  0.189493E-01
  0.232023E-01  0.282053E-01  0.339140E-01  0.401892E-01  0.467787E-01  0.533193E-01
  0.593659E-01  0.644436E-01  0.681139E-01  0.700402E-01  0.700402E-01  0.681139E-01
  0.644436E-01  0.593659E-01  0.557295E-01  0.493576E-01  0.427539E-01  0.363200E-01
  0.303524E-01  0.250345E-01  0.204504E-01  0.166093E-01  0.134690E-01  0.109561E-01
  0.898353E-02  0.746443E-02  0.632273E-02  0.549772E-02  0.494323E-02  0.462526E-02
  0.452187E-02  0.462526E-02  0.494323E-02  0.549772E-02  0.632273E-02  0.746443E-02
  0.898353E-02  0.109561E-01  0.134690E-01  0.166093E-01  0.204504E-01  0.250345E-01
  0.303524E-01  0.363200E-01  0.427539E-01  0.493576E-01  0.557295E-01  0.613978E-01
  0.658816E-01  0.687631E-01  0.697574E-01  0.687631E-01  0.658816E-01  0.613978E-01
  0.557295E-01  0.525627E-01  0.459832E-01  0.393940E-01  0.331447E-01  0.274716E-01
  0.225043E-01  0.182869E-01  0.148014E-01  0.119873E-01  0.976028E-02  0.802931E-02
  0.671112E-02  0.573743E-02  0.505551E-02  0.462526E-02  0.441795E-02  0.441795E-02
  0.462526E-02  0.505551E-02  0.573743E-02  0.671112E-02  0.802931E-02  0.976028E-02
  0.119873E-01  0.148014E-01  0.182869E-01  0.225043E-01  0.274716E-01  0.331447E-01
  0.393940E-01  0.459832E-01  0.525627E-01  0.586881E-01  0.638688E-01  0.676366E-01
  0.696225E-01  0.696225E-01  0.676366E-01  0.638688E-01  0.586881E-01  0.525627E-01
  0.499613E-01  0.432298E-01  0.366755E-01  0.306010E-01  0.251927E-01  0.205354E-01
  0.166370E-01  0.134535E-01  0.109095E-01  0.891540E-02  0.738181E-02  0.623062E-02
  0.539960E-02  0.484159E-02  0.452187E-02  0.441795E-02  0.452187E-02  0.484159E-02
  0.539960E-02  0.623062E-02  0.738181E-02  0.891540E-02  0.109095E-01  0.134535E-01
  0.166370E-01  0.205354E-01  0.251927E-01  0.306010E-01  0.366755E-01  0.432298E-01
  0.499613E-01  0.564591E-01  0.622413E-01  0.668165E-01  0.697574E-01  0.707722E-01
  0.697574E-01  0.668165E-01  0.622413E-01  0.564591E-01  0.499613E-01  0.478695E-01
  0.410296E-01  0.345230E-01  0.286129E-01  0.234433E-01  0.190581E-01  0.154318E-01
  0.124993E-01  0.101769E-01  0.837460E-02  0.700599E-02  0.599679E-02  0.528928E-02
  0.484159E-02  0.462526E-02  0.462526E-02  0.484159E-02  0.528928E-02  0.599679E-02
  0.700599E-02  0.837460E-02  0.101769E-01  0.124993E-01  0.154318E-01  0.190581E-01
  0.234433E-01  0.286129E-01  0.345230E-01  0.410296E-01  0.478695E-01  0.546633E-01
  0.609465E-01  0.662244E-01  0.700402E-01  0.720433E-01  0.720433E-01  0.700402E-01
  0.662244E-01  0.609465E-01  0.546633E-01  0.478695E-01  0.461868E-01  0.392993E-01
  0.328645E-01  0.271147E-01  0.221590E-01  0.180079E-01  0.146102E-01  0.118869E-01
  0.975009E-02  0.811017E-02  0.688272E-02  0.599679E-02  0.539960E-02  0.505551E-02
  0.494323E-02  0.505551E-02  0.539960E-02  0.599679E-02  0.688272E-02  0.811017E-02
  0.975009E-02  0.118869E-01  0.146102E-01  0.180079E-01  0.221590E-01  0.271147E-01
  0.328645E-01  0.392993E-01  0.461868E-01  0.531738E-01  0.598153E-01  0.656277E-01
  0.701543E-01  0.730275E-01  0.740120E-01  0.730275E-01  0.701543E-01  0.656277E-01
  0.598153E-01  0.531738E-01  0.461868E-01  0.448340E-01  0.379727E-01  0.316384E-01
  0.260454E-01  0.212807E-01  0.173318E-01  0.141299E-01  0.115863E-01  0.960958E-02
  0.811017E-02  0.700599E-02  0.623062E-02  0.573743E-02  0.549772E-02  0.549772E-02
  0.573743E-02  0.623062E-02  0.700599E-02  0.811017E-02  0.960958E-02  0.115863E-01
  0.141299E-01  0.173318E-01  0.212807E-01  0.260454E-01  0.316384E-01  0.379727E-01
  0.448340E-01  0.518822E-01  0.586834E-01  0.647684E-01  0.697057E-01  0.731649E-01
  0.749405E-01  0.749405E-01  0.731649E-01  0.697057E-01  0.647684E-01  0.586834E-01
  0.518822E-01  0.448340E-01  0.437665E-01  0.370004E-01  0.307916E-01  0.253543E-01
  0.207659E-01  0.169990E-01  0.139713E-01  0.115863E-01  0.975009E-02  0.837460E-02
  0.738181E-02  0.671112E-02  0.632273E-02  0.619545E-02  0.632273E-02  0.671112E-02
  0.738181E-02  0.837460E-02  0.975009E-02  0.115863E-01  0.139713E-01  0.169990E-01
  0.207659E-01  0.253543E-01  0.307916E-01  0.370004E-01  0.437665E-01  0.507399E-01
  0.574703E-01  0.634809E-01  0.683705E-01  0.718981E-01  0.739938E-01  0.746844E-01
  0.739938E-01  0.718981E-01  0.683705E-01  0.634809E-01  0.574703E-01  0.507399E-01
  0.437665E-01  0.429721E-01  0.363524E-01  0.302900E-01  0.250130E-01  0.205956E-01
  0.169990E-01  0.141299E-01  0.118869E-01  0.101769E-01  0.891540E-02  0.802931E-02
  0.746443E-02  0.718874E-02  0.718874E-02  0.746443E-02  0.802931E-02  0.891540E-02
  0.101769E-01  0.118869E-01  0.141299E-01  0.169990E-01  0.205956E-01  0.250130E-01
  0.302900E-01  0.363524E-01  0.429721E-01  0.497615E-01  0.562095E-01  0.617775E-01
  0.660576E-01  0.689216E-01  0.705399E-01  0.712299E-01  0.712299E-01  0.705399E-01
  0.689216E-01  0.660576E-01  0.617775E-01  0.562095E-01  0.497615E-01  0.429721E-01
  0.424704E-01  0.360244E-01  0.301229E-01  0.250130E-01  0.207659E-01  0.173318E-01
  0.146102E-01  0.124993E-01  0.109095E-01  0.976028E-02  0.898353E-02  0.853268E-02
  0.838449E-02  0.853268E-02  0.898353E-02  0.976028E-02  0.109095E-01  0.124993E-01
  0.146102E-01  0.173318E-01  0.207659E-01  0.250130E-01  0.301229E-01  0.360244E-01
  0.424704E-01  0.490175E-01  0.550493E-01  0.598902E-01  0.630464E-01  0.644719E-01
  0.646360E-01  0.642914E-01  0.640920E-01  0.642914E-01  0.646360E-01  0.644719E-01
  0.630464E-01  0.598902E-01  0.550493E-01  0.490175E-01  0.424704E-01  0.422971E-01
  0.360244E-01  0.302900E-01  0.253543E-01  0.212807E-01  0.180079E-01  0.154318E-01
  0.134535E-01  0.119873E-01  0.109561E-01  0.102980E-01  0.997613E-02  0.997613E-02
  0.102980E-01  0.109561E-01  0.119873E-01  0.134535E-01  0.154318E-01  0.180079E-01
  0.212807E-01  0.253543E-01  0.302900E-01  0.360244E-01  0.422971E-01  0.486079E-01
  0.542123E-01  0.582328E-01  0.599877E-01  0.594306E-01  0.573242E-01  0.549204E-01
  0.533873E-01  0.533873E-01  0.549204E-01  0.573242E-01  0.594306E-01  0.599877E-01
  0.582328E-01  0.542123E-01  0.486079E-01  0.422971E-01  0.424704E-01  0.363524E-01
  0.307916E-01  0.260454E-01  0.221590E-01  0.190581E-01  0.166370E-01  0.148014E-01
  0.134690E-01  0.125668E-01  0.120424E-01  0.118698E-01  0.120424E-01  0.125668E-01
  0.134690E-01  0.148014E-01  0.166370E-01  0.190581E-01  0.221590E-01  0.260454E-01
  0.307916E-01  0.363524E-01  0.424704E-01  0.486079E-01  0.539051E-01  0.572566E-01
  0.577003E-01  0.550659E-01  0.503439E-01  0.452903E-01  0.415779E-01  0.402336E-01
  0.415779E-01  0.452903E-01  0.503439E-01  0.550659E-01  0.577003E-01  0.572566E-01
  0.539051E-01  0.486079E-01  0.424704E-01  0.429721E-01  0.370004E-01  0.316384E-01
  0.271147E-01  0.234433E-01  0.205354E-01  0.182869E-01  0.166093E-01  0.154243E-01
  0.146665E-01  0.142955E-01  0.142955E-01  0.146665E-01  0.154243E-01  0.166093E-01
  0.182869E-01  0.205354E-01  0.234433E-01  0.271147E-01  0.316384E-01  0.370004E-01
  0.429721E-01  0.490175E-01  0.542123E-01  0.572566E-01  0.568528E-01  0.525474E-01
  0.454105E-01  0.376753E-01  0.315275E-01  0.282389E-01  0.282389E-01  0.315275E-01
  0.376753E-01  0.454105E-01  0.525474E-01  0.568528E-01  0.572566E-01  0.542123E-01
  0.490175E-01  0.429721E-01  0.437665E-01  0.379727E-01  0.328645E-01  0.286129E-01
  0.251927E-01  0.225043E-01  0.204504E-01  0.189493E-01  0.179289E-01  0.173348E-01
  0.171392E-01  0.173348E-01  0.179289E-01  0.189493E-01  0.204504E-01  0.225043E-01
  0.251927E-01  0.286129E-01  0.328645E-01  0.379727E-01  0.437665E-01  0.497615E-01
  0.550493E-01  0.582328E-01  0.577003E-01  0.525474E-01  0.436435E-01  0.335667E-01
  0.251044E-01  0.198324E-01  0.180896E-01  0.198324E-01  0.251044E-01  0.335667E-01
  0.436435E-01  0.525474E-01  0.577003E-01  0.582328E-01  0.550493E-01  0.497615E-01
  0.437665E-01  0.448340E-01  0.392993E-01  0.345230E-01  0.306010E-01  0.274716E-01
  0.250345E-01  0.232023E-01  0.219006E-01  0.210656E-01  0.206562E-01  0.206562E-01
  0.210656E-01  0.219006E-01  0.232023E-01  0.250345E-01  0.274716E-01  0.306010E-01
  0.345230E-01  0.392993E-01  0.448340E-01  0.507399E-01  0.562095E-01  0.598902E-01
  0.599877E-01  0.550659E-01  0.454105E-01  0.335667E-01  0.229401E-01  0.157150E-01
  0.122797E-01  0.122797E-01  0.157150E-01  0.229401E-01  0.335667E-01  0.454105E-01
  0.550659E-01  0.599877E-01  0.598902E-01  0.562095E-01  0.507399E-01  0.448340E-01
  0.461868E-01  0.410296E-01  0.366755E-01  0.331447E-01  0.303524E-01  0.282053E-01
  0.266260E-01  0.255469E-01  0.249165E-01  0.247085E-01  0.249165E-01  0.255469E-01
  0.266260E-01  0.282053E-01  0.303524E-01  0.331447E-01  0.366755E-01  0.410296E-01
  0.461868E-01  0.518822E-01  0.574703E-01  0.617775E-01  0.630464E-01  0.594306E-01
  0.503439E-01  0.376753E-01  0.251044E-01  0.157150E-01  0.104605E-01  0.884245E-02
  0.104605E-01  0.157150E-01  0.251044E-01  0.376753E-01  0.503439E-01  0.594306E-01
  0.630464E-01  0.617775E-01  0.574703E-01  0.518822E-01  0.461868E-01  0.478695E-01
  0.432298E-01  0.393940E-01  0.363200E-01  0.339140E-01  0.320930E-01  0.307885E-01
  0.299446E-01  0.295281E-01  0.295281E-01  0.299446E-01  0.307885E-01  0.320930E-01
  0.339140E-01  0.363200E-01  0.393940E-01  0.432298E-01  0.478695E-01  0.531738E-01
  0.586834E-01  0.634809E-01  0.660576E-01  0.644719E-01  0.573242E-01  0.452903E-01
  0.315275E-01  0.198324E-01  0.122797E-01  0.884245E-02  0.884245E-02  0.122797E-01
  0.198324E-01  0.315275E-01  0.452903E-01  0.573242E-01  0.644719E-01  0.660576E-01
  0.634809E-01  0.586834E-01  0.531738E-01  0.478695E-01  0.499613E-01  0.459832E-01
  0.427539E-01  0.401892E-01  0.381981E-01  0.367110E-01  0.356751E-01  0.350585E-01
  0.348526E-01  0.350585E-01  0.356751E-01  0.367110E-01  0.381981E-01  0.401892E-01
  0.427539E-01  0.459832E-01  0.499613E-01  0.546633E-01  0.598153E-01  0.647684E-01
  0.683705E-01  0.689216E-01  0.646360E-01  0.549204E-01  0.415779E-01  0.282389E-01
  0.180896E-01  0.122797E-01  0.104605E-01  0.122797E-01  0.180896E-01  0.282389E-01
  0.415779E-01  0.549204E-01  0.646360E-01  0.689216E-01  0.683705E-01  0.647684E-01
  0.598153E-01  0.546633E-01  0.499613E-01  0.525627E-01  0.493576E-01  0.467787E-01
  0.447242E-01  0.431199E-01  0.419220E-01  0.411129E-01  0.407002E-01  0.407002E-01
  0.411129E-01  0.419220E-01  0.431199E-01  0.447242E-01  0.467787E-01  0.493576E-01
  0.525627E-01  0.564591E-01  0.609465E-01  0.656277E-01  0.697057E-01  0.718981E-01
  0.705399E-01  0.642914E-01  0.533873E-01  0.402336E-01  0.282389E-01  0.198324E-01
  0.157150E-01  0.157150E-01  0.198324E-01  0.282389E-01  0.402336E-01  0.533873E-01
  0.642914E-01  0.705399E-01  0.718981E-01  0.697057E-01  0.656277E-01  0.609465E-01
  0.564591E-01  0.525627E-01  0.557295E-01  0.533193E-01  0.513409E-01  0.497055E-01
  0.483779E-01  0.473681E-01  0.467221E-01  0.464977E-01  0.467221E-01  0.473681E-01
  0.483779E-01  0.497055E-01  0.513409E-01  0.533193E-01  0.557295E-01  0.586881E-01
  0.622413E-01  0.662244E-01  0.701543E-01  0.731649E-01  0.739938E-01  0.712299E-01
  0.640920E-01  0.533873E-01  0.415779E-01  0.315275E-01  0.251044E-01  0.229401E-01
  0.251044E-01  0.315275E-01  0.415779E-01  0.533873E-01  0.640920E-01  0.712299E-01
  0.739938E-01  0.731649E-01  0.701543E-01  0.662244E-01  0.622413E-01  0.586881E-01
  0.557295E-01  0.593659E-01  0.576306E-01  0.560707E-01  0.546448E-01  0.533955E-01
  0.524341E-01  0.519023E-01  0.519023E-01  0.524341E-01  0.533955E-01  0.546448E-01
  0.560707E-01  0.576306E-01  0.593659E-01  0.613978E-01  0.638688E-01  0.668165E-01
  0.700402E-01  0.730275E-01  0.749405E-01  0.746844E-01  0.712299E-01  0.642914E-01
  0.549204E-01  0.452903E-01  0.376753E-01  0.335667E-01  0.335667E-01  0.376753E-01
  0.452903E-01  0.549204E-01  0.642914E-01  0.712299E-01  0.746844E-01  0.749405E-01
  0.730275E-01  0.700402E-01  0.668165E-01  0.638688E-01  0.613978E-01  0.593659E-01
  0.631375E-01  0.617819E-01  0.602953E-01  0.587356E-01  0.572976E-01  0.562615E-01
  0.558816E-01  0.562615E-01  0.572976E-01  0.587356E-01  0.602953E-01  0.617819E-01
  0.631375E-01  0.644436E-01  0.658816E-01  0.676366E-01  0.697574E-01  0.720433E-01
  0.740120E-01  0.749405E-01  0.739938E-01  0.705399E-01  0.646360E-01  0.573242E-01
  0.503439E-01  0.454105E-01  0.436435E-01  0.454105E-01  0.503439E-01  0.573242E-01
  0.646360E-01  0.705399E-01  0.739938E-01  0.749405E-01  0.740120E-01  0.720433E-01
  0.697574E-01  0.676366E-01  0.658816E-01  0.644436E-01  0.631375E-01  0.664337E-01
  0.649545E-01  0.630146E-01  0.608806E-01  0.590161E-01  0.579216E-01  0.579216E-01
  0.590161E-01  0.608806E-01  0.630146E-01  0.649545E-01  0.664337E-01  0.674289E-01
  0.681139E-01  0.687631E-01  0.696225E-01  0.707722E-01  0.720433E-01  0.730275E-01
  0.731649E-01  0.718981E-01  0.689216E-01  0.644719E-01  0.594306E-01  0.550659E-01
  0.525474E-01  0.525474E-01  0.550659E-01  0.594306E-01  0.644719E-01  0.689216E-01
  0.718981E-01  0.731649E-01  0.730275E-01  0.720433E-01  0.707722E-01  0.696225E-01
  0.687631E-01  0.681139E-01  0.674289E-01  0.664337E-01  0.683705E-01  0.660576E-01
  0.630464E-01  0.599877E-01  0.577003E-01  0.568528E-01  0.577003E-01  0.599877E-01
  0.630464E-01  0.660576E-01  0.683705E-01  0.697057E-01  0.701543E-01  0.700402E-01
  0.697574E-01  0.696225E-01  0.697574E-01  0.700402E-01  0.701543E-01  0.697057E-01
  0.683705E-01  0.660576E-01  0.630464E-01  0.599877E-01  0.577003E-01  0.568528E-01
  0.577003E-01  0.599877E-01  0.630464E-01  0.660576E-01  0.683705E-01  0.697057E-01
  0.701543E-01  0.700402E-01  0.697574E-01  0.696225E-01  0.697574E-01  0.700402E-01
  0.701543E-01  0.697057E-01  0.683705E-01  0.679156E-01  0.640315E-01  0.595544E-01
  0.556342E-01  0.533565E-01  0.533565E-01  0.556342E-01  0.595544E-01  0.640315E-01
  0.679156E-01  0.704309E-01  0.713906E-01  0.710885E-01  0.700402E-01  0.687631E-01
  0.676366E-01  0.668165E-01  0.662244E-01  0.656277E-01  0.647684E-01  0.634809E-01
  0.617775E-01  0.598902E-01  0.582328E-01  0.572566E-01  0.572566E-01  0.582328E-01
  0.598902E-01  0.617775E-01  0.634809E-01  0.647684E-01  0.656277E-01  0.662244E-01
  0.668165E-01  0.676366E-01  0.687631E-01  0.700402E-01  0.710885E-01  0.713906E-01
  0.704309E-01  0.679156E-01  0.643148E-01  0.585206E-01  0.528033E-01  0.486672E-01
  0.471670E-01  0.486672E-01  0.528033E-01  0.585206E-01  0.643148E-01  0.687698E-01
  0.711164E-01  0.713906E-01  0.701543E-01  0.681139E-01  0.658816E-01  0.638688E-01
  0.622413E-01  0.609465E-01  0.598153E-01  0.586834E-01  0.574703E-01  0.562095E-01
  0.550493E-01  0.542123E-01  0.539051E-01  0.542123E-01  0.550493E-01  0.562095E-01
  0.574703E-01  0.586834E-01  0.598153E-01  0.609465E-01  0.622413E-01  0.638688E-01
  0.658816E-01  0.681139E-01  0.701543E-01  0.713906E-01  0.711164E-01  0.687698E-01
  0.643148E-01  0.577399E-01  0.504743E-01  0.444181E-01  0.410295E-01  0.410295E-01
  0.444181E-01  0.504743E-01  0.577399E-01  0.643485E-01  0.687698E-01  0.704309E-01
  0.697057E-01  0.674289E-01  0.644436E-01  0.613978E-01  0.586881E-01  0.564591E-01
  0.546633E-01  0.531738E-01  0.518822E-01  0.507399E-01  0.497615E-01  0.490175E-01
  0.486079E-01  0.486079E-01  0.490175E-01  0.497615E-01  0.507399E-01  0.518822E-01
  0.531738E-01  0.546633E-01  0.564591E-01  0.586881E-01  0.613978E-01  0.644436E-01
  0.674289E-01  0.697057E-01  0.704309E-01  0.687698E-01  0.643485E-01  0.577399E-01
  0.495863E-01  0.419489E-01  0.366729E-01  0.348114E-01  0.366729E-01  0.419489E-01
  0.495863E-01  0.577399E-01  0.643148E-01  0.679156E-01  0.683705E-01  0.664337E-01
  0.631375E-01  0.593659E-01  0.557295E-01  0.525627E-01  0.499613E-01  0.478695E-01
  0.461868E-01  0.448340E-01  0.437665E-01  0.429721E-01  0.424704E-01  0.422971E-01
  0.424704E-01  0.429721E-01  0.437665E-01  0.448340E-01  0.461868E-01  0.478695E-01
  0.499613E-01  0.525627E-01  0.557295E-01  0.593659E-01  0.631375E-01  0.664337E-01
  0.683705E-01  0.679156E-01  0.643148E-01  0.577399E-01  0.495863E-01  0.342465E-01
  0.262321E-01  0.221104E-01  0.221104E-01  0.262321E-01  0.342465E-01  0.450034E-01
  0.560688E-01  0.646071E-01  0.689216E-01  0.691144E-01  0.664337E-01  0.622884E-01
  0.577470E-01  0.534751E-01  0.497979E-01  0.467849E-01  0.443682E-01  0.424537E-01
  0.409702E-01  0.398713E-01  0.391331E-01  0.387577E-01  0.387577E-01  0.391331E-01
  0.398713E-01  0.409702E-01  0.424537E-01  0.443682E-01  0.467849E-01  0.497979E-01
  0.534751E-01  0.577470E-01  0.622884E-01  0.664337E-01  0.691144E-01  0.689216E-01
  0.646071E-01  0.560688E-01  0.450034E-01  0.342465E-01  0.262321E-01  0.202623E-01
  0.182821E-01  0.202623E-01  0.262321E-01  0.357903E-01  0.472457E-01  0.576945E-01
  0.644719E-01  0.666237E-01  0.649545E-01  0.609927E-01  0.560998E-01  0.511925E-01
  0.467849E-01  0.430802E-01  0.400785E-01  0.376980E-01  0.358563E-01  0.344873E-01
  0.335376E-01  0.329736E-01  0.327855E-01  0.329736E-01  0.335376E-01  0.344873E-01
  0.358563E-01  0.376980E-01  0.400785E-01  0.430802E-01  0.467849E-01  0.511925E-01
  0.560998E-01  0.609927E-01  0.649545E-01  0.666237E-01  0.644719E-01  0.576945E-01
  0.472457E-01  0.357903E-01  0.262321E-01  0.221104E-01  0.182821E-01  0.182821E-01
  0.221104E-01  0.297074E-01  0.401387E-01  0.510403E-01  0.594306E-01  0.634098E-01
  0.630146E-01  0.595795E-01  0.546367E-01  0.493337E-01  0.443682E-01  0.400785E-01
  0.365460E-01  0.337161E-01  0.315026E-01  0.298307E-01  0.286355E-01  0.278629E-01
  0.274815E-01  0.274815E-01  0.278629E-01  0.286355E-01  0.298307E-01  0.315026E-01
  0.337161E-01  0.365460E-01  0.400785E-01  0.443682E-01  0.493337E-01  0.546367E-01
  0.595795E-01  0.630146E-01  0.634098E-01  0.594306E-01  0.510403E-01  0.401387E-01
  0.297074E-01  0.221104E-01  0.221104E-01  0.202623E-01  0.221104E-01  0.276168E-01
  0.362535E-01  0.463092E-01  0.550659E-01  0.601627E-01  0.608806E-01  0.581001E-01
  0.533135E-01  0.478136E-01  0.424537E-01  0.376980E-01  0.337161E-01  0.304924E-01
  0.279424E-01  0.259829E-01  0.245431E-01  0.235593E-01  0.229837E-01  0.227935E-01
  0.229837E-01  0.235593E-01  0.245431E-01  0.259829E-01  0.279424E-01  0.304924E-01
  0.337161E-01  0.376980E-01  0.424537E-01  0.478136E-01  0.533135E-01  0.581001E-01
  0.608806E-01  0.601627E-01  0.550659E-01  0.463092E-01  0.362535E-01  0.276168E-01
  0.221104E-01  0.262321E-01  0.262321E-01  0.297074E-01  0.362535E-01  0.446090E-01
  0.525474E-01  0.577427E-01  0.590161E-01  0.567368E-01  0.521627E-01  0.465927E-01
  0.409702E-01  0.358563E-01  0.315026E-01  0.279424E-01  0.251021E-01  0.228904E-01
  0.212293E-01  0.200490E-01  0.192907E-01  0.189181E-01  0.189181E-01  0.192907E-01
  0.200490E-01  0.212293E-01  0.228904E-01  0.251021E-01  0.279424E-01  0.315026E-01
  0.358563E-01  0.409702E-01  0.465927E-01  0.521627E-01  0.567368E-01  0.590161E-01
  0.577427E-01  0.525474E-01  0.446090E-01  0.362535E-01  0.297074E-01  0.262321E-01
  0.342465E-01  0.357903E-01  0.401387E-01  0.463092E-01  0.525474E-01  0.568476E-01
  0.579216E-01  0.557541E-01  0.512805E-01  0.456717E-01  0.398713E-01  0.344873E-01
  0.298307E-01  0.259829E-01  0.228904E-01  0.204592E-01  0.186032E-01  0.172475E-01
  0.163248E-01  0.157864E-01  0.156087E-01  0.157864E-01  0.163248E-01  0.172475E-01
  0.186032E-01  0.204592E-01  0.228904E-01  0.259829E-01  0.298307E-01  0.344873E-01
  0.398713E-01  0.456717E-01  0.512805E-01  0.557541E-01  0.579216E-01  0.568476E-01
  0.525474E-01  0.463092E-01  0.401387E-01  0.357903E-01  0.342465E-01  0.450034E-01
  0.472457E-01  0.510403E-01  0.550659E-01  0.577427E-01  0.579216E-01  0.553937E-01
  0.507931E-01  0.450852E-01  0.391331E-01  0.335376E-01  0.286355E-01  0.245431E-01
  0.212293E-01  0.186032E-01  0.165733E-01  0.150598E-01  0.139899E-01  0.133044E-01
  0.129681E-01  0.129681E-01  0.133044E-01  0.139899E-01  0.150598E-01  0.165733E-01
  0.186032E-01  0.212293E-01  0.245431E-01  0.286355E-01  0.335376E-01  0.391331E-01
  0.450852E-01  0.507931E-01  0.553937E-01  0.579216E-01  0.577427E-01  0.550659E-01
  0.510403E-01  0.472457E-01  0.450034E-01  0.450034E-01  0.560688E-01  0.576945E-01
  0.594306E-01  0.601627E-01  0.590161E-01  0.557541E-01  0.507931E-01  0.448819E-01
  0.387577E-01  0.329736E-01  0.278629E-01  0.235593E-01  0.200490E-01  0.172475E-01
  0.150598E-01  0.134019E-01  0.121978E-01  0.113810E-01  0.109055E-01  0.107489E-01
  0.109055E-01  0.113810E-01  0.121978E-01  0.134019E-01  0.150598E-01  0.172475E-01
  0.200490E-01  0.235593E-01  0.278629E-01  0.329736E-01  0.387577E-01  0.448819E-01
  0.507931E-01  0.557541E-01  0.590161E-01  0.601627E-01  0.594306E-01  0.576945E-01
  0.560688E-01  0.554209E-01  0.560688E-01  0.646071E-01  0.644719E-01  0.634098E-01
  0.608806E-01  0.567368E-01  0.512805E-01  0.450852E-01  0.387577E-01  0.327855E-01
  0.274815E-01  0.229837E-01  0.192907E-01  0.163248E-01  0.139899E-01  0.121978E-01
  0.108690E-01  0.993257E-02  0.933392E-02  0.904098E-02  0.904098E-02  0.933392E-02
  0.993257E-02  0.108690E-01  0.121978E-01  0.139899E-01  0.163248E-01  0.192907E-01
  0.229837E-01  0.274815E-01  0.327855E-01  0.387577E-01  0.450852E-01  0.512805E-01
  0.567368E-01  0.608806E-01  0.634098E-01  0.644719E-01  0.646071E-01  0.644628E-01
  0.644628E-01  0.646071E-01  0.689216E-01  0.666237E-01  0.630146E-01  0.581001E-01
  0.521627E-01  0.456717E-01  0.391331E-01  0.329736E-01  0.274815E-01  0.227935E-01
  0.189181E-01  0.157864E-01  0.133044E-01  0.113810E-01  0.993257E-02  0.888355E-02
  0.817299E-02  0.776033E-02  0.762478E-02  0.776033E-02  0.817299E-02  0.888355E-02
  0.993257E-02  0.113810E-01  0.133044E-01  0.157864E-01  0.189181E-01  0.227935E-01
  0.274815E-01  0.329736E-01  0.391331E-01  0.456717E-01  0.521627E-01  0.581001E-01
  0.630146E-01  0.666237E-01  0.689216E-01  0.701241E-01  0.704877E-01  0.701241E-01
  0.689216E-01  0.691144E-01  0.649545E-01  0.595795E-01  0.533135E-01  0.465927E-01
  0.398713E-01  0.335376E-01  0.278629E-01  0.229837E-01  0.189181E-01  0.156087E-01
  0.129681E-01  0.109055E-01  0.933392E-02  0.817299E-02  0.735570E-02  0.683422E-02
  0.657996E-02  0.657996E-02  0.683422E-02  0.735570E-02  0.817299E-02  0.933392E-02
  0.109055E-01  0.129681E-01  0.156087E-01  0.189181E-01  0.229837E-01  0.278629E-01
  0.335376E-01  0.398713E-01  0.465927E-01  0.533135E-01  0.595795E-01  0.649545E-01
  0.691144E-01  0.718981E-01  0.732786E-01  0.732786E-01  0.718981E-01  0.691144E-01
  0.664337E-01  0.609927E-01  0.546367E-01  0.478136E-01  0.409702E-01  0.344873E-01
  0.286355E-01  0.235593E-01  0.192907E-01  0.157864E-01  0.129681E-01  0.107489E-01
  0.904098E-02  0.776033E-02  0.683422E-02  0.620801E-02  0.584580E-02  0.572729E-02
  0.584580E-02  0.620801E-02  0.683422E-02  0.776033E-02  0.904098E-02  0.107489E-01
  0.129681E-01  0.157864E-01  0.192907E-01  0.235593E-01  0.286355E-01  0.344873E-01
  0.409702E-01  0.478136E-01  0.546367E-01  0.609927E-01  0.664337E-01  0.705799E-01
  0.731649E-01  0.740416E-01  0.731649E-01  0.705799E-01  0.664337E-01  0.622884E-01
  0.560998E-01  0.493337E-01  0.424537E-01  0.358563E-01  0.298307E-01  0.245431E-01
  0.200490E-01  0.163248E-01  0.133044E-01  0.109055E-01  0.904098E-02  0.762478E-02
  0.657996E-02  0.584580E-02  0.537946E-02  0.515332E-02  0.515332E-02  0.537946E-02
  0.584580E-02  0.657996E-02  0.762478E-02  0.904098E-02  0.109055E-01  0.133044E-01
  0.163248E-01  0.200490E-01  0.245431E-01  0.298307E-01  0.358563E-01  0.424537E-01
  0.493337E-01  0.560998E-01  0.622884E-01  0.674289E-01  0.711089E-01  0.730275E-01
  0.730275E-01  0.711089E-01  0.674289E-01  0.622884E-01  0.577470E-01  0.511925E-01
  0.443682E-01  0.376980E-01  0.315026E-01  0.259829E-01  0.212293E-01  0.172475E-01
  0.139899E-01  0.113810E-01  0.933392E-02  0.776033E-02  0.657996E-02  0.572729E-02
  0.515332E-02  0.482345E-02  0.471603E-02  0.482345E-02  0.515332E-02  0.572729E-02
  0.657996E-02  0.776033E-02  0.933392E-02  0.113810E-01  0.139899E-01  0.172475E-01
  0.212293E-01  0.259829E-01  0.315026E-01  0.376980E-01  0.443682E-01  0.511925E-01
  0.577470E-01  0.635478E-01  0.681139E-01  0.710369E-01  0.720433E-01  0.710369E-01
  0.681139E-01  0.635478E-01  0.577470E-01  0.534751E-01  0.467849E-01  0.400785E-01
  0.337161E-01  0.279424E-01  0.228904E-01  0.186032E-01  0.150598E-01  0.121978E-01
  0.993257E-02  0.817299E-02  0.683422E-02  0.584580E-02  0.515332E-02  0.471603E-02
  0.450516E-02  0.450516E-02  0.471603E-02  0.515332E-02  0.584580E-02  0.683422E-02
  0.817299E-02  0.993257E-02  0.121978E-01  0.150598E-01  0.186032E-01  0.228904E-01
  0.279424E-01  0.337161E-01  0.400785E-01  0.467849E-01  0.534751E-01  0.596951E-01
  0.649479E-01  0.687631E-01  0.707722E-01  0.707722E-01  0.687631E-01  0.649479E-01
  0.596951E-01  0.534751E-01  0.497979E-01  0.430802E-01  0.365460E-01  0.304924E-01
  0.251021E-01  0.204592E-01  0.165733E-01  0.134019E-01  0.108690E-01  0.888355E-02
  0.735570E-02  0.620801E-02  0.537946E-02  0.482345E-02  0.450516E-02  0.440176E-02
  0.450516E-02  0.482345E-02  0.537946E-02  0.620801E-02  0.735570E-02  0.888355E-02
  0.108690E-01  0.134019E-01  0.165733E-01  0.204592E-01  0.251021E-01  0.304924E-01
  0.365460E-01  0.430802E-01  0.497979E-01  0.562923E-01  0.620815E-01  0.666696E-01
  0.696225E-01  0.706422E-01  0.696225E-01  0.666696E-01  0.620815E-01  0.562923E-01
  0.497979E-01  0.467849E-01  0.400785E-01  0.337161E-01  0.279424E-01  0.228904E-01
  0.186032E-01  0.150598E-01  0.121978E-01  0.993257E-02  0.817299E-02  0.683422E-02
  0.584580E-02  0.515332E-02  0.471603E-02  0.450516E-02  0.450516E-02  0.471603E-02
  0.515332E-02  0.584580E-02  0.683422E-02  0.817299E-02  0.993257E-02  0.121978E-01
  0.150598E-01  0.186032E-01  0.228904E-01  0.279424E-01  0.337161E-01  0.400785E-01
  0.467849E-01  0.534751E-01  0.596951E-01  0.649479E-01  0.687631E-01  0.707722E-01
  0.707722E-01  0.687631E-01  0.649479E-01  0.596951E-01  0.534751E-01  0.467849E-01
  0.443682E-01  0.376980E-01  0.315026E-01  0.259829E-01  0.212293E-01  0.172475E-01
  0.139899E-01  0.113810E-01  0.933392E-02  0.776033E-02  0.657996E-02  0.572729E-02
  0.515332E-02  0.482345E-02  0.471603E-02  0.482345E-02  0.515332E-02  0.572729E-02
  0.657996E-02  0.776033E-02  0.933392E-02  0.113810E-01  0.139899E-01  0.172475E-01
  0.212293E-01  0.259829E-01  0.315026E-01  0.376980E-01  0.443682E-01  0.511925E-01
  0.577470E-01  0.635478E-01  0.681139E-01  0.710369E-01  0.720433E-01  0.710369E-01
  0.681139E-01  0.635478E-01  0.577470E-01  0.511925E-01  0.443682E-01  0.424537E-01
  0.358563E-01  0.298307E-01  0.245431E-01  0.200490E-01  0.163248E-01  0.133044E-01
  0.109055E-01  0.904098E-02  0.762478E-02  0.657996E-02  0.584580E-02  0.537946E-02
  0.515332E-02  0.515332E-02  0.537946E-02  0.584580E-02  0.657996E-02  0.762478E-02
  0.904098E-02  0.109055E-01  0.133044E-01  0.163248E-01  0.200490E-01  0.245431E-01
  0.298307E-01  0.358563E-01  0.424537E-01  0.493337E-01  0.560998E-01  0.622884E-01
  0.674289E-01  0.711089E-01  0.730275E-01  0.730275E-01  0.711089E-01  0.674289E-01
  0.622884E-01  0.560998E-01  0.493337E-01  0.424537E-01  0.409702E-01  0.344873E-01
  0.286355E-01  0.235593E-01  0.192907E-01  0.157864E-01  0.129681E-01  0.107489E-01
  0.904098E-02  0.776033E-02  0.683422E-02  0.620801E-02  0.584580E-02  0.572729E-02
  0.584580E-02  0.620801E-02  0.683422E-02  0.776033E-02  0.904098E-02  0.107489E-01
  0.129681E-01  0.157864E-01  0.192907E-01  0.235593E-01  0.286355E-01  0.344873E-01
  0.409702E-01  0.478136E-01  0.546367E-01  0.609927E-01  0.664337E-01  0.705799E-01
  0.731649E-01  0.740416E-01  0.731649E-01  0.705799E-01  0.664337E-01  0.609927E-01
  0.546367E-01  0.478136E-01  0.409702E-01  0.398713E-01  0.335376E-01  0.278629E-01
  0.229837E-01  0.189181E-01  0.156087E-01  0.129681E-01  0.109055E-01  0.933392E-02
  0.817299E-02  0.735570E-02  0.683422E-02  0.657996E-02  0.657996E-02  0.683422E-02
  0.735570E-02  0.817299E-02  0.933392E-02  0.109055E-01  0.129681E-01  0.156087E-01
  0.189181E-01  0.229837E-01  0.278629E-01  0.335376E-01  0.398713E-01  0.465927E-01
  0.533135E-01  0.595795E-01  0.649545E-01  0.691144E-01  0.718981E-01  0.732786E-01
  0.732786E-01  0.718981E-01  0.691144E-01  0.649545E-01  0.595795E-01  0.533135E-01
  0.465927E-01  0.398713E-01  0.391331E-01  0.329736E-01  0.274815E-01  0.227935E-01
  0.189181E-01  0.157864E-01  0.133044E-01  0.113810E-01  0.993257E-02  0.888355E-02
  0.817299E-02  0.776033E-02  0.762478E-02  0.776033E-02  0.817299E-02  0.888355E-02
  0.993257E-02  0.113810E-01  0.133044E-01  0.157864E-01  0.189181E-01  0.227935E-01
  0.274815E-01  0.329736E-01  0.391331E-01  0.456717E-01  0.521627E-01  0.581001E-01
  0.630146E-01  0.666237E-01  0.689216E-01  0.701241E-01  0.704877E-01  0.701241E-01
  0.689216E-01  0.666237E-01  0.630146E-01  0.581001E-01  0.521627E-01  0.456717E-01
  0.391331E-01  0.387577E-01  0.327855E-01  0.274815E-01  0.229837E-01  0.192907E-01
  0.163248E-01  0.139899E-01  0.121978E-01  0.108690E-01  0.993257E-02  0.933392E-02
  0.904098E-02  0.904098E-02  0.933392E-02  0.993257E-02  0.108690E-01  0.121978E-01
  0.139899E-01  0.163248E-01  0.192907E-01  0.229837E-01  0.274815E-01  0.327855E-01
  0.387577E-01  0.450852E-01  0.512805E-01  0.567368E-01  0.608806E-01  0.634098E-01
  0.644719E-01  0.646071E-01  0.644628E-01  0.644628E-01  0.646071E-01  0.644719E-01
  0.634098E-01  0.608806E-01  0.567368E-01  0.512805E-01  0.450852E-01  0.387577E-01
  0.387577E-01  0.329736E-01  0.278629E-01  0.235593E-01  0.200490E-01  0.172475E-01
  0.150598E-01  0.134019E-01  0.121978E-01  0.113810E-01  0.109055E-01  0.107489E-01
  0.109055E-01  0.113810E-01  0.121978E-01  0.134019E-01  0.150598E-01  0.172475E-01
  0.200490E-01  0.235593E-01  0.278629E-01  0.329736E-01  0.387577E-01  0.448819E-01
  0.507931E-01  0.557541E-01  0.590161E-01  0.601627E-01  0.594306E-01  0.576945E-01
  0.560688E-01  0.554209E-01  0.560688E-01  0.576945E-01  0.594306E-01  0.601627E-01
  0.590161E-01  0.557541E-01  0.507931E-01  0.448819E-01  0.387577E-01  0.391331E-01
  0.335376E-01  0.286355E-01  0.245431E-01  0.212293E-01  0.186032E-01  0.165733E-01
  0.150598E-01  0.139899E-01  0.133044E-01  0.129681E-01  0.129681E-01  0.133044E-01
  0.139899E-01  0.150598E-01  0.165733E-01  0.186032E-01  0.212293E-01  0.245431E-01
  0.286355E-01  0.335376E-01  0.391331E-01  0.450852E-01  0.507931E-01  0.553937E-01
  0.579216E-01  0.577427E-01  0.550659E-01  0.510403E-01  0.472457E-01  0.450034E-01
  0.450034E-01  0.472457E-01  0.510403E-01  0.550659E-01  0.577427E-01  0.579216E-01
  0.553937E-01  0.507931E-01  0.450852E-01  0.391331E-01  0.398713E-01  0.344873E-01
  0.298307E-01  0.259829E-01  0.228904E-01  0.204592E-01  0.186032E-01  0.172475E-01
  0.163248E-01  0.157864E-01  0.156087E-01  0.157864E-01  0.163248E-01  0.172475E-01
  0.186032E-01  0.204592E-01  0.228904E-01  0.259829E-01  0.298307E-01  0.344873E-01
  0.398713E-01  0.456717E-01  0.512805E-01  0.557541E-01  0.579216E-01  0.568476E-01
  0.525474E-01  0.463092E-01  0.401387E-01  0.357903E-01  0.342465E-01  0.357903E-01
  0.401387E-01  0.463092E-01  0.525474E-01  0.568476E-01  0.579216E-01  0.557541E-01
  0.512805E-01  0.456717E-01  0.398713E-01  0.409702E-01  0.358563E-01  0.315026E-01
  0.279424E-01  0.251021E-01  0.228904E-01  0.212293E-01  0.200490E-01  0.192907E-01
  0.189181E-01  0.189181E-01  0.192907E-01  0.200490E-01  0.212293E-01  0.228904E-01
  0.251021E-01  0.279424E-01  0.315026E-01  0.358563E-01  0.409702E-01  0.465927E-01
  0.521627E-01  0.567368E-01  0.590161E-01  0.577427E-01  0.525474E-01  0.446090E-01
  0.362535E-01  0.297074E-01  0.262321E-01  0.262321E-01  0.297074E-01  0.362535E-01
  0.446090E-01  0.525474E-01  0.577427E-01  0.590161E-01  0.567368E-01  0.521627E-01
  0.465927E-01  0.409702E-01  0.424537E-01  0.376980E-01  0.337161E-01  0.304924E-01
  0.279424E-01  0.259829E-01  0.245431E-01  0.235593E-01  0.229837E-01  0.227935E-01
  0.229837E-01  0.235593E-01  0.245431E-01  0.259829E-01  0.279424E-01  0.304924E-01
  0.337161E-01  0.376980E-01  0.424537E-01  0.478136E-01  0.533135E-01  0.581001E-01
  0.608806E-01  0.601627E-01  0.550659E-01  0.463092E-01  0.362535E-01  0.276168E-01
  0.221104E-01  0.202623E-01  0.221104E-01  0.276168E-01  0.362535E-01  0.463092E-01
  0.550659E-01  0.601627E-01  0.608806E-01  0.581001E-01  0.533135E-01  0.478136E-01
  0.424537E-01  0.443682E-01  0.400785E-01  0.365460E-01  0.337161E-01  0.315026E-01
  0.298307E-01  0.286355E-01  0.278629E-01  0.274815E-01  0.274815E-01  0.278629E-01
  0.286355E-01  0.298307E-01  0.315026E-01  0.337161E-01  0.365460E-01  0.400785E-01
  0.443682E-01  0.493337E-01  0.546367E-01  0.595795E-01  0.630146E-01  0.634098E-01
  0.594306E-01  0.510403E-01  0.401387E-01  0.297074E-01  0.221104E-01  0.182821E-01
  0.182821E-01  0.221104E-01  0.297074E-01  0.401387E-01  0.510403E-01  0.594306E-01
  0.634098E-01  0.630146E-01  0.595795E-01  0.546367E-01  0.493337E-01  0.443682E-01
  0.467849E-01  0.430802E-01  0.400785E-01  0.376980E-01  0.358563E-01  0.344873E-01
  0.335376E-01  0.329736E-01  0.327855E-01  0.329736E-01  0.335376E-01  0.344873E-01
  0.358563E-01  0.376980E-01  0.400785E-01  0.430802E-01  0.467849E-01  0.511925E-01
  0.560998E-01  0.609927E-01  0.649545E-01  0.666237E-01  0.644719E-01  0.576945E-01
  0.472457E-01  0.357903E-01  0.262321E-01  0.202623E-01  0.182821E-01  0.202623E-01
  0.262321E-01  0.357903E-01  0.472457E-01  0.576945E-01  0.644719E-01  0.666237E-01
  0.649545E-01  0.609927E-01  0.560998E-01  0.511925E-01  0.467849E-01  0.497979E-01
  0.467849E-01  0.443682E-01  0.424537E-01  0.409702E-01  0.398713E-01  0.391331E-01
  0.387577E-01  0.387577E-01  0.391331E-01  0.398713E-01  0.409702E-01  0.424537E-01
  0.443682E-01  0.467849E-01  0.497979E-01  0.534751E-01  0.577470E-01  0.622884E-01
  0.664337E-01  0.691144E-01  0.689216E-01  0.646071E-01  0.560688E-01  0.450034E-01
  0.342465E-01  0.262321E-01  0.221104E-01  0.221104E-01  0.262321E-01  0.342465E-01
  0.450034E-01  0.560688E-01  0.646071E-01  0.689216E-01  0.691144E-01  0.664337E-01
  0.622884E-01  0.577470E-01  0.534751E-01  0.497979E-01  0.534751E-01  0.511925E-01
  0.493337E-01  0.478136E-01  0.465927E-01  0.456717E-01  0.450852E-01  0.448819E-01
  0.450852E-01  0.456717E-01  0.465927E-01  0.478136E-01  0.493337E-01  0.511925E-01
  0.534751E-01  0.562923E-01  0.596951E-01  0.635478E-01  0.674289E-01  0.705799E-01
  0.718981E-01  0.701241E-01  0.644628E-01  0.554209E-01  0.450034E-01  0.357903E-01
  0.297074E-01  0.276168E-01  0.297074E-01  0.357903E-01  0.450034E-01  0.554209E-01
  0.644628E-01  0.701241E-01  0.718981E-01  0.705799E-01  0.674289E-01  0.635478E-01
  0.596951E-01  0.562923E-01  0.534751E-01  0.577470E-01  0.560998E-01  0.546367E-01
  0.533135E-01  0.521627E-01  0.512805E-01  0.507931E-01  0.507931E-01  0.512805E-01
  0.521627E-01  0.533135E-01  0.546367E-01  0.560998E-01  0.577470E-01  0.596951E-01
  0.620815E-01  0.649479E-01  0.681139E-01  0.711089E-01  0.731649E-01  0.732786E-01
  0.704877E-01  0.644628E-01  0.560688E-01  0.472457E-01  0.401387E-01  0.362535E-01
  0.362535E-01  0.401387E-01  0.472457E-01  0.560688E-01  0.644628E-01  0.704877E-01
  0.732786E-01  0.731649E-01  0.711089E-01  0.681139E-01  0.649479E-01  0.620815E-01
  0.596951E-01  0.577470E-01  0.622884E-01  0.609927E-01  0.595795E-01  0.581001E-01
  0.567368E-01  0.557541E-01  0.553937E-01  0.557541E-01  0.567368E-01  0.581001E-01
  0.595795E-01  0.609927E-01  0.622884E-01  0.635478E-01  0.649479E-01  0.666696E-01
  0.687631E-01  0.710369E-01  0.730275E-01  0.740416E-01  0.732786E-01  0.701241E-01
  0.646071E-01  0.576945E-01  0.510403E-01  0.463092E-01  0.446090E-01  0.463092E-01
  0.510403E-01  0.576945E-01  0.646071E-01  0.701241E-01  0.732786E-01  0.740416E-01
  0.730275E-01  0.710369E-01  0.687631E-01  0.666696E-01  0.649479E-01  0.635478E-01
  0.622884E-01  0.664337E-01  0.649545E-01  0.630146E-01  0.608806E-01  0.590161E-01
  0.579216E-01  0.579216E-01  0.590161E-01  0.608806E-01  0.630146E-01  0.649545E-01
  0.664337E-01  0.674289E-01  0.681139E-01  0.687631E-01  0.696225E-01  0.707722E-01
  0.720433E-01  0.730275E-01  0.731649E-01  0.718981E-01  0.689216E-01  0.644719E-01
  0.594306E-01  0.550659E-01  0.525474E-01  0.525474E-01  0.550659E-01  0.594306E-01
  0.644719E-01  0.689216E-01  0.718981E-01  0.731649E-01  0.730275E-01  0.720433E-01
  0.707722E-01  0.696225E-01  0.687631E-01  0.681139E-01  0.674289E-01  0.664337E-01
  0.691144E-01  0.666237E-01  0.634098E-01  0.601627E-01  0.577427E-01  0.568476E-01
  0.577427E-01  0.601627E-01  0.634098E-01  0.666237E-01  0.691144E-01  0.705799E-01
  0.711089E-01  0.710369E-01  0.707722E-01  0.706422E-01  0.707722E-01  0.710369E-01
  0.711089E-01  0.705799E-01  0.691144E-01  0.666237E-01  0.634098E-01  0.601627E-01
  0.577427E-01  0.568476E-01  0.577427E-01  0.601627E-01  0.634098E-01  0.666237E-01
  0.691144E-01  0.705799E-01  0.711089E-01  0.710369E-01  0.707722E-01  0.706422E-01
  0.707722E-01  0.710369E-01  0.711089E-01  0.705799E-01  0.691144E-01  0.689216E-01
  0.644719E-01  0.594306E-01  0.550659E-01  0.525474E-01  0.525474E-01  0.550659E-01
  0.594306E-01  0.644719E-01  0.689216E-01  0.718981E-01  0.731649E-01  0.730275E-01
  0.720433E-01  0.707722E-01  0.696225E-01  0.687631E-01  0.681139E-01  0.674289E-01
  0.664337E-01  0.649545E-01  0.630146E-01  0.608806E-01  0.590161E-01  0.579216E-01
  0.579216E-01  0.590161E-01  0.608806E-01  0.630146E-01  0.649545E-01  0.664337E-01
  0.674289E-01  0.681139E-01  0.687631E-01  0.696225E-01  0.707722E-01  0.720433E-01
  0.730275E-01  0.731649E-01  0.718981E-01  0.689216E-01  0.646071E-01  0.576945E-01
  0.510403E-01  0.463092E-01  0.446090E-01  0.463092E-01  0.510403E-01  0.576945E-01
  0.646071E-01  0.701241E-01  0.732786E-01  0.740416E-01  0.730275E-01  0.710369E-01
  0.687631E-01  0.666696E-01  0.649479E-01  0.635478E-01  0.622884E-01  0.609927E-01
  0.595795E-01  0.581001E-01  0.567368E-01  0.557541E-01  0.553937E-01  0.557541E-01
  0.567368E-01  0.581001E-01  0.595795E-01  0.609927E-01  0.622884E-01  0.635478E-01
  0.649479E-01  0.666696E-01  0.687631E-01  0.710369E-01  0.730275E-01  0.740416E-01
  0.732786E-01  0.701241E-01  0.646071E-01  0.560688E-01  0.472457E-01  0.401387E-01
  0.362535E-01  0.362535E-01  0.401387E-01  0.472457E-01  0.560688E-01  0.644628E-01
  0.704877E-01  0.732786E-01  0.731649E-01  0.711089E-01  0.681139E-01  0.649479E-01
  0.620815E-01  0.596951E-01  0.577470E-01  0.560998E-01  0.546367E-01  0.533135E-01
  0.521627E-01  0.512805E-01  0.507931E-01  0.507931E-01  0.512805E-01  0.521627E-01
  0.533135E-01  0.546367E-01  0.560998E-01  0.577470E-01  0.596951E-01  0.620815E-01
  0.649479E-01  0.681139E-01  0.711089E-01  0.731649E-01  0.732786E-01  0.704877E-01
  0.644628E-01  0.560688E-01  0.450034E-01  0.357903E-01  0.297074E-01  0.276168E-01
  0.297074E-01  0.357903E-01  0.450034E-01  0.554209E-01  0.644628E-01  0.701241E-01
  0.718981E-01  0.705799E-01  0.674289E-01  0.635478E-01  0.596951E-01  0.562923E-01
  0.534751E-01  0.511925E-01  0.493337E-01  0.478136E-01  0.465927E-01  0.456717E-01
  0.450852E-01  0.448819E-01  0.450852E-01  0.456717E-01  0.465927E-01  0.478136E-01
  0.493337E-01  0.511925E-01  0.534751E-01  0.562923E-01  0.596951E-01  0.635478E-01
  0.674289E-01  0.705799E-01  0.718981E-01  0.701241E-01  0.644628E-01  0.554209E-01
  0.450034E-01  0.342465E-01  0.262321E-01  0.221104E-01  0.221104E-01  0.262321E-01
  0.342465E-01  0.450034E-01  0.560688E-01  0.646071E-01  0.689216E-01  0.691144E-01
  0.664337E-01  0.622884E-01  0.577470E-01  0.534751E-01  0.497979E-01  0.467849E-01
  0.443682E-01  0.424537E-01  0.409702E-01  0.398713E-01  0.391331E-01  0.387577E-01
  0.387577E-01  0.391331E-01  0.398713E-01  0.409702E-01  0.424537E-01  0.443682E-01
  0.467849E-01  0.497979E-01  0.534751E-01  0.577470E-01  0.622884E-01  0.664337E-01
  0.691144E-01  0.689216E-01  0.646071E-01  0.560688E-01  0.450034E-01  0.342465E-01
  0.180896E-01  0.122797E-01  0.104605E-01  0.122797E-01  0.180896E-01  0.282389E-01
  0.415779E-01  0.549204E-01  0.646360E-01  0.689216E-01  0.683705E-01  0.647684E-01
  0.598153E-01  0.546633E-01  0.499613E-01  0.459832E-01  0.427539E-01  0.401892E-01
  0.381981E-01  0.367110E-01  0.356751E-01  0.350585E-01  0.348526E-01  0.350585E-01
  0.356751E-01  0.367110E-01  0.381981E-01  0.401892E-01  0.427539E-01  0.459832E-01
  0.499613E-01  0.546633E-01  0.598153E-01  0.647684E-01  0.683705E-01  0.689216E-01
  0.646360E-01  0.549204E-01  0.415779E-01  0.282389E-01  0.180896E-01  0.122797E-01
  0.884245E-02  0.884245E-02  0.122797E-01  0.198324E-01  0.315275E-01  0.452903E-01
  0.573242E-01  0.644719E-01  0.660576E-01  0.634809E-01  0.586834E-01  0.531738E-01
  0.478695E-01  0.432298E-01  0.393940E-01  0.363200E-01  0.339140E-01  0.320930E-01
  0.307885E-01  0.299446E-01  0.295281E-01  0.295281E-01  0.299446E-01  0.307885E-01
  0.320930E-01  0.339140E-01  0.363200E-01  0.393940E-01  0.432298E-01  0.478695E-01
  0.531738E-01  0.586834E-01  0.634809E-01  0.660576E-01  0.644719E-01  0.573242E-01
  0.452903E-01  0.315275E-01  0.198324E-01  0.122797E-01  0.104605E-01  0.884245E-02
  0.104605E-01  0.157150E-01  0.251044E-01  0.376753E-01  0.503439E-01  0.594306E-01
  0.630464E-01  0.617775E-01  0.574703E-01  0.518822E-01  0.461868E-01  0.410296E-01
  0.366755E-01  0.331447E-01  0.303524E-01  0.282053E-01  0.266260E-01  0.255469E-01
  0.249165E-01  0.247085E-01  0.249165E-01  0.255469E-01  0.266260E-01  0.282053E-01
  0.303524E-01  0.331447E-01  0.366755E-01  0.410296E-01  0.461868E-01  0.518822E-01
  0.574703E-01  0.617775E-01  0.630464E-01  0.594306E-01  0.503439E-01  0.376753E-01
  0.251044E-01  0.157150E-01  0.104605E-01  0.122797E-01  0.122797E-01  0.157150E-01
  0.229401E-01  0.335667E-01  0.454105E-01  0.550659E-01  0.599877E-01  0.598902E-01
  0.562095E-01  0.507399E-01  0.448340E-01  0.392993E-01  0.345230E-01  0.306010E-01
  0.274716E-01  0.250345E-01  0.232023E-01  0.219006E-01  0.210656E-01  0.206562E-01
  0.206562E-01  0.210656E-01  0.219006E-01  0.232023E-01  0.250345E-01  0.274716E-01
  0.306010E-01  0.345230E-01  0.392993E-01  0.448340E-01  0.507399E-01  0.562095E-01
  0.598902E-01  0.599877E-01  0.550659E-01  0.454105E-01  0.335667E-01  0.229401E-01
  0.157150E-01  0.122797E-01  0.180896E-01  0.198324E-01  0.251044E-01  0.335667E-01
  0.436435E-01  0.525474E-01  0.577003E-01  0.582328E-01  0.550493E-01  0.497615E-01
  0.437665E-01  0.379727E-01  0.328645E-01  0.286129E-01  0.251927E-01  0.225043E-01
  0.204504E-01  0.189493E-01  0.179289E-01  0.173348E-01  0.171392E-01  0.173348E-01
  0.179289E-01  0.189493E-01  0.204504E-01  0.225043E-01  0.251927E-01  0.286129E-01
  0.328645E-01  0.379727E-01  0.437665E-01  0.497615E-01  0.550493E-01  0.582328E-01
  0.577003E-01  0.525474E-01  0.436435E-01  0.335667E-01  0.251044E-01  0.198324E-01
  0.180896E-01  0.282389E-01  0.315275E-01  0.376753E-01  0.454105E-01  0.525474E-01
  0.568528E-01  0.572566E-01  0.542123E-01  0.490175E-01  0.429721E-01  0.370004E-01
  0.316384E-01  0.271147E-01  0.234433E-01  0.205354E-01  0.182869E-01  0.166093E-01
  0.154243E-01  0.146665E-01  0.142955E-01  0.142955E-01  0.146665E-01  0.154243E-01
  0.166093E-01  0.182869E-01  0.205354E-01  0.234433E-01  0.271147E-01  0.316384E-01
  0.370004E-01  0.429721E-01  0.490175E-01  0.542123E-01  0.572566E-01  0.568528E-01
  0.525474E-01  0.454105E-01  0.376753E-01  0.315275E-01  0.282389E-01  0.282389E-01
  0.415779E-01  0.452903E-01  0.503439E-01  0.550659E-01  0.577003E-01  0.572566E-01
  0.539051E-01  0.486079E-01  0.424704E-01  0.363524E-01  0.307916E-01  0.260454E-01
  0.221590E-01  0.190581E-01  0.166370E-01  0.148014E-01  0.134690E-01  0.125668E-01
  0.120424E-01  0.118698E-01  0.120424E-01  0.125668E-01  0.134690E-01  0.148014E-01
  0.166370E-01  0.190581E-01  0.221590E-01  0.260454E-01  0.307916E-01  0.363524E-01
  0.424704E-01  0.486079E-01  0.539051E-01  0.572566E-01  0.577003E-01  0.550659E-01
  0.503439E-01  0.452903E-01  0.415779E-01  0.402336E-01  0.415779E-01  0.549204E-01
  0.573242E-01  0.594306E-01  0.599877E-01  0.582328E-01  0.542123E-01  0.486079E-01
  0.422971E-01  0.360244E-01  0.302900E-01  0.253543E-01  0.212807E-01  0.180079E-01
  0.154318E-01  0.134535E-01  0.119873E-01  0.109561E-01  0.102980E-01  0.997613E-02
  0.997613E-02  0.102980E-01  0.109561E-01  0.119873E-01  0.134535E-01  0.154318E-01
  0.180079E-01  0.212807E-01  0.253543E-01  0.302900E-01  0.360244E-01  0.422971E-01
  0.486079E-01  0.542123E-01  0.582328E-01  0.599877E-01  0.594306E-01  0.573242E-01
  0.549204E-01  0.533873E-01  0.533873E-01  0.549204E-01  0.646360E-01  0.644719E-01
  0.630464E-01  0.598902E-01  0.550493E-01  0.490175E-01  0.424704E-01  0.360244E-01
  0.301229E-01  0.250130E-01  0.207659E-01  0.173318E-01  0.146102E-01  0.124993E-01
  0.109095E-01  0.976028E-02  0.898353E-02  0.853268E-02  0.838449E-02  0.853268E-02
  0.898353E-02  0.976028E-02  0.109095E-01  0.124993E-01  0.146102E-01  0.173318E-01
  0.207659E-01  0.250130E-01  0.301229E-01  0.360244E-01  0.424704E-01  0.490175E-01
  0.550493E-01  0.598902E-01  0.630464E-01  0.644719E-01  0.646360E-01  0.642914E-01
  0.640920E-01  0.642914E-01  0.646360E-01  0.689216E-01  0.660576E-01  0.617775E-01
  0.562095E-01  0.497615E-01  0.429721E-01  0.363524E-01  0.302900E-01  0.250130E-01
  0.205956E-01  0.169990E-01  0.141299E-01  0.118869E-01  0.101769E-01  0.891540E-02
  0.802931E-02  0.746443E-02  0.718874E-02  0.718874E-02  0.746443E-02  0.802931E-02
  0.891540E-02  0.101769E-01  0.118869E-01  0.141299E-01  0.169990E-01  0.205956E-01
  0.250130E-01  0.302900E-01  0.363524E-01  0.429721E-01  0.497615E-01  0.562095E-01
  0.617775E-01  0.660576E-01  0.689216E-01  0.705399E-01  0.712299E-01  0.712299E-01
  0.705399E-01  0.689216E-01  0.683705E-01  0.634809E-01  0.574703E-01  0.507399E-01
  0.437665E-01  0.370004E-01  0.307916E-01  0.253543E-01  0.207659E-01  0.169990E-01
  0.139713E-01  0.115863E-01  0.975009E-02  0.837460E-02  0.738181E-02  0.671112E-02
  0.632273E-02  0.619545E-02  0.632273E-02  0.671112E-02  0.738181E-02  0.837460E-02
  0.975009E-02  0.115863E-01  0.139713E-01  0.169990E-01  0.207659E-01  0.253543E-01
  0.307916E-01  0.370004E-01  0.437665E-01  0.507399E-01  0.574703E-01  0.634809E-01
  0.683705E-01  0.718981E-01  0.739938E-01  0.746844E-01  0.739938E-01  0.718981E-01
  0.683705E-01  0.647684E-01  0.586834E-01  0.518822E-01  0.448340E-01  0.379727E-01
  0.316384E-01  0.260454E-01  0.212807E-01  0.173318E-01  0.141299E-01  0.115863E-01
  0.960958E-02  0.811017E-02  0.700599E-02  0.623062E-02  0.573743E-02  0.549772E-02
  0.549772E-02  0.573743E-02  0.623062E-02  0.700599E-02  0.811017E-02  0.960958E-02
  0.115863E-01  0.141299E-01  0.173318E-01  0.212807E-01  0.260454E-01  0.316384E-01
  0.379727E-01  0.448340E-01  0.518822E-01  0.586834E-01  0.647684E-01  0.697057E-01
  0.731649E-01  0.749405E-01  0.749405E-01  0.731649E-01  0.697057E-01  0.647684E-01
  0.598153E-01  0.531738E-01  0.461868E-01  0.392993E-01  0.328645E-01  0.271147E-01
  0.221590E-01  0.180079E-01  0.146102E-01  0.118869E-01  0.975009E-02  0.811017E-02
  0.688272E-02  0.599679E-02  0.539960E-02  0.505551E-02  0.494323E-02  0.505551E-02
  0.539960E-02  0.599679E-02  0.688272E-02  0.811017E-02  0.975009E-02  0.118869E-01
  0.146102E-01  0.180079E-01  0.221590E-01  0.271147E-01  0.328645E-01  0.392993E-01
  0.461868E-01  0.531738E-01  0.598153E-01  0.656277E-01  0.701543E-01  0.730275E-01
  0.740120E-01  0.730275E-01  0.701543E-01  0.656277E-01  0.598153E-01  0.546633E-01
  0.478695E-01  0.410296E-01  0.345230E-01  0.286129E-01  0.234433E-01  0.190581E-01
  0.154318E-01  0.124993E-01  0.101769E-01  0.837460E-02  0.700599E-02  0.599679E-02
  0.528928E-02  0.484159E-02  0.462526E-02  0.462526E-02  0.484159E-02  0.528928E-02
  0.599679E-02  0.700599E-02  0.837460E-02  0.101769E-01  0.124993E-01  0.154318E-01
  0.190581E-01  0.234433E-01  0.286129E-01  0.345230E-01  0.410296E-01  0.478695E-01
  0.546633E-01  0.609465E-01  0.662244E-01  0.700402E-01  0.720433E-01  0.720433E-01
  0.700402E-01  0.662244E-01  0.609465E-01  0.546633E-01  0.499613E-01  0.432298E-01
  0.366755E-01  0.306010E-01  0.251927E-01  0.205354E-01  0.166370E-01  0.134535E-01
  0.109095E-01  0.891540E-02  0.738181E-02  0.623062E-02  0.539960E-02  0.484159E-02
  0.452187E-02  0.441795E-02  0.452187E-02  0.484159E-02  0.539960E-02  0.623062E-02
  0.738181E-02  0.891540E-02  0.109095E-01  0.134535E-01  0.166370E-01  0.205354E-01
  0.251927E-01  0.306010E-01  0.366755E-01  0.432298E-01  0.499613E-01  0.564591E-01
  0.622413E-01  0.668165E-01  0.697574E-01  0.707722E-01  0.697574E-01  0.668165E-01
  0.622413E-01  0.564591E-01  0.499613E-01  0.459832E-01  0.393940E-01  0.331447E-01
  0.274716E-01  0.225043E-01  0.182869E-01  0.148014E-01  0.119873E-01  0.976028E-02
  0.802931E-02  0.671112E-02  0.573743E-02  0.505551E-02  0.462526E-02  0.441795E-02
  0.441795E-02  0.462526E-02  0.505551E-02  0.573743E-02  0.671112E-02  0.802931E-02
  0.976028E-02  0.119873E-01  0.148014E-01  0.182869E-01  0.225043E-01  0.274716E-01
  0.331447E-01  0.393940E-01  0.459832E-01  0.525627E-01  0.586881E-01  0.638688E-01
  0.676366E-01  0.696225E-01  0.696225E-01  0.676366E-01  0.638688E-01  0.586881E-01
  0.525627E-01  0.459832E-01  0.427539E-01  0.363200E-01  0.303524E-01  0.250345E-01
  0.204504E-01  0.166093E-01  0.134690E-01  0.109561E-01  0.898353E-02  0.746443E-02
  0.632273E-02  0.549772E-02  0.494323E-02  0.462526E-02  0.452187E-02  0.462526E-02
  0.494323E-02  0.549772E-02  0.632273E-02  0.746443E-02  0.898353E-02  0.109561E-01
  0.134690E-01  0.166093E-01  0.204504E-01  0.250345E-01  0.303524E-01  0.363200E-01
  0.427539E-01  0.493576E-01  0.557295E-01  0.613978E-01  0.658816E-01  0.687631E-01
  0.697574E-01  0.687631E-01  0.658816E-01  0.613978E-01  0.557295E-01  0.493576E-01
  0.427539E-01  0.401892E-01  0.339140E-01  0.282053E-01  0.232023E-01  0.189493E-01
  0.154243E-01  0.125668E-01  0.102980E-01  0.853268E-02  0.718874E-02  0.619545E-02
  0.549772E-02  0.505551E-02  0.484159E-02  0.484159E-02  0.505551E-02  0.549772E-02
  0.619545E-02  0.718874E-02  0.853268E-02  0.102980E-01  0.125668E-01  0.154243E-01
  0.189493E-01  0.232023E-01  0.282053E-01  0.339140E-01  0.401892E-01  0.467787E-01
  0.533193E-01  0.593659E-01  0.644436E-01  0.681139E-01  0.700402E-01  0.700402E-01
  0.681139E-01  0.644436E-01  0.593659E-01  0.533193E-01  0.467787E-01  0.401892E-01
  0.381981E-01  0.320930E-01  0.266260E-01  0.219006E-01  0.179289E-01  0.146665E-01
  0.120424E-01  0.997613E-02  0.838449E-02  0.718874E-02  0.632273E-02  0.573743E-02
  0.539960E-02  0.528928E-02  0.539960E-02  0.573743E-02  0.632273E-02  0.718874E-02
  0.838449E-02  0.997613E-02  0.120424E-01  0.146665E-01  0.179289E-01  0.219006E-01
  0.266260E-01  0.320930E-01  0.381981E-01  0.447242E-01  0.513409E-01  0.576306E-01
  0.631375E-01  0.674289E-01  0.701543E-01  0.710885E-01  0.701543E-01  0.674289E-01
  0.631375E-01  0.576306E-01  0.513409E-01  0.447242E-01  0.381981E-01  0.367110E-01
  0.307885E-01  0.255469E-01  0.210656E-01  0.173348E-01  0.142955E-01  0.118698E-01
  0.997613E-02  0.853268E-02  0.746443E-02  0.671112E-02  0.623062E-02  0.599679E-02
  0.599679E-02  0.623062E-02  0.671112E-02  0.746443E-02  0.853268E-02  0.997613E-02
  0.118698E-01  0.142955E-01  0.173348E-01  0.210656E-01  0.255469E-01  0.307885E-01
  0.367110E-01  0.431199E-01  0.497055E-01  0.560707E-01  0.617819E-01  0.664337E-01
  0.697057E-01  0.713906E-01  0.713906E-01  0.697057E-01  0.664337E-01  0.617819E-01
  0.560707E-01  0.497055E-01  0.431199E-01  0.367110E-01  0.356751E-01  0.299446E-01
  0.249165E-01  0.206562E-01  0.171392E-01  0.142955E-01  0.120424E-01  0.102980E-01
  0.898353E-02  0.802931E-02  0.738181E-02  0.700599E-02  0.688272E-02  0.700599E-02
  0.738181E-02  0.802931E-02  0.898353E-02  0.102980E-01  0.120424E-01  0.142955E-01
  0.171392E-01  0.206562E-01  0.249165E-01  0.299446E-01  0.356751E-01  0.419220E-01
  0.483779E-01  0.546448E-01  0.602953E-01  0.649545E-01  0.683705E-01  0.704309E-01
  0.711164E-01  0.704309E-01  0.683705E-01  0.649545E-01  0.602953E-01  0.546448E-01
  0.483779E-01  0.419220E-01  0.356751E-01  0.350585E-01  0.295281E-01  0.247085E-01
  0.206562E-01  0.173348E-01  0.146665E-01  0.125668E-01  0.109561E-01  0.976028E-02
  0.891540E-02  0.837460E-02  0.811017E-02  0.811017E-02  0.837460E-02  0.891540E-02
  0.976028E-02  0.109561E-01  0.125668E-01  0.146665E-01  0.173348E-01  0.206562E-01
  0.247085E-01  0.295281E-01  0.350585E-01  0.411129E-01  0.473681E-01  0.533955E-01
  0.587356E-01  0.630146E-01  0.660576E-01  0.679156E-01  0.687698E-01  0.687698E-01
  0.679156E-01  0.660576E-01  0.630146E-01  0.587356E-01  0.533955E-01  0.473681E-01
  0.411129E-01  0.350585E-01  0.348526E-01  0.295281E-01  0.249165E-01  0.210656E-01
  0.179289E-01  0.154243E-01  0.134690E-01  0.119873E-01  0.109095E-01  0.101769E-01
  0.975009E-02  0.960958E-02  0.975009E-02  0.101769E-01  0.109095E-01  0.119873E-01
  0.134690E-01  0.154243E-01  0.179289E-01  0.210656E-01  0.249165E-01  0.295281E-01
  0.348526E-01  0.407002E-01  0.467221E-01  0.524341E-01  0.572976E-01  0.608806E-01
  0.630464E-01  0.640315E-01  0.643148E-01  0.643485E-01  0.643148E-01  0.640315E-01
  0.630464E-01  0.608806E-01  0.572976E-01  0.524341E-01  0.467221E-01  0.407002E-01
  0.348526E-01  0.350585E-01  0.299446E-01  0.255469E-01  0.219006E-01  0.189493E-01
  0.166093E-01  0.148014E-01  0.134535E-01  0.124993E-01  0.118869E-01  0.115863E-01
  0.115863E-01  0.118869E-01  0.124993E-01  0.134535E-01  0.148014E-01  0.166093E-01
  0.189493E-01  0.219006E-01  0.255469E-01  0.299446E-01  0.350585E-01  0.407002E-01
  0.464977E-01  0.519023E-01  0.562615E-01  0.590161E-01  0.599877E-01  0.595544E-01
  0.585206E-01  0.577399E-01  0.577399E-01  0.585206E-01  0.595544E-01  0.599877E-01
  0.590161E-01  0.562615E-01  0.519023E-01  0.464977E-01  0.407002E-01  0.350585E-01
  0.356751E-01  0.307885E-01  0.266260E-01  0.232023E-01  0.204504E-01  0.182869E-01
  0.166370E-01  0.154318E-01  0.146102E-01  0.141299E-01  0.139713E-01  0.141299E-01
  0.146102E-01  0.154318E-01  0.166370E-01  0.182869E-01  0.204504E-01  0.232023E-01
  0.266260E-01  0.307885E-01  0.356751E-01  0.411129E-01  0.467221E-01  0.519023E-01
  0.558816E-01  0.579216E-01  0.577003E-01  0.556342E-01  0.528033E-01  0.504743E-01
  0.495863E-01  0.504743E-01  0.528033E-01  0.556342E-01  0.577003E-01  0.579216E-01
  0.558816E-01  0.519023E-01  0.467221E-01  0.411129E-01  0.356751E-01  0.367110E-01
  0.320930E-01  0.282053E-01  0.250345E-01  0.225043E-01  0.205354E-01  0.190581E-01
  0.180079E-01  0.173318E-01  0.169990E-01  0.169990E-01  0.173318E-01  0.180079E-01
  0.190581E-01  0.205354E-01  0.225043E-01  0.250345E-01  0.282053E-01  0.320930E-01
  0.367110E-01  0.419220E-01  0.473681E-01  0.524341E-01  0.562615E-01  0.579216E-01
  0.568528E-01  0.533565E-01  0.486672E-01  0.444181E-01  0.419489E-01  0.419489E-01
  0.444181E-01  0.486672E-01  0.533565E-01  0.568528E-01  0.579216E-01  0.562615E-01
  0.524341E-01  0.473681E-01  0.419220E-01  0.367110E-01  0.381981E-01  0.339140E-01
  0.303524E-01  0.274716E-01  0.251927E-01  0.234433E-01  0.221590E-01  0.212807E-01
  0.207659E-01  0.205956E-01  0.207659E-01  0.212807E-01  0.221590E-01  0.234433E-01
  0.251927E-01  0.274716E-01  0.303524E-01  0.339140E-01  0.381981E-01  0.431199E-01
  0.483779E-01  0.533955E-01  0.572976E-01  0.590161E-01  0.577003E-01  0.533565E-01
  0.471670E-01  0.410295E-01  0.366729E-01  0.351179E-01  0.366729E-01  0.410295E-01
  0.471670E-01  0.533565E-01  0.577003E-01  0.590161E-01  0.572976E-01  0.533955E-01
  0.483779E-01  0.431199E-01  0.381981E-01  0.401892E-01  0.363200E-01  0.331447E-01
  0.306010E-01  0.286129E-01  0.271147E-01  0.260454E-01  0.253543E-01  0.250130E-01
  0.250130E-01  0.253543E-01  0.260454E-01  0.271147E-01  0.286129E-01  0.306010E-01
  0.331447E-01  0.363200E-01  0.401892E-01  0.447242E-01  0.497055E-01  0.546448E-01
  0.587356E-01  0.608806E-01  0.599877E-01  0.556342E-01  0.486672E-01  0.410295E-01
  0.348114E-01  0.314123E-01  0.314123E-01  0.348114E-01  0.410295E-01  0.486672E-01
  0.556342E-01  0.599877E-01  0.608806E-01  0.587356E-01  0.546448E-01  0.497055E-01
  0.447242E-01  0.401892E-01  0.427539E-01  0.393940E-01  0.366755E-01  0.345230E-01
  0.328645E-01  0.316384E-01  0.307916E-01  0.302900E-01  0.301229E-01  0.302900E-01
  0.307916E-01  0.316384E-01  0.328645E-01  0.345230E-01  0.366755E-01  0.393940E-01
  0.427539E-01  0.467787E-01  0.513409E-01  0.560707E-01  0.602953E-01  0.630146E-01
  0.630464E-01  0.595544E-01  0.528033E-01  0.444181E-01  0.366729E-01  0.314123E-01
  0.295769E-01  0.314123E-01  0.366729E-01  0.444181E-01  0.528033E-01  0.595544E-01
  0.630464E-01  0.630146E-01  0.602953E-01  0.560707E-01  0.513409E-01  0.467787E-01
  0.427539E-01  0.459832E-01  0.432298E-01  0.410296E-01  0.392993E-01  0.379727E-01
  0.370004E-01  0.363524E-01  0.360244E-01  0.360244E-01  0.363524E-01  0.370004E-01
  0.379727E-01  0.392993E-01  0.410296E-01  0.432298E-01  0.459832E-01  0.493576E-01
  0.533193E-01  0.576306E-01  0.617819E-01  0.649545E-01  0.660576E-01  0.640315E-01
  0.585206E-01  0.504743E-01  0.419489E-01  0.351179E-01  0.314123E-01  0.314123E-01
  0.351179E-01  0.419489E-01  0.504743E-01  0.585206E-01  0.640315E-01  0.660576E-01
  0.649545E-01  0.617819E-01  0.576306E-01  0.533193E-01  0.493576E-01  0.459832E-01
  0.499613E-01  0.478695E-01  0.461868E-01  0.448340E-01  0.437665E-01  0.429721E-01
  0.424704E-01  0.422971E-01  0.424704E-01  0.429721E-01  0.437665E-01  0.448340E-01
  0.461868E-01  0.478695E-01  0.499613E-01  0.525627E-01  0.557295E-01  0.593659E-01
  0.631375E-01  0.664337E-01  0.683705E-01  0.679156E-01  0.643148E-01  0.577399E-01
  0.495863E-01  0.419489E-01  0.366729E-01  0.348114E-01  0.366729E-01  0.419489E-01
  0.495863E-01  0.577399E-01  0.643148E-01  0.679156E-01  0.683705E-01  0.664337E-01
  0.631375E-01  0.593659E-01  0.557295E-01  0.525627E-01  0.499613E-01  0.546633E-01
  0.531738E-01  0.518822E-01  0.507399E-01  0.497615E-01  0.490175E-01  0.486079E-01
  0.486079E-01  0.490175E-01  0.497615E-01  0.507399E-01  0.518822E-01  0.531738E-01
  0.546633E-01  0.564591E-01  0.586881E-01  0.613978E-01  0.644436E-01  0.674289E-01
  0.697057E-01  0.704309E-01  0.687698E-01  0.643485E-01  0.577399E-01  0.504743E-01
  0.444181E-01  0.410295E-01  0.410295E-01  0.444181E-01  0.504743E-01  0.577399E-01
  0.643485E-01  0.687698E-01  0.704309E-01  0.697057E-01  0.674289E-01  0.644436E-01
  0.613978E-01  0.586881E-01  0.564591E-01  0.546633E-01  0.598153E-01  0.586834E-01
  0.574703E-01  0.562095E-01  0.550493E-01  0.542123E-01  0.539051E-01  0.542123E-01
  0.550493E-01  0.562095E-01  0.574703E-01  0.586834E-01  0.598153E-01  0.609465E-01
  0.622413E-01  0.638688E-01  0.658816E-01  0.681139E-01  0.701543E-01  0.713906E-01
  0.711164E-01  0.687698E-01  0.643148E-01  0.585206E-01  0.528033E-01  0.486672E-01
  0.471670E-01  0.486672E-01  0.528033E-01  0.585206E-01  0.643148E-01  0.687698E-01
  0.711164E-01  0.713906E-01  0.701543E-01  0.681139E-01  0.658816E-01  0.638688E-01
  0.622413E-01  0.609465E-01  0.598153E-01  0.647684E-01  0.634809E-01  0.617775E-01
  0.598902E-01  0.582328E-01  0.572566E-01  0.572566E-01  0.582328E-01  0.598902E-01
  0.617775E-01  0.634809E-01  0.647684E-01  0.656277E-01  0.662244E-01  0.668165E-01
  0.676366E-01  0.687631E-01  0.700402E-01  0.710885E-01  0.713906E-01  0.704309E-01
  0.679156E-01  0.640315E-01  0.595544E-01  0.556342E-01  0.533565E-01  0.533565E-01
  0.556342E-01  0.595544E-01  0.640315E-01  0.679156E-01  0.704309E-01  0.713906E-01
  0.710885E-01  0.700402E-01  0.687631E-01  0.676366E-01  0.668165E-01  0.662244E-01
  0.656277E-01  0.647684E-01  0.683705E-01  0.660576E-01  0.630464E-01  0.599877E-01
  0.577003E-01  0.568528E-01  0.577003E-01  0.599877E-01  0.630464E-01  0.660576E-01
  0.683705E-01  0.697057E-01  0.701543E-01  0.700402E-01  0.697574E-01  0.696225E-01
  0.697574E-01  0.700402E-01  0.701543E-01  0.697057E-01  0.683705E-01  0.660576E-01
  0.630464E-01  0.599877E-01  0.577003E-01  0.568528E-01  0.577003E-01  0.599877E-01
  0.630464E-01  0.660576E-01  0.683705E-01  0.697057E-01  0.701543E-01  0.700402E-01
  0.697574E-01  0.696225E-01  0.697574E-01  0.700402E-01  0.701543E-01  0.697057E-01
  0.683705E-01  0.689216E-01  0.644719E-01  0.594306E-01  0.550659E-01  0.525474E-01
  0.525474E-01  0.550659E-01  0.594306E-01  0.644719E-01  0.689216E-01  0.718981E-01
  0.731649E-01  0.730275E-01  0.720433E-01  0.707722E-01  0.696225E-01  0.687631E-01
  0.681139E-01  0.674289E-01  0.664337E-01  0.649545E-01  0.630146E-01  0.608806E-01
  0.590161E-01  0.579216E-01  0.579216E-01  0.590161E-01  0.608806E-01  0.630146E-01
  0.649545E-01  0.664337E-01  0.674289E-01  0.681139E-01  0.687631E-01  0.696225E-01
  0.707722E-01  0.720433E-01  0.730275E-01  0.731649E-01  0.718981E-01  0.689216E-01
  0.646360E-01  0.573242E-01  0.503439E-01  0.454105E-01  0.436435E-01  0.454105E-01
  0.503439E-01  0.573242E-01  0.646360E-01  0.705399E-01  0.739938E-01  0.749405E-01
  0.740120E-01  0.720433E-01  0.697574E-01  0.676366E-01  0.658816E-01  0.644436E-01
  0.631375E-01  0.617819E-01  0.602953E-01  0.587356E-01  0.572976E-01  0.562615E-01
  0.558816E-01  0.562615E-01  0.572976E-01  0.587356E-01  0.602953E-01  0.617819E-01
  0.631375E-01  0.644436E-01  0.658816E-01  0.676366E-01  0.697574E-01  0.720433E-01
  0.740120E-01  0.749405E-01  0.739938E-01  0.705399E-01  0.646360E-01  0.549204E-01
  0.452903E-01  0.376753E-01  0.335667E-01  0.335667E-01  0.376753E-01  0.452903E-01
  0.549204E-01  0.642914E-01  0.712299E-01  0.746844E-01  0.749405E-01  0.730275E-01
  0.700402E-01  0.668165E-01  0.638688E-01  0.613978E-01  0.593659E-01  0.576306E-01
  0.560707E-01  0.546448E-01  0.533955E-01  0.524341E-01  0.519023E-01  0.519023E-01
  0.524341E-01  0.533955E-01  0.546448E-01  0.560707E-01  0.576306E-01  0.593659E-01
  0.613978E-01  0.638688E-01  0.668165E-01  0.700402E-01  0.730275E-01  0.749405E-01
  0.746844E-01  0.712299E-01  0.642914E-01  0.549204E-01  0.415779E-01  0.315275E-01
  0.251044E-01  0.229401E-01  0.251044E-01  0.315275E-01  0.415779E-01  0.533873E-01
  0.640920E-01  0.712299E-01  0.739938E-01  0.731649E-01  0.701543E-01  0.662244E-01
  0.622413E-01  0.586881E-01  0.557295E-01  0.533193E-01  0.513409E-01  0.497055E-01
  0.483779E-01  0.473681E-01  0.467221E-01  0.464977E-01  0.467221E-01  0.473681E-01
  0.483779E-01  0.497055E-01  0.513409E-01  0.533193E-01  0.557295E-01  0.586881E-01
  0.622413E-01  0.662244E-01  0.701543E-01  0.731649E-01  0.739938E-01  0.712299E-01
  0.640920E-01  0.533873E-01  0.415779E-01  0.282389E-01  0.198324E-01  0.157150E-01
  0.157150E-01  0.198324E-01  0.282389E-01  0.402336E-01  0.533873E-01  0.642914E-01
  0.705399E-01  0.718981E-01  0.697057E-01  0.656277E-01  0.609465E-01  0.564591E-01
  0.525627E-01  0.493576E-01  0.467787E-01  0.447242E-01  0.431199E-01  0.419220E-01
  0.411129E-01  0.407002E-01  0.407002E-01  0.411129E-01  0.419220E-01  0.431199E-01
  0.447242E-01  0.467787E-01  0.493576E-01  0.525627E-01  0.564591E-01  0.609465E-01
  0.656277E-01  0.697057E-01  0.718981E-01  0.705399E-01  0.642914E-01  0.533873E-01
  0.402336E-01  0.282389E-01  0.180896E-01  0.122797E-01  0.104605E-01  0.122797E-01
  0.180896E-01  0.282389E-01  0.415779E-01  0.549204E-01  0.646360E-01  0.689216E-01
  0.683705E-01  0.647684E-01  0.598153E-01  0.546633E-01  0.499613E-01  0.459832E-01
  0.427539E-01  0.401892E-01  0.381981E-01  0.367110E-01  0.356751E-01  0.350585E-01
  0.348526E-01  0.350585E-01  0.356751E-01  0.367110E-01  0.381981E-01  0.401892E-01
  0.427539E-01  0.459832E-01  0.499613E-01  0.546633E-01  0.598153E-01  0.647684E-01
  0.683705E-01  0.689216E-01  0.646360E-01  0.549204E-01  0.415779E-01  0.282389E-01
  0.180896E-01  0.666228E-02  0.395318E-02  0.395318E-02  0.666228E-02  0.133665E-01
  0.250749E-01  0.403287E-01  0.549204E-01  0.646071E-01  0.679156E-01  0.661508E-01
  0.615519E-01  0.559322E-01  0.503972E-01  0.455075E-01  0.414506E-01  0.381979E-01
  0.356507E-01  0.337198E-01  0.323339E-01  0.314366E-01  0.309936E-01  0.309936E-01
  0.314366E-01  0.323339E-01  0.337198E-01  0.356507E-01  0.381979E-01  0.414506E-01
  0.455075E-01  0.503972E-01  0.559322E-01  0.615519E-01  0.661508E-01  0.679156E-01
  0.646071E-01  0.549204E-01  0.403287E-01  0.250749E-01  0.133665E-01  0.666228E-02
  0.395318E-02  0.285305E-02  0.395318E-02  0.803241E-02  0.166537E-01  0.300317E-01
  0.452903E-01  0.576945E-01  0.640315E-01  0.643180E-01  0.605922E-01  0.550273E-01
  0.491053E-01  0.436442E-01  0.389978E-01  0.352229E-01  0.322382E-01  0.299422E-01
  0.282516E-01  0.270961E-01  0.264215E-01  0.261991E-01  0.264215E-01  0.270961E-01
  0.282516E-01  0.299422E-01  0.322382E-01  0.352229E-01  0.389978E-01  0.436442E-01
  0.491053E-01  0.550273E-01  0.605922E-01  0.643180E-01  0.640315E-01  0.576945E-01
  0.452903E-01  0.300317E-01  0.166537E-01  0.803241E-02  0.395318E-02  0.395318E-02
  0.395318E-02  0.644888E-02  0.126547E-01  0.235303E-01  0.376753E-01  0.510403E-01
  0.595544E-01  0.618579E-01  0.592937E-01  0.540894E-01  0.480248E-01  0.421678E-01
  0.370445E-01  0.328175E-01  0.294434E-01  0.268160E-01  0.248396E-01  0.234348E-01
  0.225346E-01  0.220940E-01  0.220940E-01  0.225346E-01  0.234348E-01  0.248396E-01
  0.268160E-01  0.294434E-01  0.328175E-01  0.370445E-01  0.421678E-01  0.480248E-01
  0.540894E-01  0.592937E-01  0.618579E-01  0.595544E-01  0.510403E-01  0.376753E-01
  0.235303E-01  0.126547E-01  0.644888E-02  0.395318E-02  0.666228E-02  0.803241E-02
  0.126547E-01  0.213560E-01  0.335667E-01  0.463092E-01  0.556342E-01  0.593150E-01
  0.578306E-01  0.531285E-01  0.471020E-01  0.410067E-01  0.355210E-01  0.309158E-01
  0.272043E-01  0.242878E-01  0.220586E-01  0.204283E-01  0.193208E-01  0.186773E-01
  0.184657E-01  0.186773E-01  0.193208E-01  0.204283E-01  0.220586E-01  0.242878E-01
  0.272043E-01  0.309158E-01  0.355210E-01  0.410067E-01  0.471020E-01  0.531285E-01
  0.578306E-01  0.593150E-01  0.556342E-01  0.463092E-01  0.335667E-01  0.213560E-01
  0.126547E-01  0.803241E-02  0.666228E-02  0.133665E-01  0.166537E-01  0.235303E-01
  0.335667E-01  0.446090E-01  0.533565E-01  0.573932E-01  0.565307E-01  0.522465E-01
  0.463310E-01  0.401117E-01  0.343666E-01  0.294568E-01  0.254568E-01  0.222887E-01
  0.198391E-01  0.180100E-01  0.167181E-01  0.158934E-01  0.154904E-01  0.154904E-01
  0.158934E-01  0.167181E-01  0.180100E-01  0.198391E-01  0.222887E-01  0.254568E-01
  0.294568E-01  0.343666E-01  0.401117E-01  0.463310E-01  0.522465E-01  0.565307E-01
  0.573932E-01  0.533565E-01  0.446090E-01  0.335667E-01  0.235303E-01  0.166537E-01
  0.133665E-01  0.133665E-01  0.250749E-01  0.300317E-01  0.376753E-01  0.463092E-01
  0.533565E-01  0.566775E-01  0.557599E-01  0.516094E-01  0.457528E-01  0.394581E-01
  0.335305E-01  0.283834E-01  0.241423E-01  0.207564E-01  0.181140E-01  0.161097E-01
  0.146544E-01  0.136703E-01  0.130995E-01  0.129118E-01  0.130995E-01  0.136703E-01
  0.146544E-01  0.161097E-01  0.181140E-01  0.207564E-01  0.241423E-01  0.283834E-01
  0.335305E-01  0.394581E-01  0.457528E-01  0.516094E-01  0.557599E-01  0.566775E-01
  0.533565E-01  0.463092E-01  0.376753E-01  0.300317E-01  0.250749E-01  0.233970E-01
  0.250749E-01  0.403287E-01  0.452903E-01  0.510403E-01  0.556342E-01  0.573932E-01
  0.557599E-01  0.513753E-01  0.454365E-01  0.390504E-01  0.329785E-01  0.276449E-01
  0.232048E-01  0.196318E-01  0.168205E-01  0.146613E-01  0.130606E-01  0.119360E-01
  0.112196E-01  0.108697E-01  0.108697E-01  0.112196E-01  0.119360E-01  0.130606E-01
  0.146613E-01  0.168205E-01  0.196318E-01  0.232048E-01  0.276449E-01  0.329785E-01
  0.390504E-01  0.454365E-01  0.513753E-01  0.557599E-01  0.573932E-01  0.556342E-01
  0.510403E-01  0.452903E-01  0.403287E-01  0.375396E-01  0.375396E-01  0.403287E-01
  0.549204E-01  0.576945E-01  0.595544E-01  0.593150E-01  0.565307E-01  0.516094E-01
  0.454365E-01  0.389104E-01  0.327008E-01  0.272087E-01  0.225987E-01  0.188616E-01
  0.159000E-01  0.136023E-01  0.118711E-01  0.106209E-01  0.977755E-02  0.928862E-02
  0.912794E-02  0.928862E-02  0.977755E-02  0.106209E-01  0.118711E-01  0.136023E-01
  0.159000E-01  0.188616E-01  0.225987E-01  0.272087E-01  0.327008E-01  0.389104E-01
  0.454365E-01  0.516094E-01  0.565307E-01  0.593150E-01  0.595544E-01  0.576945E-01
  0.549204E-01  0.525960E-01  0.517061E-01  0.525960E-01  0.549204E-01  0.646071E-01
  0.640315E-01  0.618579E-01  0.578306E-01  0.522465E-01  0.457528E-01  0.390504E-01
  0.327008E-01  0.270636E-01  0.222992E-01  0.184095E-01  0.153064E-01  0.128792E-01
  0.110272E-01  0.966180E-02  0.870471E-02  0.809547E-02  0.779810E-02  0.779810E-02
  0.809547E-02  0.870471E-02  0.966180E-02  0.110272E-01  0.128792E-01  0.153064E-01
  0.184095E-01  0.222992E-01  0.270636E-01  0.327008E-01  0.390504E-01  0.457528E-01
  0.522465E-01  0.578306E-01  0.618579E-01  0.640315E-01  0.646071E-01  0.642914E-01
  0.638809E-01  0.638809E-01  0.642914E-01  0.646071E-01  0.679156E-01  0.643180E-01
  0.592937E-01  0.531285E-01  0.463310E-01  0.394581E-01  0.329785E-01  0.272087E-01
  0.222992E-01  0.182599E-01  0.150140E-01  0.124563E-01  0.104851E-01  0.900858E-02
  0.794486E-02  0.722746E-02  0.681200E-02  0.667571E-02  0.681200E-02  0.722746E-02
  0.794486E-02  0.900858E-02  0.104851E-01  0.124563E-01  0.150140E-01  0.182599E-01
  0.222992E-01  0.272087E-01  0.329785E-01  0.394581E-01  0.463310E-01  0.531285E-01
  0.592937E-01  0.643180E-01  0.679156E-01  0.701241E-01  0.712299E-01  0.715532E-01
  0.712299E-01  0.701241E-01  0.679156E-01  0.661508E-01  0.605922E-01  0.540894E-01
  0.471020E-01  0.401117E-01  0.335305E-01  0.276449E-01  0.225987E-01  0.184095E-01
  0.150140E-01  0.123167E-01  0.102192E-01  0.862824E-02  0.745836E-02  0.663810E-02
  0.611628E-02  0.586227E-02  0.586227E-02  0.611628E-02  0.663810E-02  0.745836E-02
  0.862824E-02  0.102192E-01  0.123167E-01  0.150140E-01  0.184095E-01  0.225987E-01
  0.276449E-01  0.335305E-01  0.401117E-01  0.471020E-01  0.540894E-01  0.605922E-01
  0.661508E-01  0.704309E-01  0.732786E-01  0.746844E-01  0.746844E-01  0.732786E-01
  0.704309E-01  0.661508E-01  0.615519E-01  0.550273E-01  0.480248E-01  0.410067E-01
  0.343666E-01  0.283834E-01  0.232048E-01  0.188616E-01  0.153064E-01  0.124563E-01
  0.102192E-01  0.850324E-02  0.722094E-02  0.629659E-02  0.567322E-02  0.531333E-02
  0.519568E-02  0.531333E-02  0.567322E-02  0.629659E-02  0.722094E-02  0.850324E-02
  0.102192E-01  0.124563E-01  0.153064E-01  0.188616E-01  0.232048E-01  0.283834E-01
  0.343666E-01  0.410067E-01  0.480248E-01  0.550273E-01  0.615519E-01  0.671365E-01
  0.713906E-01  0.740416E-01  0.749405E-01  0.740416E-01  0.713906E-01  0.671365E-01
  0.615519E-01  0.559322E-01  0.491053E-01  0.421678E-01  0.355210E-01  0.294568E-01
  0.241423E-01  0.196318E-01  0.159000E-01  0.128792E-01  0.104851E-01  0.862824E-02
  0.722094E-02  0.618480E-02  0.545812E-02  0.499728E-02  0.477407E-02  0.477407E-02
  0.499728E-02  0.545812E-02  0.618480E-02  0.722094E-02  0.862824E-02  0.104851E-01
  0.128792E-01  0.159000E-01  0.196318E-01  0.241423E-01  0.294568E-01  0.355210E-01
  0.421678E-01  0.491053E-01  0.559322E-01  0.621793E-01  0.673706E-01  0.710885E-01
  0.730275E-01  0.730275E-01  0.710885E-01  0.673706E-01  0.621793E-01  0.559322E-01
  0.503972E-01  0.436442E-01  0.370445E-01  0.309158E-01  0.254568E-01  0.207564E-01
  0.168205E-01  0.136023E-01  0.110272E-01  0.900858E-02  0.745836E-02  0.629659E-02
  0.545812E-02  0.489426E-02  0.457049E-02  0.446510E-02  0.457049E-02  0.489426E-02
  0.545812E-02  0.629659E-02  0.745836E-02  0.900858E-02  0.110272E-01  0.136023E-01
  0.168205E-01  0.207564E-01  0.254568E-01  0.309158E-01  0.370445E-01  0.436442E-01
  0.503972E-01  0.568840E-01  0.626256E-01  0.671459E-01  0.700402E-01  0.710369E-01
  0.700402E-01  0.671459E-01  0.626256E-01  0.568840E-01  0.503972E-01  0.455075E-01
  0.389978E-01  0.328175E-01  0.272043E-01  0.222887E-01  0.181140E-01  0.146613E-01
  0.118711E-01  0.966180E-02  0.794486E-02  0.663810E-02  0.567322E-02  0.499728E-02
  0.457049E-02  0.436467E-02  0.436467E-02  0.457049E-02  0.499728E-02  0.567322E-02
  0.663810E-02  0.794486E-02  0.966180E-02  0.118711E-01  0.146613E-01  0.181140E-01
  0.222887E-01  0.272043E-01  0.328175E-01  0.389978E-01  0.455075E-01  0.519974E-01
  0.580283E-01  0.631194E-01  0.668165E-01  0.687631E-01  0.687631E-01  0.668165E-01
  0.631194E-01  0.580283E-01  0.519974E-01  0.455075E-01  0.414506E-01  0.352229E-01
  0.294434E-01  0.242878E-01  0.198391E-01  0.161097E-01  0.130606E-01  0.106209E-01
  0.870471E-02  0.722746E-02  0.611628E-02  0.531333E-02  0.477407E-02  0.446510E-02
  0.436467E-02  0.446510E-02  0.477407E-02  0.531333E-02  0.611628E-02  0.722746E-02
  0.870471E-02  0.106209E-01  0.130606E-01  0.161097E-01  0.198391E-01  0.242878E-01
  0.294434E-01  0.352229E-01  0.414506E-01  0.478436E-01  0.540169E-01  0.595147E-01
  0.638688E-01  0.666696E-01  0.676366E-01  0.666696E-01  0.638688E-01  0.595147E-01
  0.540169E-01  0.478436E-01  0.414506E-01  0.381979E-01  0.322382E-01  0.268160E-01
  0.220586E-01  0.180100E-01  0.146544E-01  0.119360E-01  0.977755E-02  0.809547E-02
  0.681200E-02  0.586227E-02  0.519568E-02  0.477407E-02  0.457049E-02  0.457049E-02
  0.477407E-02  0.519568E-02  0.586227E-02  0.681200E-02  0.809547E-02  0.977755E-02
  0.119360E-01  0.146544E-01  0.180100E-01  0.220586E-01  0.268160E-01  0.322382E-01
  0.381979E-01  0.444665E-01  0.507095E-01  0.565067E-01  0.613978E-01  0.649479E-01
  0.668165E-01  0.668165E-01  0.649479E-01  0.613978E-01  0.565067E-01  0.507095E-01
  0.444665E-01  0.381979E-01  0.356507E-01  0.299422E-01  0.248396E-01  0.204283E-01
  0.167181E-01  0.136703E-01  0.112196E-01  0.928862E-02  0.779810E-02  0.667571E-02
  0.586227E-02  0.531333E-02  0.499728E-02  0.489426E-02  0.499728E-02  0.531333E-02
  0.586227E-02  0.667571E-02  0.779810E-02  0.928862E-02  0.112196E-01  0.136703E-01
  0.167181E-01  0.204283E-01  0.248396E-01  0.299422E-01  0.356507E-01  0.417815E-01
  0.480433E-01  0.540516E-01  0.593659E-01  0.635478E-01  0.662244E-01  0.671459E-01
  0.662244E-01  0.635478E-01  0.593659E-01  0.540516E-01  0.480433E-01  0.417815E-01
  0.356507E-01  0.337198E-01  0.282516E-01  0.234348E-01  0.193208E-01  0.158934E-01
  0.130995E-01  0.108697E-01  0.912794E-02  0.779810E-02  0.681200E-02  0.611628E-02
  0.567322E-02  0.545812E-02  0.545812E-02  0.567322E-02  0.611628E-02  0.681200E-02
  0.779810E-02  0.912794E-02  0.108697E-01  0.130995E-01  0.158934E-01  0.193208E-01
  0.234348E-01  0.282516E-01  0.337198E-01  0.396920E-01  0.459130E-01  0.520307E-01
  0.576306E-01  0.622884E-01  0.656277E-01  0.673706E-01  0.673706E-01  0.656277E-01
  0.622884E-01  0.576306E-01  0.520307E-01  0.459130E-01  0.396920E-01  0.337198E-01
  0.323339E-01  0.270961E-01  0.225346E-01  0.186773E-01  0.154904E-01  0.129118E-01
  0.108697E-01  0.928862E-02  0.809547E-02  0.722746E-02  0.663810E-02  0.629659E-02
  0.618480E-02  0.629659E-02  0.663810E-02  0.722746E-02  0.809547E-02  0.928862E-02
  0.108697E-01  0.129118E-01  0.154904E-01  0.186773E-01  0.225346E-01  0.270961E-01
  0.323339E-01  0.381263E-01  0.442425E-01  0.503541E-01  0.560707E-01  0.609927E-01
  0.647684E-01  0.671365E-01  0.679426E-01  0.671365E-01  0.647684E-01  0.609927E-01
  0.560707E-01  0.503541E-01  0.442425E-01  0.381263E-01  0.323339E-01  0.314366E-01
  0.264215E-01  0.220940E-01  0.184657E-01  0.154904E-01  0.130995E-01  0.112196E-01
  0.977755E-02  0.870471E-02  0.794486E-02  0.745836E-02  0.722094E-02  0.722094E-02
  0.745836E-02  0.794486E-02  0.870471E-02  0.977755E-02  0.112196E-01  0.130995E-01
  0.154904E-01  0.184657E-01  0.220940E-01  0.264215E-01  0.314366E-01  0.370327E-01
  0.429902E-01  0.489882E-01  0.546448E-01  0.595795E-01  0.634809E-01  0.661508E-01
  0.674985E-01  0.674985E-01  0.661508E-01  0.634809E-01  0.595795E-01  0.546448E-01
  0.489882E-01  0.429902E-01  0.370327E-01  0.314366E-01  0.309936E-01  0.261991E-01
  0.220940E-01  0.186773E-01  0.158934E-01  0.136703E-01  0.119360E-01  0.106209E-01
  0.966180E-02  0.900858E-02  0.862824E-02  0.850324E-02  0.862824E-02  0.900858E-02
  0.966180E-02  0.106209E-01  0.119360E-01  0.136703E-01  0.158934E-01  0.186773E-01
  0.220940E-01  0.261991E-01  0.309936E-01  0.363807E-01  0.421418E-01  0.479464E-01
  0.533955E-01  0.581001E-01  0.617775E-01  0.643180E-01  0.657687E-01  0.662352E-01
  0.657687E-01  0.643180E-01  0.617775E-01  0.581001E-01  0.533955E-01  0.479464E-01
  0.421418E-01  0.363807E-01  0.309936E-01  0.309936E-01  0.264215E-01  0.225346E-01
  0.193208E-01  0.167181E-01  0.146544E-01  0.130606E-01  0.118711E-01  0.110272E-01
  0.104851E-01  0.102192E-01  0.102192E-01  0.104851E-01  0.110272E-01  0.118711E-01
  0.130606E-01  0.146544E-01  0.167181E-01  0.193208E-01  0.225346E-01  0.264215E-01
  0.309936E-01  0.361630E-01  0.417085E-01  0.472789E-01  0.524341E-01  0.567368E-01
  0.598902E-01  0.618579E-01  0.628642E-01  0.632468E-01  0.632468E-01  0.628642E-01
  0.618579E-01  0.598902E-01  0.567368E-01  0.524341E-01  0.472789E-01  0.417085E-01
  0.361630E-01  0.309936E-01  0.314366E-01  0.270961E-01  0.234348E-01  0.204283E-01
  0.180100E-01  0.161097E-01  0.146613E-01  0.136023E-01  0.128792E-01  0.124563E-01
  0.123167E-01  0.124563E-01  0.128792E-01  0.136023E-01  0.146613E-01  0.161097E-01
  0.180100E-01  0.204283E-01  0.234348E-01  0.270961E-01  0.314366E-01  0.363807E-01
  0.417085E-01  0.470469E-01  0.519023E-01  0.557541E-01  0.582328E-01  0.593150E-01
  0.593826E-01  0.590528E-01  0.588714E-01  0.590528E-01  0.593826E-01  0.593150E-01
  0.582328E-01  0.557541E-01  0.519023E-01  0.470469E-01  0.417085E-01  0.363807E-01
  0.314366E-01  0.323339E-01  0.282516E-01  0.248396E-01  0.220586E-01  0.198391E-01
  0.181140E-01  0.168205E-01  0.159000E-01  0.153064E-01  0.150140E-01  0.150140E-01
  0.153064E-01  0.159000E-01  0.168205E-01  0.181140E-01  0.198391E-01  0.220586E-01
  0.248396E-01  0.282516E-01  0.323339E-01  0.370327E-01  0.421418E-01  0.472789E-01
  0.519023E-01  0.553937E-01  0.572566E-01  0.573932E-01  0.562621E-01  0.547312E-01
  0.536934E-01  0.536934E-01  0.547312E-01  0.562621E-01  0.573932E-01  0.572566E-01
  0.553937E-01  0.519023E-01  0.472789E-01  0.421418E-01  0.370327E-01  0.323339E-01
  0.337198E-01  0.299422E-01  0.268160E-01  0.242878E-01  0.222887E-01  0.207564E-01
  0.196318E-01  0.188616E-01  0.184095E-01  0.182599E-01  0.184095E-01  0.188616E-01
  0.196318E-01  0.207564E-01  0.222887E-01  0.242878E-01  0.268160E-01  0.299422E-01
  0.337198E-01  0.381263E-01  0.429902E-01  0.479464E-01  0.524341E-01  0.557541E-01
  0.572566E-01  0.566775E-01  0.544242E-01  0.515170E-01  0.491626E-01  0.482686E-01
  0.491626E-01  0.515170E-01  0.544242E-01  0.566775E-01  0.572566E-01  0.557541E-01
  0.524341E-01  0.479464E-01  0.429902E-01  0.381263E-01  0.337198E-01  0.356507E-01
  0.322382E-01  0.294434E-01  0.272043E-01  0.254568E-01  0.241423E-01  0.232048E-01
  0.225987E-01  0.222992E-01  0.222992E-01  0.225987E-01  0.232048E-01  0.241423E-01
  0.254568E-01  0.272043E-01  0.294434E-01  0.322382E-01  0.356507E-01  0.396920E-01
  0.442425E-01  0.489882E-01  0.533955E-01  0.567368E-01  0.582328E-01  0.573932E-01
  0.544242E-01  0.503345E-01  0.465490E-01  0.443155E-01  0.443155E-01  0.465490E-01
  0.503345E-01  0.544242E-01  0.573932E-01  0.582328E-01  0.567368E-01  0.533955E-01
  0.489882E-01  0.442425E-01  0.396920E-01  0.356507E-01  0.381979E-01  0.352229E-01
  0.328175E-01  0.309158E-01  0.294568E-01  0.283834E-01  0.276449E-01  0.272087E-01
  0.270636E-01  0.272087E-01  0.276449E-01  0.283834E-01  0.294568E-01  0.309158E-01
  0.328175E-01  0.352229E-01  0.381979E-01  0.417815E-01  0.459130E-01  0.503541E-01
  0.546448E-01  0.581001E-01  0.598902E-01  0.593150E-01  0.562621E-01  0.515170E-01
  0.465490E-01  0.428799E-01  0.415410E-01  0.428799E-01  0.465490E-01  0.515170E-01
  0.562621E-01  0.593150E-01  0.598902E-01  0.581001E-01  0.546448E-01  0.503541E-01
  0.459130E-01  0.417815E-01  0.381979E-01  0.414506E-01  0.389978E-01  0.370445E-01
  0.355210E-01  0.343666E-01  0.335305E-01  0.329785E-01  0.327008E-01  0.327008E-01
  0.329785E-01  0.335305E-01  0.343666E-01  0.355210E-01  0.370445E-01  0.389978E-01
  0.414506E-01  0.444665E-01  0.480433E-01  0.520307E-01  0.560707E-01  0.595795E-01
  0.617775E-01  0.618579E-01  0.593826E-01  0.547312E-01  0.491626E-01  0.443155E-01
  0.415410E-01  0.415410E-01  0.443155E-01  0.491626E-01  0.547312E-01  0.593826E-01
  0.618579E-01  0.617775E-01  0.595795E-01  0.560707E-01  0.520307E-01  0.480433E-01
  0.444665E-01  0.414506E-01  0.455075E-01  0.436442E-01  0.421678E-01  0.410067E-01
  0.401117E-01  0.394581E-01  0.390504E-01  0.389104E-01  0.390504E-01  0.394581E-01
  0.401117E-01  0.410067E-01  0.421678E-01  0.436442E-01  0.455075E-01  0.478436E-01
  0.507095E-01  0.540516E-01  0.576306E-01  0.609927E-01  0.634809E-01  0.643180E-01
  0.628642E-01  0.590528E-01  0.536934E-01  0.482686E-01  0.443155E-01  0.428799E-01
  0.443155E-01  0.482686E-01  0.536934E-01  0.590528E-01  0.628642E-01  0.643180E-01
  0.634809E-01  0.609927E-01  0.576306E-01  0.540516E-01  0.507095E-01  0.478436E-01
  0.455075E-01  0.503972E-01  0.491053E-01  0.480248E-01  0.471020E-01  0.463310E-01
  0.457528E-01  0.454365E-01  0.454365E-01  0.457528E-01  0.463310E-01  0.471020E-01
  0.480248E-01  0.491053E-01  0.503972E-01  0.519974E-01  0.540169E-01  0.565067E-01
  0.593659E-01  0.622884E-01  0.647684E-01  0.661508E-01  0.657687E-01  0.632468E-01
  0.588714E-01  0.536934E-01  0.491626E-01  0.465490E-01  0.465490E-01  0.491626E-01
  0.536934E-01  0.588714E-01  0.632468E-01  0.657687E-01  0.661508E-01  0.647684E-01
  0.622884E-01  0.593659E-01  0.565067E-01  0.540169E-01  0.519974E-01  0.503972E-01
  0.559322E-01  0.550273E-01  0.540894E-01  0.531285E-01  0.522465E-01  0.516094E-01
  0.513753E-01  0.516094E-01  0.522465E-01  0.531285E-01  0.540894E-01  0.550273E-01
  0.559322E-01  0.568840E-01  0.580283E-01  0.595147E-01  0.613978E-01  0.635478E-01
  0.656277E-01  0.671365E-01  0.674985E-01  0.662352E-01  0.632468E-01  0.590528E-01
  0.547312E-01  0.515170E-01  0.503345E-01  0.515170E-01  0.547312E-01  0.590528E-01
  0.632468E-01  0.662352E-01  0.674985E-01  0.671365E-01  0.656277E-01  0.635478E-01
  0.613978E-01  0.595147E-01  0.580283E-01  0.568840E-01  0.559322E-01  0.615519E-01
  0.605922E-01  0.592937E-01  0.578306E-01  0.565307E-01  0.557599E-01  0.557599E-01
  0.565307E-01  0.578306E-01  0.592937E-01  0.605922E-01  0.615519E-01  0.621793E-01
  0.626256E-01  0.631194E-01  0.638688E-01  0.649479E-01  0.662244E-01  0.673706E-01
  0.679426E-01  0.674985E-01  0.657687E-01  0.628642E-01  0.593826E-01  0.562621E-01
  0.544242E-01  0.544242E-01  0.562621E-01  0.593826E-01  0.628642E-01  0.657687E-01
  0.674985E-01  0.679426E-01  0.673706E-01  0.662244E-01  0.649479E-01  0.638688E-01
  0.631194E-01  0.626256E-01  0.621793E-01  0.615519E-01  0.661508E-01  0.643180E-01
  0.618579E-01  0.593150E-01  0.573932E-01  0.566775E-01  0.573932E-01  0.593150E-01
  0.618579E-01  0.643180E-01  0.661508E-01  0.671365E-01  0.673706E-01  0.671459E-01
  0.668165E-01  0.666696E-01  0.668165E-01  0.671459E-01  0.673706E-01  0.671365E-01
  0.661508E-01  0.643180E-01  0.618579E-01  0.593150E-01  0.573932E-01  0.566775E-01
  0.573932E-01  0.593150E-01  0.618579E-01  0.643180E-01  0.661508E-01  0.671365E-01
  0.673706E-01  0.671459E-01  0.668165E-01  0.666696E-01  0.668165E-01  0.671459E-01
  0.673706E-01  0.671365E-01  0.661508E-01  0.679156E-01  0.640315E-01  0.595544E-01
  0.556342E-01  0.533565E-01  0.533565E-01  0.556342E-01  0.595544E-01  0.640315E-01
  0.679156E-01  0.704309E-01  0.713906E-01  0.710885E-01  0.700402E-01  0.687631E-01
  0.676366E-01  0.668165E-01  0.662244E-01  0.656277E-01  0.647684E-01  0.634809E-01
  0.617775E-01  0.598902E-01  0.582328E-01  0.572566E-01  0.572566E-01  0.582328E-01
  0.598902E-01  0.617775E-01  0.634809E-01  0.647684E-01  0.656277E-01  0.662244E-01
  0.668165E-01  0.676366E-01  0.687631E-01  0.700402E-01  0.710885E-01  0.713906E-01
  0.704309E-01  0.679156E-01  0.646071E-01  0.576945E-01  0.510403E-01  0.463092E-01
  0.446090E-01  0.463092E-01  0.510403E-01  0.576945E-01  0.646071E-01  0.701241E-01
  0.732786E-01  0.740416E-01  0.730275E-01  0.710369E-01  0.687631E-01  0.666696E-01
  0.649479E-01  0.635478E-01  0.622884E-01  0.609927E-01  0.595795E-01  0.581001E-01
  0.567368E-01  0.557541E-01  0.553937E-01  0.557541E-01  0.567368E-01  0.581001E-01
  0.595795E-01  0.609927E-01  0.622884E-01  0.635478E-01  0.649479E-01  0.666696E-01
  0.687631E-01  0.710369E-01  0.730275E-01  0.740416E-01  0.732786E-01  0.701241E-01
  0.646071E-01  0.549204E-01  0.452903E-01  0.376753E-01  0.335667E-01  0.335667E-01
  0.376753E-01  0.452903E-01  0.549204E-01  0.642914E-01  0.712299E-01  0.746844E-01
  0.749405E-01  0.730275E-01  0.700402E-01  0.668165E-01  0.638688E-01  0.613978E-01
  0.593659E-01  0.576306E-01  0.560707E-01  0.546448E-01  0.533955E-01  0.524341E-01
  0.519023E-01  0.519023E-01  0.524341E-01  0.533955E-01  0.546448E-01  0.560707E-01
  0.576306E-01  0.593659E-01  0.613978E-01  0.638688E-01  0.668165E-01  0.700402E-01
  0.730275E-01  0.749405E-01  0.746844E-01  0.712299E-01  0.642914E-01  0.549204E-01
  0.403287E-01  0.300317E-01  0.235303E-01  0.213560E-01  0.235303E-01  0.300317E-01
  0.403287E-01  0.525960E-01  0.638809E-01  0.715532E-01  0.746844E-01  0.740416E-01
  0.710885E-01  0.671459E-01  0.631194E-01  0.595147E-01  0.565067E-01  0.540516E-01
  0.520307E-01  0.503541E-01  0.489882E-01  0.479464E-01  0.472789E-01  0.470469E-01
  0.472789E-01  0.479464E-01  0.489882E-01  0.503541E-01  0.520307E-01  0.540516E-01
  0.565067E-01  0.595147E-01  0.631194E-01  0.671459E-01  0.710885E-01  0.740416E-01
  0.746844E-01  0.715532E-01  0.638809E-01  0.525960E-01  0.403287E-01  0.250749E-01
  0.166537E-01  0.126547E-01  0.126547E-01  0.166537E-01  0.250749E-01  0.375396E-01
  0.517061E-01  0.638809E-01  0.712299E-01  0.732786E-01  0.713906E-01  0.673706E-01
  0.626256E-01  0.580283E-01  0.540169E-01  0.507095E-01  0.480433E-01  0.459130E-01
  0.442425E-01  0.429902E-01  0.421418E-01  0.417085E-01  0.417085E-01  0.421418E-01
  0.429902E-01  0.442425E-01  0.459130E-01  0.480433E-01  0.507095E-01  0.540169E-01
  0.580283E-01  0.626256E-01  0.673706E-01  0.713906E-01  0.732786E-01  0.712299E-01
  0.638809E-01  0.517061E-01  0.375396E-01  0.250749E-01  0.133665E-01  0.803241E-02
  0.644888E-02  0.803241E-02  0.133665E-01  0.233970E-01  0.375396E-01  0.525960E-01
  0.642914E-01  0.701241E-01  0.704309E-01  0.671365E-01  0.621793E-01  0.568840E-01
  0.519974E-01  0.478436E-01  0.444665E-01  0.417815E-01  0.396920E-01  0.381263E-01
  0.370327E-01  0.363807E-01  0.361630E-01  0.363807E-01  0.370327E-01  0.381263E-01
  0.396920E-01  0.417815E-01  0.444665E-01  0.478436E-01  0.519974E-01  0.568840E-01
  0.621793E-01  0.671365E-01  0.704309E-01  0.701241E-01  0.642914E-01  0.525960E-01
  0.375396E-01  0.233970E-01  0.133665E-01  0.666228E-02  0.395318E-02  0.395318E-02
  0.666228E-02  0.133665E-01  0.250749E-01  0.403287E-01  0.549204E-01  0.646071E-01
  0.679156E-01  0.661508E-01  0.615519E-01  0.559322E-01  0.503972E-01  0.455075E-01
  0.414506E-01  0.381979E-01  0.356507E-01  0.337198E-01  0.323339E-01  0.314366E-01
  0.309936E-01  0.309936E-01  0.314366E-01  0.323339E-01  0.337198E-01  0.356507E-01
  0.381979E-01  0.414506E-01  0.455075E-01  0.503972E-01  0.559322E-01  0.615519E-01
  0.661508E-01  0.679156E-01  0.646071E-01  0.549204E-01  0.403287E-01  0.250749E-01
  0.133665E-01  0.666228E-02  0.144769E-02  0.785995E-03  0.144769E-02  0.439926E-02
  0.118765E-01  0.250749E-01  0.415779E-01  0.560688E-01  0.643148E-01  0.657687E-01
  0.625173E-01  0.570135E-01  0.509650E-01  0.453153E-01  0.404823E-01  0.365502E-01
  0.334415E-01  0.310496E-01  0.292871E-01  0.280818E-01  0.273783E-01  0.271465E-01
  0.273783E-01  0.280818E-01  0.292871E-01  0.310496E-01  0.334415E-01  0.365502E-01
  0.404823E-01  0.453153E-01  0.509650E-01  0.570135E-01  0.625173E-01  0.657687E-01
  0.643148E-01  0.560688E-01  0.415779E-01  0.250749E-01  0.118765E-01  0.439926E-02
  0.144769E-02  0.785995E-03  0.785995E-03  0.219420E-02  0.677191E-02  0.166537E-01
  0.315275E-01  0.472457E-01  0.585206E-01  0.628642E-01  0.613304E-01  0.564317E-01
  0.503011E-01  0.442298E-01  0.388609E-01  0.344129E-01  0.308608E-01  0.280954E-01
  0.260143E-01  0.245344E-01  0.235865E-01  0.231230E-01  0.231230E-01  0.235865E-01
  0.245344E-01  0.260143E-01  0.280954E-01  0.308608E-01  0.344129E-01  0.388609E-01
  0.442298E-01  0.503011E-01  0.564317E-01  0.613304E-01  0.628642E-01  0.585206E-01
  0.472457E-01  0.315275E-01  0.166537E-01  0.677191E-02  0.219420E-02  0.785995E-03
  0.144769E-02  0.219420E-02  0.529121E-02  0.126547E-01  0.251044E-01  0.401387E-01
  0.528033E-01  0.593826E-01  0.596200E-01  0.556012E-01  0.496528E-01  0.433637E-01
  0.375965E-01  0.327161E-01  0.287745E-01  0.256776E-01  0.233103E-01  0.215780E-01
  0.204015E-01  0.197188E-01  0.194946E-01  0.197188E-01  0.204015E-01  0.215780E-01
  0.233103E-01  0.256776E-01  0.287745E-01  0.327161E-01  0.375965E-01  0.433637E-01
  0.496528E-01  0.556012E-01  0.596200E-01  0.593826E-01  0.528033E-01  0.401387E-01
  0.251044E-01  0.126547E-01  0.529121E-02  0.219420E-02  0.144769E-02  0.439926E-02
  0.677191E-02  0.126547E-01  0.229401E-01  0.362535E-01  0.486672E-01  0.562621E-01
  0.577883E-01  0.546304E-01  0.490050E-01  0.426591E-01  0.366262E-01  0.314030E-01
  0.271283E-01  0.237415E-01  0.211233E-01  0.191670E-01  0.177851E-01  0.169039E-01
  0.164741E-01  0.164741E-01  0.169039E-01  0.177851E-01  0.191670E-01  0.211233E-01
  0.237415E-01  0.271283E-01  0.314030E-01  0.366262E-01  0.426591E-01  0.490050E-01
  0.546304E-01  0.577883E-01  0.562621E-01  0.486672E-01  0.362535E-01  0.229401E-01
  0.126547E-01  0.677191E-02  0.439926E-02  0.439926E-02  0.118765E-01  0.166537E-01
  0.251044E-01  0.362535E-01  0.471670E-01  0.544242E-01  0.563767E-01  0.537481E-01
  0.484132E-01  0.420918E-01  0.358980E-01  0.304189E-01  0.258699E-01  0.222333E-01
  0.193962E-01  0.172436E-01  0.156798E-01  0.146233E-01  0.140115E-01  0.138107E-01
  0.140115E-01  0.146233E-01  0.156798E-01  0.172436E-01  0.193962E-01  0.222333E-01
  0.258699E-01  0.304189E-01  0.358980E-01  0.420918E-01  0.484132E-01  0.537481E-01
  0.563767E-01  0.544242E-01  0.471670E-01  0.362535E-01  0.251044E-01  0.166537E-01
  0.118765E-01  0.103953E-01  0.118765E-01  0.250749E-01  0.315275E-01  0.401387E-01
  0.486672E-01  0.544242E-01  0.558462E-01  0.532184E-01  0.479848E-01  0.416756E-01
  0.353784E-01  0.297139E-01  0.249472E-01  0.211002E-01  0.180743E-01  0.157502E-01
  0.140265E-01  0.128159E-01  0.120460E-01  0.116705E-01  0.116705E-01  0.120460E-01
  0.128159E-01  0.140265E-01  0.157502E-01  0.180743E-01  0.211002E-01  0.249472E-01
  0.297139E-01  0.353784E-01  0.416756E-01  0.479848E-01  0.532184E-01  0.558462E-01
  0.544242E-01  0.486672E-01  0.401387E-01  0.315275E-01  0.250749E-01  0.217696E-01
  0.217696E-01  0.250749E-01  0.415779E-01  0.472457E-01  0.528033E-01  0.562621E-01
  0.563767E-01  0.532184E-01  0.478271E-01  0.414504E-01  0.350597E-01  0.292532E-01
  0.243140E-01  0.202918E-01  0.171035E-01  0.146302E-01  0.127660E-01  0.114199E-01
  0.105132E-01  0.998833E-02  0.981594E-02  0.998833E-02  0.105132E-01  0.114199E-01
  0.127660E-01  0.146302E-01  0.171035E-01  0.202918E-01  0.243140E-01  0.292532E-01
  0.350597E-01  0.414504E-01  0.478271E-01  0.532184E-01  0.563767E-01  0.562621E-01
  0.528033E-01  0.472457E-01  0.415779E-01  0.375396E-01  0.361006E-01  0.375396E-01
  0.415779E-01  0.560688E-01  0.585206E-01  0.593826E-01  0.577883E-01  0.537481E-01
  0.479848E-01  0.414504E-01  0.349512E-01  0.290231E-01  0.239410E-01  0.197689E-01
  0.164378E-01  0.138319E-01  0.118424E-01  0.103757E-01  0.934907E-02  0.869654E-02
  0.837818E-02  0.837818E-02  0.869654E-02  0.934907E-02  0.103757E-01  0.118424E-01
  0.138319E-01  0.164378E-01  0.197689E-01  0.239410E-01  0.290231E-01  0.349512E-01
  0.414504E-01  0.479848E-01  0.537481E-01  0.577883E-01  0.593826E-01  0.585206E-01
  0.560688E-01  0.533873E-01  0.517061E-01  0.517061E-01  0.533873E-01  0.560688E-01
  0.643148E-01  0.628642E-01  0.596200E-01  0.546304E-01  0.484132E-01  0.416756E-01
  0.350597E-01  0.290231E-01  0.238172E-01  0.195108E-01  0.160469E-01  0.133168E-01
  0.112108E-01  0.963287E-02  0.849757E-02  0.773329E-02  0.729089E-02  0.714569E-02
  0.729089E-02  0.773329E-02  0.849757E-02  0.963287E-02  0.112108E-01  0.133168E-01
  0.160469E-01  0.195108E-01  0.238172E-01  0.290231E-01  0.350597E-01  0.416756E-01
  0.484132E-01  0.546304E-01  0.596200E-01  0.628642E-01  0.643148E-01  0.644628E-01
  0.640920E-01  0.638809E-01  0.640920E-01  0.644628E-01  0.643148E-01  0.657687E-01
  0.613304E-01  0.556012E-01  0.490050E-01  0.420918E-01  0.353784E-01  0.292532E-01
  0.239410E-01  0.195108E-01  0.159177E-01  0.130634E-01  0.108418E-01  0.915565E-02
  0.791693E-02  0.705002E-02  0.649892E-02  0.623045E-02  0.623045E-02  0.649892E-02
  0.705002E-02  0.791693E-02  0.915565E-02  0.108418E-01  0.130634E-01  0.159177E-01
  0.195108E-01  0.239410E-01  0.292532E-01  0.353784E-01  0.420918E-01  0.490050E-01
  0.556012E-01  0.613304E-01  0.657687E-01  0.687698E-01  0.704877E-01  0.712299E-01
  0.712299E-01  0.704877E-01  0.687698E-01  0.657687E-01  0.625173E-01  0.564317E-01
  0.496528E-01  0.426591E-01  0.358980E-01  0.297139E-01  0.243140E-01  0.197689E-01
  0.160469E-01  0.130634E-01  0.107203E-01  0.892219E-02  0.757943E-02  0.661297E-02
  0.596162E-02  0.558518E-02  0.546195E-02  0.558518E-02  0.596162E-02  0.661297E-02
  0.757943E-02  0.892219E-02  0.107203E-01  0.130634E-01  0.160469E-01  0.197689E-01
  0.243140E-01  0.297139E-01  0.358980E-01  0.426591E-01  0.496528E-01  0.564317E-01
  0.625173E-01  0.674985E-01  0.711164E-01  0.732786E-01  0.739938E-01  0.732786E-01
  0.711164E-01  0.674985E-01  0.625173E-01  0.570135E-01  0.503011E-01  0.433637E-01
  0.366262E-01  0.304189E-01  0.249472E-01  0.202918E-01  0.164378E-01  0.133168E-01
  0.108418E-01  0.892219E-02  0.746879E-02  0.640019E-02  0.565095E-02  0.517513E-02
  0.494418E-02  0.494418E-02  0.517513E-02  0.565095E-02  0.640019E-02  0.746879E-02
  0.892219E-02  0.108418E-01  0.133168E-01  0.164378E-01  0.202918E-01  0.249472E-01
  0.304189E-01  0.366262E-01  0.433637E-01  0.503011E-01  0.570135E-01  0.630377E-01
  0.679426E-01  0.713906E-01  0.731649E-01  0.731649E-01  0.713906E-01  0.679426E-01
  0.630377E-01  0.570135E-01  0.509650E-01  0.442298E-01  0.375965E-01  0.314030E-01
  0.258699E-01  0.211002E-01  0.171035E-01  0.138319E-01  0.112108E-01  0.915565E-02
  0.757943E-02  0.640019E-02  0.554944E-02  0.497644E-02  0.464661E-02  0.453908E-02
  0.464661E-02  0.497644E-02  0.554944E-02  0.640019E-02  0.757943E-02  0.915565E-02
  0.112108E-01  0.138319E-01  0.171035E-01  0.211002E-01  0.258699E-01  0.314030E-01
  0.375965E-01  0.442298E-01  0.509650E-01  0.573742E-01  0.629905E-01  0.673706E-01
  0.701543E-01  0.711089E-01  0.701543E-01  0.673706E-01  0.629905E-01  0.573742E-01
  0.509650E-01  0.453153E-01  0.388609E-01  0.327161E-01  0.271283E-01  0.222333E-01
  0.180743E-01  0.146302E-01  0.118424E-01  0.963287E-02  0.791693E-02  0.661297E-02
  0.565095E-02  0.497644E-02  0.454971E-02  0.434356E-02  0.434356E-02  0.454971E-02
  0.497644E-02  0.565095E-02  0.661297E-02  0.791693E-02  0.963287E-02  0.118424E-01
  0.146302E-01  0.180743E-01  0.222333E-01  0.271283E-01  0.327161E-01  0.388609E-01
  0.453153E-01  0.517233E-01  0.576485E-01  0.626256E-01  0.662244E-01  0.681139E-01
  0.681139E-01  0.662244E-01  0.626256E-01  0.576485E-01  0.517233E-01  0.453153E-01
  0.404823E-01  0.344129E-01  0.287745E-01  0.237415E-01  0.193962E-01  0.157502E-01
  0.127660E-01  0.103757E-01  0.849757E-02  0.705002E-02  0.596162E-02  0.517513E-02
  0.464661E-02  0.434356E-02  0.424500E-02  0.434356E-02  0.464661E-02  0.517513E-02
  0.596162E-02  0.705002E-02  0.849757E-02  0.103757E-01  0.127660E-01  0.157502E-01
  0.193962E-01  0.237415E-01  0.287745E-01  0.344129E-01  0.404823E-01  0.467034E-01
  0.526991E-01  0.580283E-01  0.622413E-01  0.649479E-01  0.658816E-01  0.649479E-01
  0.622413E-01  0.580283E-01  0.526991E-01  0.467034E-01  0.404823E-01  0.365502E-01
  0.308608E-01  0.256776E-01  0.211233E-01  0.172436E-01  0.140265E-01  0.114199E-01
  0.934907E-02  0.773329E-02  0.649892E-02  0.558518E-02  0.494418E-02  0.453908E-02
  0.434356E-02  0.434356E-02  0.453908E-02  0.494418E-02  0.558518E-02  0.649892E-02
  0.773329E-02  0.934907E-02  0.114199E-01  0.140265E-01  0.172436E-01  0.211233E-01
  0.256776E-01  0.308608E-01  0.365502E-01  0.425299E-01  0.484847E-01  0.540169E-01
  0.586881E-01  0.620815E-01  0.638688E-01  0.638688E-01  0.620815E-01  0.586881E-01
  0.540169E-01  0.484847E-01  0.425299E-01  0.365502E-01  0.334415E-01  0.280954E-01
  0.233103E-01  0.191670E-01  0.156798E-01  0.128159E-01  0.105132E-01  0.869654E-02
  0.729089E-02  0.623045E-02  0.546195E-02  0.494418E-02  0.464661E-02  0.454971E-02
  0.464661E-02  0.494418E-02  0.546195E-02  0.623045E-02  0.729089E-02  0.869654E-02
  0.105132E-01  0.128159E-01  0.156798E-01  0.191670E-01  0.233103E-01  0.280954E-01
  0.334415E-01  0.391826E-01  0.450563E-01  0.507095E-01  0.557295E-01  0.596951E-01
  0.622413E-01  0.631194E-01  0.622413E-01  0.596951E-01  0.557295E-01  0.507095E-01
  0.450563E-01  0.391826E-01  0.334415E-01  0.310496E-01  0.260143E-01  0.215780E-01
  0.177851E-01  0.146233E-01  0.120460E-01  0.998833E-02  0.837818E-02  0.714569E-02
  0.623045E-02  0.558518E-02  0.517513E-02  0.497644E-02  0.497644E-02  0.517513E-02
  0.558518E-02  0.623045E-02  0.714569E-02  0.837818E-02  0.998833E-02  0.120460E-01
  0.146233E-01  0.177851E-01  0.215780E-01  0.260143E-01  0.310496E-01  0.365607E-01
  0.423293E-01  0.480433E-01  0.533193E-01  0.577470E-01  0.609465E-01  0.626256E-01
  0.626256E-01  0.609465E-01  0.577470E-01  0.533193E-01  0.480433E-01  0.423293E-01
  0.365607E-01  0.310496E-01  0.292871E-01  0.245344E-01  0.204015E-01  0.169039E-01
  0.140115E-01  0.116705E-01  0.981594E-02  0.837818E-02  0.729089E-02  0.649892E-02
  0.596162E-02  0.565095E-02  0.554944E-02  0.565095E-02  0.596162E-02  0.649892E-02
  0.729089E-02  0.837818E-02  0.981594E-02  0.116705E-01  0.140115E-01  0.169039E-01
  0.204015E-01  0.245344E-01  0.292871E-01  0.345712E-01  0.402055E-01  0.459130E-01
  0.513409E-01  0.560998E-01  0.598153E-01  0.621793E-01  0.629905E-01  0.621793E-01
  0.598153E-01  0.560998E-01  0.513409E-01  0.459130E-01  0.402055E-01  0.345712E-01
  0.292871E-01  0.280818E-01  0.235865E-01  0.197188E-01  0.164741E-01  0.138107E-01
  0.116705E-01  0.998833E-02  0.869654E-02  0.773329E-02  0.705002E-02  0.661297E-02
  0.640019E-02  0.640019E-02  0.661297E-02  0.705002E-02  0.773329E-02  0.869654E-02
  0.998833E-02  0.116705E-01  0.138107E-01  0.164741E-01  0.197188E-01  0.235865E-01
  0.280818E-01  0.331418E-01  0.386122E-01  0.442425E-01  0.497055E-01  0.546367E-01
  0.586834E-01  0.615519E-01  0.630377E-01  0.630377E-01  0.615519E-01  0.586834E-01
  0.546367E-01  0.497055E-01  0.442425E-01  0.386122E-01  0.331418E-01  0.280818E-01
  0.273783E-01  0.231230E-01  0.194946E-01  0.164741E-01  0.140115E-01  0.120460E-01
  0.105132E-01  0.934907E-02  0.849757E-02  0.791693E-02  0.757943E-02  0.746879E-02
  0.757943E-02  0.791693E-02  0.849757E-02  0.934907E-02  0.105132E-01  0.120460E-01
  0.140115E-01  0.164741E-01  0.194946E-01  0.231230E-01  0.273783E-01  0.322157E-01
  0.374983E-01  0.429902E-01  0.483779E-01  0.533135E-01  0.574703E-01  0.605922E-01
  0.625173E-01  0.631664E-01  0.625173E-01  0.605922E-01  0.574703E-01  0.533135E-01
  0.483779E-01  0.429902E-01  0.374983E-01  0.322157E-01  0.273783E-01  0.271465E-01
  0.231230E-01  0.197188E-01  0.169039E-01  0.146233E-01  0.128159E-01  0.114199E-01
  0.103757E-01  0.963287E-02  0.915565E-02  0.892219E-02  0.892219E-02  0.915565E-02
  0.963287E-02  0.103757E-01  0.114199E-01  0.128159E-01  0.146233E-01  0.169039E-01
  0.197188E-01  0.231230E-01  0.271465E-01  0.317585E-01  0.368338E-01  0.421418E-01
  0.473681E-01  0.521627E-01  0.562095E-01  0.592937E-01  0.613304E-01  0.623312E-01
  0.623312E-01  0.613304E-01  0.592937E-01  0.562095E-01  0.521627E-01  0.473681E-01
  0.421418E-01  0.368338E-01  0.317585E-01  0.271465E-01  0.273783E-01  0.235865E-01
  0.204015E-01  0.177851E-01  0.156798E-01  0.140265E-01  0.127660E-01  0.118424E-01
  0.112108E-01  0.108418E-01  0.107203E-01  0.108418E-01  0.112108E-01  0.118424E-01
  0.127660E-01  0.140265E-01  0.156798E-01  0.177851E-01  0.204015E-01  0.235865E-01
  0.273783E-01  0.317585E-01  0.366118E-01  0.417085E-01  0.467221E-01  0.512805E-01
  0.550493E-01  0.578306E-01  0.596200E-01  0.605687E-01  0.608584E-01  0.605687E-01
  0.596200E-01  0.578306E-01  0.550493E-01  0.512805E-01  0.467221E-01  0.417085E-01
  0.366118E-01  0.317585E-01  0.273783E-01  0.280818E-01  0.245344E-01  0.215780E-01
  0.191670E-01  0.172436E-01  0.157502E-01  0.146302E-01  0.138319E-01  0.133168E-01
  0.130634E-01  0.130634E-01  0.133168E-01  0.138319E-01  0.146302E-01  0.157502E-01
  0.172436E-01  0.191670E-01  0.215780E-01  0.245344E-01  0.280818E-01  0.322157E-01
  0.368338E-01  0.417085E-01  0.464977E-01  0.507931E-01  0.542123E-01  0.565307E-01
  0.577883E-01  0.582785E-01  0.583896E-01  0.583896E-01  0.582785E-01  0.577883E-01
  0.565307E-01  0.542123E-01  0.507931E-01  0.464977E-01  0.417085E-01  0.368338E-01
  0.322157E-01  0.280818E-01  0.292871E-01  0.260143E-01  0.233103E-01  0.211233E-01
  0.193962E-01  0.180743E-01  0.171035E-01  0.164378E-01  0.160469E-01  0.159177E-01
  0.160469E-01  0.164378E-01  0.171035E-01  0.180743E-01  0.193962E-01  0.211233E-01
  0.233103E-01  0.260143E-01  0.292871E-01  0.331418E-01  0.374983E-01  0.421418E-01
  0.467221E-01  0.507931E-01  0.539051E-01  0.557599E-01  0.563767E-01  0.561397E-01
  0.556429E-01  0.554089E-01  0.556429E-01  0.561397E-01  0.563767E-01  0.557599E-01
  0.539051E-01  0.507931E-01  0.467221E-01  0.421418E-01  0.374983E-01  0.331418E-01
  0.292871E-01  0.310496E-01  0.280954E-01  0.256776E-01  0.237415E-01  0.222333E-01
  0.211002E-01  0.202918E-01  0.197689E-01  0.195108E-01  0.195108E-01  0.197689E-01
  0.202918E-01  0.211002E-01  0.222333E-01  0.237415E-01  0.256776E-01  0.280954E-01
  0.310496E-01  0.345712E-01  0.386122E-01  0.429902E-01  0.473681E-01  0.512805E-01
  0.542123E-01  0.557599E-01  0.558462E-01  0.548526E-01  0.535133E-01  0.526024E-01
  0.526024E-01  0.535133E-01  0.548526E-01  0.558462E-01  0.557599E-01  0.542123E-01
  0.512805E-01  0.473681E-01  0.429902E-01  0.386122E-01  0.345712E-01  0.310496E-01
  0.334415E-01  0.308608E-01  0.287745E-01  0.271283E-01  0.258699E-01  0.249472E-01
  0.243140E-01  0.239410E-01  0.238172E-01  0.239410E-01  0.243140E-01  0.249472E-01
  0.258699E-01  0.271283E-01  0.287745E-01  0.308608E-01  0.334415E-01  0.365607E-01
  0.402055E-01  0.442425E-01  0.483779E-01  0.521627E-01  0.550493E-01  0.565307E-01
  0.563767E-01  0.548526E-01  0.527142E-01  0.509178E-01  0.502241E-01  0.509178E-01
  0.527142E-01  0.548526E-01  0.563767E-01  0.565307E-01  0.550493E-01  0.521627E-01
  0.483779E-01  0.442425E-01  0.402055E-01  0.365607E-01  0.334415E-01  0.365502E-01
  0.344129E-01  0.327161E-01  0.314030E-01  0.304189E-01  0.297139E-01  0.292532E-01
  0.290231E-01  0.290231E-01  0.292532E-01  0.297139E-01  0.304189E-01  0.314030E-01
  0.327161E-01  0.344129E-01  0.365502E-01  0.391826E-01  0.423293E-01  0.459130E-01
  0.497055E-01  0.533135E-01  0.562095E-01  0.578306E-01  0.577883E-01  0.561397E-01
  0.535133E-01  0.509178E-01  0.493307E-01  0.493307E-01  0.509178E-01  0.535133E-01
  0.561397E-01  0.577883E-01  0.578306E-01  0.562095E-01  0.533135E-01  0.497055E-01
  0.459130E-01  0.423293E-01  0.391826E-01  0.365502E-01  0.404823E-01  0.388609E-01
  0.375965E-01  0.366262E-01  0.358980E-01  0.353784E-01  0.350597E-01  0.349512E-01
  0.350597E-01  0.353784E-01  0.358980E-01  0.366262E-01  0.375965E-01  0.388609E-01
  0.404823E-01  0.425299E-01  0.450563E-01  0.480433E-01  0.513409E-01  0.546367E-01
  0.574703E-01  0.592937E-01  0.596200E-01  0.582785E-01  0.556429E-01  0.526024E-01
  0.502241E-01  0.493307E-01  0.502241E-01  0.526024E-01  0.556429E-01  0.582785E-01
  0.596200E-01  0.592937E-01  0.574703E-01  0.546367E-01  0.513409E-01  0.480433E-01
  0.450563E-01  0.425299E-01  0.404823E-01  0.453153E-01  0.442298E-01  0.433637E-01
  0.426591E-01  0.420918E-01  0.416756E-01  0.414504E-01  0.414504E-01  0.416756E-01
  0.420918E-01  0.426591E-01  0.433637E-01  0.442298E-01  0.453153E-01  0.467034E-01
  0.484847E-01  0.507095E-01  0.533193E-01  0.560998E-01  0.586834E-01  0.605922E-01
  0.613304E-01  0.605687E-01  0.583896E-01  0.554089E-01  0.526024E-01  0.509178E-01
  0.509178E-01  0.526024E-01  0.554089E-01  0.583896E-01  0.605687E-01  0.613304E-01
  0.605922E-01  0.586834E-01  0.560998E-01  0.533193E-01  0.507095E-01  0.484847E-01
  0.467034E-01  0.453153E-01  0.509650E-01  0.503011E-01  0.496528E-01  0.490050E-01
  0.484132E-01  0.479848E-01  0.478271E-01  0.479848E-01  0.484132E-01  0.490050E-01
  0.496528E-01  0.503011E-01  0.509650E-01  0.517233E-01  0.526991E-01  0.540169E-01
  0.557295E-01  0.577470E-01  0.598153E-01  0.615519E-01  0.625173E-01  0.623312E-01
  0.608584E-01  0.583896E-01  0.556429E-01  0.535133E-01  0.527142E-01  0.535133E-01
  0.556429E-01  0.583896E-01  0.608584E-01  0.623312E-01  0.625173E-01  0.615519E-01
  0.598153E-01  0.577470E-01  0.557295E-01  0.540169E-01  0.526991E-01  0.517233E-01
  0.509650E-01  0.570135E-01  0.564317E-01  0.556012E-01  0.546304E-01  0.537481E-01
  0.532184E-01  0.532184E-01  0.537481E-01  0.546304E-01  0.556012E-01  0.564317E-01
  0.570135E-01  0.573742E-01  0.576485E-01  0.580283E-01  0.586881E-01  0.596951E-01
  0.609465E-01  0.621793E-01  0.630377E-01  0.631664E-01  0.623312E-01  0.605687E-01
  0.582785E-01  0.561397E-01  0.548526E-01  0.548526E-01  0.561397E-01  0.582785E-01
  0.605687E-01  0.623312E-01  0.631664E-01  0.630377E-01  0.621793E-01  0.609465E-01
  0.596951E-01  0.586881E-01  0.580283E-01  0.576485E-01  0.573742E-01  0.570135E-01
  0.625173E-01  0.613304E-01  0.596200E-01  0.577883E-01  0.563767E-01  0.558462E-01
  0.563767E-01  0.577883E-01  0.596200E-01  0.613304E-01  0.625173E-01  0.630377E-01
  0.629905E-01  0.626256E-01  0.622413E-01  0.620815E-01  0.622413E-01  0.626256E-01
  0.629905E-01  0.630377E-01  0.625173E-01  0.613304E-01  0.596200E-01  0.577883E-01
  0.563767E-01  0.558462E-01  0.563767E-01  0.577883E-01  0.596200E-01  0.613304E-01
  0.625173E-01  0.630377E-01  0.629905E-01  0.626256E-01  0.622413E-01  0.620815E-01
  0.622413E-01  0.626256E-01  0.629905E-01  0.630377E-01  0.625173E-01  0.657687E-01
  0.628642E-01  0.593826E-01  0.562621E-01  0.544242E-01  0.544242E-01  0.562621E-01
  0.593826E-01  0.628642E-01  0.657687E-01  0.674985E-01  0.679426E-01  0.673706E-01
  0.662244E-01  0.649479E-01  0.638688E-01  0.631194E-01  0.626256E-01  0.621793E-01
  0.615519E-01  0.605922E-01  0.592937E-01  0.578306E-01  0.565307E-01  0.557599E-01
  0.557599E-01  0.565307E-01  0.578306E-01  0.592937E-01  0.605922E-01  0.615519E-01
  0.621793E-01  0.626256E-01  0.631194E-01  0.638688E-01  0.649479E-01  0.662244E-01
  0.673706E-01  0.679426E-01  0.674985E-01  0.657687E-01  0.643148E-01  0.585206E-01
  0.528033E-01  0.486672E-01  0.471670E-01  0.486672E-01  0.528033E-01  0.585206E-01
  0.643148E-01  0.687698E-01  0.711164E-01  0.713906E-01  0.701543E-01  0.681139E-01
  0.658816E-01  0.638688E-01  0.622413E-01  0.609465E-01  0.598153E-01  0.586834E-01
  0.574703E-01  0.562095E-01  0.550493E-01  0.542123E-01  0.539051E-01  0.542123E-01
  0.550493E-01  0.562095E-01  0.574703E-01  0.586834E-01  0.598153E-01  0.609465E-01
  0.622413E-01  0.638688E-01  0.658816E-01  0.681139E-01  0.701543E-01  0.713906E-01
  0.711164E-01  0.687698E-01  0.643148E-01  0.560688E-01  0.472457E-01  0.401387E-01
  0.362535E-01  0.362535E-01  0.401387E-01  0.472457E-01  0.560688E-01  0.644628E-01
  0.704877E-01  0.732786E-01  0.731649E-01  0.711089E-01  0.681139E-01  0.649479E-01
  0.620815E-01  0.596951E-01  0.577470E-01  0.560998E-01  0.546367E-01  0.533135E-01
  0.521627E-01  0.512805E-01  0.507931E-01  0.507931E-01  0.512805E-01  0.521627E-01
  0.533135E-01  0.546367E-01  0.560998E-01  0.577470E-01  0.596951E-01  0.620815E-01
  0.649479E-01  0.681139E-01  0.711089E-01  0.731649E-01  0.732786E-01  0.704877E-01
  0.644628E-01  0.560688E-01  0.415779E-01  0.315275E-01  0.251044E-01  0.229401E-01
  0.251044E-01  0.315275E-01  0.415779E-01  0.533873E-01  0.640920E-01  0.712299E-01
  0.739938E-01  0.731649E-01  0.701543E-01  0.662244E-01  0.622413E-01  0.586881E-01
  0.557295E-01  0.533193E-01  0.513409E-01  0.497055E-01  0.483779E-01  0.473681E-01
  0.467221E-01  0.464977E-01  0.467221E-01  0.473681E-01  0.483779E-01  0.497055E-01
  0.513409E-01  0.533193E-01  0.557295E-01  0.586881E-01  0.622413E-01  0.662244E-01
  0.701543E-01  0.731649E-01  0.739938E-01  0.712299E-01  0.640920E-01  0.533873E-01
  0.415779E-01  0.250749E-01  0.166537E-01  0.126547E-01  0.126547E-01  0.166537E-01
  0.250749E-01  0.375396E-01  0.517061E-01  0.638809E-01  0.712299E-01  0.732786E-01
  0.713906E-01  0.673706E-01  0.626256E-01  0.580283E-01  0.540169E-01  0.507095E-01
  0.480433E-01  0.459130E-01  0.442425E-01  0.429902E-01  0.421418E-01  0.417085E-01
  0.417085E-01  0.421418E-01  0.429902E-01  0.442425E-01  0.459130E-01  0.480433E-01
  0.507095E-01  0.540169E-01  0.580283E-01  0.626256E-01  0.673706E-01  0.713906E-01
  0.732786E-01  0.712299E-01  0.638809E-01  0.517061E-01  0.375396E-01  0.250749E-01
  0.118765E-01  0.677191E-02  0.529121E-02  0.677191E-02  0.118765E-01  0.217696E-01
  0.361006E-01  0.517061E-01  0.640920E-01  0.704877E-01  0.711164E-01  0.679426E-01
  0.629905E-01  0.576485E-01  0.526991E-01  0.484847E-01  0.450563E-01  0.423293E-01
  0.402055E-01  0.386122E-01  0.374983E-01  0.368338E-01  0.366118E-01  0.368338E-01
  0.374983E-01  0.386122E-01  0.402055E-01  0.423293E-01  0.450563E-01  0.484847E-01
  0.526991E-01  0.576485E-01  0.629905E-01  0.679426E-01  0.711164E-01  0.704877E-01
  0.640920E-01  0.517061E-01  0.361006E-01  0.217696E-01  0.118765E-01  0.439926E-02
  0.219420E-02  0.219420E-02  0.439926E-02  0.103953E-01  0.217696E-01  0.375396E-01
  0.533873E-01  0.644628E-01  0.687698E-01  0.674985E-01  0.630377E-01  0.573742E-01
  0.517233E-01  0.467034E-01  0.425299E-01  0.391826E-01  0.365607E-01  0.345712E-01
  0.331418E-01  0.322157E-01  0.317585E-01  0.317585E-01  0.322157E-01  0.331418E-01
  0.345712E-01  0.365607E-01  0.391826E-01  0.425299E-01  0.467034E-01  0.517233E-01
  0.573742E-01  0.630377E-01  0.674985E-01  0.687698E-01  0.644628E-01  0.533873E-01
  0.375396E-01  0.217696E-01  0.103953E-01  0.439926E-02  0.144769E-02  0.785995E-03
  0.144769E-02  0.439926E-02  0.118765E-01  0.250749E-01  0.415779E-01  0.560688E-01
  0.643148E-01  0.657687E-01  0.625173E-01  0.570135E-01  0.509650E-01  0.453153E-01
  0.404823E-01  0.365502E-01  0.334415E-01  0.310496E-01  0.292871E-01  0.280818E-01
  0.273783E-01  0.271465E-01  0.273783E-01  0.280818E-01  0.292871E-01  0.310496E-01
  0.334415E-01  0.365502E-01  0.404823E-01  0.453153E-01  0.509650E-01  0.570135E-01
  0.625173E-01  0.657687E-01  0.643148E-01  0.560688E-01  0.415779E-01  0.250749E-01
  0.118765E-01  0.439926E-02  0.144769E-02  0.124746E-03  0.124746E-03  0.900259E-03
  0.439926E-02  0.133665E-01  0.282389E-01  0.450034E-01  0.577399E-01  0.632468E-01
  0.623312E-01  0.576338E-01  0.514858E-01  0.453087E-01  0.398125E-01  0.352485E-01
  0.316026E-01  0.287646E-01  0.266284E-01  0.251089E-01  0.241357E-01  0.236600E-01
  0.236600E-01  0.241357E-01  0.251089E-01  0.266284E-01  0.287646E-01  0.316026E-01
  0.352485E-01  0.398125E-01  0.453087E-01  0.514858E-01  0.576338E-01  0.623312E-01
  0.632468E-01  0.577399E-01  0.450034E-01  0.282389E-01  0.133665E-01  0.439926E-02
  0.900259E-03  0.124746E-03  0.124746E-03  0.397774E-03  0.219420E-02  0.803241E-02
  0.198324E-01  0.357903E-01  0.504743E-01  0.590528E-01  0.605687E-01  0.570977E-01
  0.512508E-01  0.448589E-01  0.389192E-01  0.338641E-01  0.297746E-01  0.265620E-01
  0.241062E-01  0.223085E-01  0.210876E-01  0.203796E-01  0.201472E-01  0.203796E-01
  0.210876E-01  0.223085E-01  0.241062E-01  0.265620E-01  0.297746E-01  0.338641E-01
  0.389192E-01  0.448589E-01  0.512508E-01  0.570977E-01  0.605687E-01  0.590528E-01
  0.504743E-01  0.357903E-01  0.198324E-01  0.803241E-02  0.219420E-02  0.397774E-03
  0.124746E-03  0.900259E-03  0.219420E-02  0.644888E-02  0.157150E-01  0.297074E-01
  0.444181E-01  0.547312E-01  0.582785E-01  0.561538E-01  0.508513E-01  0.444640E-01
  0.382436E-01  0.328004E-01  0.283278E-01  0.247824E-01  0.220422E-01  0.199941E-01
  0.185470E-01  0.176249E-01  0.171756E-01  0.171756E-01  0.176249E-01  0.185470E-01
  0.199941E-01  0.220422E-01  0.247824E-01  0.283278E-01  0.328004E-01  0.382436E-01
  0.444640E-01  0.508513E-01  0.561538E-01  0.582785E-01  0.547312E-01  0.444181E-01
  0.297074E-01  0.157150E-01  0.644888E-02  0.219420E-02  0.900259E-03  0.900259E-03
  0.439926E-02  0.803241E-02  0.157150E-01  0.276168E-01  0.410295E-01  0.515170E-01
  0.561397E-01  0.550604E-01  0.503363E-01  0.440882E-01  0.377266E-01  0.320026E-01
  0.272156E-01  0.233819E-01  0.203918E-01  0.181228E-01  0.164739E-01  0.153602E-01
  0.147163E-01  0.145052E-01  0.147163E-01  0.153602E-01  0.164739E-01  0.181228E-01
  0.203918E-01  0.233819E-01  0.272156E-01  0.320026E-01  0.377266E-01  0.440882E-01
  0.503363E-01  0.550604E-01  0.561397E-01  0.515170E-01  0.410295E-01  0.276168E-01
  0.157150E-01  0.803241E-02  0.439926E-02  0.341808E-02  0.439926E-02  0.133665E-01
  0.198324E-01  0.297074E-01  0.410295E-01  0.503345E-01  0.548526E-01  0.541857E-01
  0.498431E-01  0.437480E-01  0.373312E-01  0.314191E-01  0.263887E-01  0.223142E-01
  0.191089E-01  0.166476E-01  0.148213E-01  0.135388E-01  0.127241E-01  0.123274E-01
  0.123274E-01  0.127241E-01  0.135388E-01  0.148213E-01  0.166476E-01  0.191089E-01
  0.223142E-01  0.263887E-01  0.314191E-01  0.373312E-01  0.437480E-01  0.498431E-01
  0.541857E-01  0.548526E-01  0.503345E-01  0.410295E-01  0.297074E-01  0.198324E-01
  0.133665E-01  0.103953E-01  0.103953E-01  0.133665E-01  0.282389E-01  0.357903E-01
  0.444181E-01  0.515170E-01  0.548526E-01  0.538518E-01  0.495394E-01  0.435011E-01
  0.370511E-01  0.310132E-01  0.258010E-01  0.215320E-01  0.181454E-01  0.155190E-01
  0.135387E-01  0.121087E-01  0.111462E-01  0.105899E-01  0.104073E-01  0.105899E-01
  0.111462E-01  0.121087E-01  0.135387E-01  0.155190E-01  0.181454E-01  0.215320E-01
  0.258010E-01  0.310132E-01  0.370511E-01  0.435011E-01  0.495394E-01  0.538518E-01
  0.548526E-01  0.515170E-01  0.444181E-01  0.357903E-01  0.282389E-01  0.233970E-01
  0.217696E-01  0.233970E-01  0.282389E-01  0.450034E-01  0.504743E-01  0.547312E-01
  0.561397E-01  0.541857E-01  0.495394E-01  0.434099E-01  0.369025E-01  0.307694E-01
  0.254203E-01  0.209958E-01  0.174570E-01  0.146890E-01  0.125751E-01  0.110163E-01
  0.992596E-02  0.923386E-02  0.889648E-02  0.889648E-02  0.923386E-02  0.992596E-02
  0.110163E-01  0.125751E-01  0.146890E-01  0.174570E-01  0.209958E-01  0.254203E-01
  0.307694E-01  0.369025E-01  0.434099E-01  0.495394E-01  0.541857E-01  0.561397E-01
  0.547312E-01  0.504743E-01  0.450034E-01  0.402336E-01  0.375396E-01  0.375396E-01
  0.402336E-01  0.450034E-01  0.577399E-01  0.590528E-01  0.582785E-01  0.550604E-01
  0.498431E-01  0.435011E-01  0.369025E-01  0.306875E-01  0.252319E-01  0.206810E-01
  0.170118E-01  0.141192E-01  0.118868E-01  0.102135E-01  0.901037E-02  0.820161E-02
  0.773381E-02  0.758025E-02  0.773381E-02  0.820161E-02  0.901037E-02  0.102135E-01
  0.118868E-01  0.141192E-01  0.170118E-01  0.206810E-01  0.252319E-01  0.306875E-01
  0.369025E-01  0.435011E-01  0.498431E-01  0.550604E-01  0.582785E-01  0.590528E-01
  0.577399E-01  0.554209E-01  0.533873E-01  0.525960E-01  0.533873E-01  0.554209E-01
  0.577399E-01  0.632468E-01  0.605687E-01  0.561538E-01  0.503363E-01  0.437480E-01
  0.370511E-01  0.307694E-01  0.252319E-01  0.205769E-01  0.167925E-01  0.137853E-01
  0.114431E-01  0.966398E-02  0.835765E-02  0.744496E-02  0.686535E-02  0.658288E-02
  0.658288E-02  0.686535E-02  0.744496E-02  0.835765E-02  0.966398E-02  0.114431E-01
  0.137853E-01  0.167925E-01  0.205769E-01  0.252319E-01  0.307694E-01  0.370511E-01
  0.437480E-01  0.503363E-01  0.561538E-01  0.605687E-01  0.632468E-01  0.643485E-01
  0.644628E-01  0.642914E-01  0.642914E-01  0.644628E-01  0.643485E-01  0.632468E-01
  0.623312E-01  0.570977E-01  0.508513E-01  0.440882E-01  0.373312E-01  0.310132E-01
  0.254203E-01  0.206810E-01  0.167925E-01  0.136752E-01  0.112255E-01  0.934379E-02
  0.793873E-02  0.692898E-02  0.624935E-02  0.585644E-02  0.572769E-02  0.585644E-02
  0.624935E-02  0.692898E-02  0.793873E-02  0.934379E-02  0.112255E-01  0.136752E-01
  0.167925E-01  0.206810E-01  0.254203E-01  0.310132E-01  0.373312E-01  0.440882E-01
  0.508513E-01  0.570977E-01  0.623312E-01  0.662352E-01  0.687698E-01  0.701241E-01
  0.705399E-01  0.701241E-01  0.687698E-01  0.662352E-01  0.623312E-01  0.576338E-01
  0.512508E-01  0.444640E-01  0.377266E-01  0.314191E-01  0.258010E-01  0.209958E-01
  0.170118E-01  0.137853E-01  0.112255E-01  0.923869E-02  0.773443E-02  0.662971E-02
  0.585595E-02  0.536439E-02  0.512546E-02  0.512546E-02  0.536439E-02  0.585595E-02
  0.662971E-02  0.773443E-02  0.923869E-02  0.112255E-01  0.137853E-01  0.170118E-01
  0.209958E-01  0.258010E-01  0.314191E-01  0.377266E-01  0.444640E-01  0.512508E-01
  0.576338E-01  0.631664E-01  0.674985E-01  0.704309E-01  0.718981E-01  0.718981E-01
  0.704309E-01  0.674985E-01  0.631664E-01  0.576338E-01  0.514858E-01  0.448589E-01
  0.382436E-01  0.320026E-01  0.263887E-01  0.215320E-01  0.174570E-01  0.141192E-01
  0.114431E-01  0.934379E-02  0.773443E-02  0.653180E-02  0.566477E-02  0.508035E-02
  0.474335E-02  0.463331E-02  0.474335E-02  0.508035E-02  0.566477E-02  0.653180E-02
  0.773443E-02  0.934379E-02  0.114431E-01  0.141192E-01  0.174570E-01  0.215320E-01
  0.263887E-01  0.320026E-01  0.382436E-01  0.448589E-01  0.514858E-01  0.576924E-01
  0.630377E-01  0.671365E-01  0.697057E-01  0.705799E-01  0.697057E-01  0.671365E-01
  0.630377E-01  0.576924E-01  0.514858E-01  0.453087E-01  0.389192E-01  0.328004E-01
  0.272156E-01  0.223142E-01  0.181454E-01  0.146890E-01  0.118868E-01  0.966398E-02
  0.793873E-02  0.662971E-02  0.566477E-02  0.498763E-02  0.455833E-02  0.435055E-02
  0.435055E-02  0.455833E-02  0.498763E-02  0.566477E-02  0.662971E-02  0.793873E-02
  0.966398E-02  0.118868E-01  0.146890E-01  0.181454E-01  0.223142E-01  0.272156E-01
  0.328004E-01  0.389192E-01  0.453087E-01  0.516038E-01  0.573742E-01  0.621793E-01
  0.656277E-01  0.674289E-01  0.674289E-01  0.656277E-01  0.621793E-01  0.573742E-01
  0.516038E-01  0.453087E-01  0.398125E-01  0.338641E-01  0.283278E-01  0.233819E-01
  0.191089E-01  0.155190E-01  0.125751E-01  0.102135E-01  0.835765E-02  0.692898E-02
  0.585595E-02  0.508035E-02  0.455833E-02  0.425846E-02  0.416083E-02  0.425846E-02
  0.455833E-02  0.508035E-02  0.585595E-02  0.692898E-02  0.835765E-02  0.102135E-01
  0.125751E-01  0.155190E-01  0.191089E-01  0.233819E-01  0.283278E-01  0.338641E-01
  0.398125E-01  0.458903E-01  0.517233E-01  0.568840E-01  0.609465E-01  0.635478E-01
  0.644436E-01  0.635478E-01  0.609465E-01  0.568840E-01  0.517233E-01  0.458903E-01
  0.398125E-01  0.352485E-01  0.297746E-01  0.247824E-01  0.203918E-01  0.166476E-01
  0.135387E-01  0.110163E-01  0.901037E-02  0.744496E-02  0.624935E-02  0.536439E-02
  0.474335E-02  0.435055E-02  0.416083E-02  0.416083E-02  0.435055E-02  0.474335E-02
  0.536439E-02  0.624935E-02  0.744496E-02  0.901037E-02  0.110163E-01  0.135387E-01
  0.166476E-01  0.203918E-01  0.247824E-01  0.297746E-01  0.352485E-01  0.409932E-01
  0.467034E-01  0.519974E-01  0.564591E-01  0.596951E-01  0.613978E-01  0.613978E-01
  0.596951E-01  0.564591E-01  0.519974E-01  0.467034E-01  0.409932E-01  0.352485E-01
  0.316026E-01  0.265620E-01  0.220422E-01  0.181228E-01  0.148213E-01  0.121087E-01
  0.992596E-02  0.820161E-02  0.686535E-02  0.585644E-02  0.512546E-02  0.463331E-02
  0.435055E-02  0.425846E-02  0.435055E-02  0.463331E-02  0.512546E-02  0.585644E-02
  0.686535E-02  0.820161E-02  0.992596E-02  0.121087E-01  0.148213E-01  0.181228E-01
  0.220422E-01  0.265620E-01  0.316026E-01  0.370068E-01  0.425299E-01  0.478436E-01
  0.525627E-01  0.562923E-01  0.586881E-01  0.595147E-01  0.586881E-01  0.562923E-01
  0.525627E-01  0.478436E-01  0.425299E-01  0.370068E-01  0.316026E-01  0.287646E-01
  0.241062E-01  0.199941E-01  0.164739E-01  0.135388E-01  0.111462E-01  0.923386E-02
  0.773381E-02  0.658288E-02  0.572769E-02  0.512546E-02  0.474335E-02  0.455833E-02
  0.455833E-02  0.474335E-02  0.512546E-02  0.572769E-02  0.658288E-02  0.773381E-02
  0.923386E-02  0.111462E-01  0.135388E-01  0.164739E-01  0.199941E-01  0.241062E-01
  0.287646E-01  0.338553E-01  0.391826E-01  0.444665E-01  0.493576E-01  0.534751E-01
  0.564591E-01  0.580283E-01  0.580283E-01  0.564591E-01  0.534751E-01  0.493576E-01
  0.444665E-01  0.391826E-01  0.338553E-01  0.287646E-01  0.266284E-01  0.223085E-01
  0.185470E-01  0.153602E-01  0.127241E-01  0.105899E-01  0.889648E-02  0.758025E-02
  0.658288E-02  0.585644E-02  0.536439E-02  0.508035E-02  0.498763E-02  0.508035E-02
  0.536439E-02  0.585644E-02  0.658288E-02  0.758025E-02  0.889648E-02  0.105899E-01
  0.127241E-01  0.153602E-01  0.185470E-01  0.223085E-01  0.266284E-01  0.314302E-01
  0.365607E-01  0.417815E-01  0.467787E-01  0.511925E-01  0.546633E-01  0.568840E-01
  0.576485E-01  0.568840E-01  0.546633E-01  0.511925E-01  0.467787E-01  0.417815E-01
  0.365607E-01  0.314302E-01  0.266284E-01  0.251089E-01  0.210876E-01  0.176249E-01
  0.147163E-01  0.123274E-01  0.104073E-01  0.889648E-02  0.773381E-02  0.686535E-02
  0.624935E-02  0.585595E-02  0.566477E-02  0.566477E-02  0.585595E-02  0.624935E-02
  0.686535E-02  0.773381E-02  0.889648E-02  0.104073E-01  0.123274E-01  0.147163E-01
  0.176249E-01  0.210876E-01  0.251089E-01  0.296428E-01  0.345712E-01  0.396920E-01
  0.447242E-01  0.493337E-01  0.531738E-01  0.559322E-01  0.573742E-01  0.573742E-01
  0.559322E-01  0.531738E-01  0.493337E-01  0.447242E-01  0.396920E-01  0.345712E-01
  0.296428E-01  0.251089E-01  0.241357E-01  0.203796E-01  0.171756E-01  0.145052E-01
  0.123274E-01  0.105899E-01  0.923386E-02  0.820161E-02  0.744496E-02  0.692898E-02
  0.662971E-02  0.653180E-02  0.662971E-02  0.692898E-02  0.744496E-02  0.820161E-02
  0.923386E-02  0.105899E-01  0.123274E-01  0.145052E-01  0.171756E-01  0.203796E-01
  0.241357E-01  0.284202E-01  0.331418E-01  0.381263E-01  0.431199E-01  0.478136E-01
  0.518822E-01  0.550273E-01  0.570135E-01  0.576924E-01  0.570135E-01  0.550273E-01
  0.518822E-01  0.478136E-01  0.431199E-01  0.381263E-01  0.331418E-01  0.284202E-01
  0.241357E-01  0.236600E-01  0.201472E-01  0.171756E-01  0.147163E-01  0.127241E-01
  0.111462E-01  0.992596E-02  0.901037E-02  0.835765E-02  0.793873E-02  0.773443E-02
  0.773443E-02  0.793873E-02  0.835765E-02  0.901037E-02  0.992596E-02  0.111462E-01
  0.127241E-01  0.147163E-01  0.171756E-01  0.201472E-01  0.236600E-01  0.277066E-01
  0.322157E-01  0.370327E-01  0.419220E-01  0.465927E-01  0.507399E-01  0.540894E-01
  0.564317E-01  0.576338E-01  0.576338E-01  0.564317E-01  0.540894E-01  0.507399E-01
  0.465927E-01  0.419220E-01  0.370327E-01  0.322157E-01  0.277066E-01  0.236600E-01
  0.236600E-01  0.203796E-01  0.176249E-01  0.153602E-01  0.135388E-01  0.121087E-01
  0.110163E-01  0.102135E-01  0.966398E-02  0.934379E-02  0.923869E-02  0.934379E-02
  0.966398E-02  0.102135E-01  0.110163E-01  0.121087E-01  0.135388E-01  0.153602E-01
  0.176249E-01  0.203796E-01  0.236600E-01  0.274715E-01  0.317585E-01  0.363807E-01
  0.411129E-01  0.456717E-01  0.497615E-01  0.531285E-01  0.556012E-01  0.570977E-01
  0.575969E-01  0.570977E-01  0.556012E-01  0.531285E-01  0.497615E-01  0.456717E-01
  0.411129E-01  0.363807E-01  0.317585E-01  0.274715E-01  0.236600E-01  0.241357E-01
  0.210876E-01  0.185470E-01  0.164739E-01  0.148213E-01  0.135387E-01  0.125751E-01
  0.118868E-01  0.114431E-01  0.112255E-01  0.112255E-01  0.114431E-01  0.118868E-01
  0.125751E-01  0.135387E-01  0.148213E-01  0.164739E-01  0.185470E-01  0.210876E-01
  0.241357E-01  0.277066E-01  0.317585E-01  0.361630E-01  0.407002E-01  0.450852E-01
  0.490175E-01  0.522465E-01  0.546304E-01  0.561538E-01  0.568829E-01  0.568829E-01
  0.561538E-01  0.546304E-01  0.522465E-01  0.490175E-01  0.450852E-01  0.407002E-01
  0.361630E-01  0.317585E-01  0.277066E-01  0.241357E-01  0.251089E-01  0.223085E-01
  0.199941E-01  0.181228E-01  0.166476E-01  0.155190E-01  0.146890E-01  0.141192E-01
  0.137853E-01  0.136752E-01  0.137853E-01  0.141192E-01  0.146890E-01  0.155190E-01
  0.166476E-01  0.181228E-01  0.199941E-01  0.223085E-01  0.251089E-01  0.284202E-01
  0.322157E-01  0.363807E-01  0.407002E-01  0.448819E-01  0.486079E-01  0.516094E-01
  0.537481E-01  0.550604E-01  0.557180E-01  0.559102E-01  0.557180E-01  0.550604E-01
  0.537481E-01  0.516094E-01  0.486079E-01  0.448819E-01  0.407002E-01  0.363807E-01
  0.322157E-01  0.284202E-01  0.251089E-01  0.266284E-01  0.241062E-01  0.220422E-01
  0.203918E-01  0.191089E-01  0.181454E-01  0.174570E-01  0.170118E-01  0.167925E-01
  0.167925E-01  0.170118E-01  0.174570E-01  0.181454E-01  0.191089E-01  0.203918E-01
  0.220422E-01  0.241062E-01  0.266284E-01  0.296428E-01  0.331418E-01  0.370327E-01
  0.411129E-01  0.450852E-01  0.486079E-01  0.513753E-01  0.532184E-01  0.541857E-01
  0.545318E-01  0.545897E-01  0.545897E-01  0.545318E-01  0.541857E-01  0.532184E-01
  0.513753E-01  0.486079E-01  0.450852E-01  0.411129E-01  0.370327E-01  0.331418E-01
  0.296428E-01  0.266284E-01  0.287646E-01  0.265620E-01  0.247824E-01  0.233819E-01
  0.223142E-01  0.215320E-01  0.209958E-01  0.206810E-01  0.205769E-01  0.206810E-01
  0.209958E-01  0.215320E-01  0.223142E-01  0.233819E-01  0.247824E-01  0.265620E-01
  0.287646E-01  0.314302E-01  0.345712E-01  0.381263E-01  0.419220E-01  0.456717E-01
  0.490175E-01  0.516094E-01  0.532184E-01  0.538518E-01  0.537899E-01  0.534794E-01
  0.533225E-01  0.534794E-01  0.537899E-01  0.538518E-01  0.532184E-01  0.516094E-01
  0.490175E-01  0.456717E-01  0.419220E-01  0.381263E-01  0.345712E-01  0.314302E-01
  0.287646E-01  0.316026E-01  0.297746E-01  0.283278E-01  0.272156E-01  0.263887E-01
  0.258010E-01  0.254203E-01  0.252319E-01  0.252319E-01  0.254203E-01  0.258010E-01
  0.263887E-01  0.272156E-01  0.283278E-01  0.297746E-01  0.316026E-01  0.338553E-01
  0.365607E-01  0.396920E-01  0.431199E-01  0.465927E-01  0.497615E-01  0.522465E-01
  0.537481E-01  0.541857E-01  0.537899E-01  0.530488E-01  0.525039E-01  0.525039E-01
  0.530488E-01  0.537899E-01  0.541857E-01  0.537481E-01  0.522465E-01  0.497615E-01
  0.465927E-01  0.431199E-01  0.396920E-01  0.365607E-01  0.338553E-01  0.316026E-01
  0.352485E-01  0.338641E-01  0.328004E-01  0.320026E-01  0.314191E-01  0.310132E-01
  0.307694E-01  0.306875E-01  0.307694E-01  0.310132E-01  0.314191E-01  0.320026E-01
  0.328004E-01  0.338641E-01  0.352485E-01  0.370068E-01  0.391826E-01  0.417815E-01
  0.447242E-01  0.478136E-01  0.507399E-01  0.531285E-01  0.546304E-01  0.550604E-01
  0.545318E-01  0.534794E-01  0.525039E-01  0.521132E-01  0.525039E-01  0.534794E-01
  0.545318E-01  0.550604E-01  0.546304E-01  0.531285E-01  0.507399E-01  0.478136E-01
  0.447242E-01  0.417815E-01  0.391826E-01  0.370068E-01  0.352485E-01  0.398125E-01
  0.389192E-01  0.382436E-01  0.377266E-01  0.373312E-01  0.370511E-01  0.369025E-01
  0.369025E-01  0.370511E-01  0.373312E-01  0.377266E-01  0.382436E-01  0.389192E-01
  0.398125E-01  0.409932E-01  0.425299E-01  0.444665E-01  0.467787E-01  0.493337E-01
  0.518822E-01  0.540894E-01  0.556012E-01  0.561538E-01  0.557180E-01  0.545897E-01
  0.533225E-01  0.525039E-01  0.525039E-01  0.533225E-01  0.545897E-01  0.557180E-01
  0.561538E-01  0.556012E-01  0.540894E-01  0.518822E-01  0.493337E-01  0.467787E-01
  0.444665E-01  0.425299E-01  0.409932E-01  0.398125E-01  0.453087E-01  0.448589E-01
  0.444640E-01  0.440882E-01  0.437480E-01  0.435011E-01  0.434099E-01  0.435011E-01
  0.437480E-01  0.440882E-01  0.444640E-01  0.448589E-01  0.453087E-01  0.458903E-01
  0.467034E-01  0.478436E-01  0.493576E-01  0.511925E-01  0.531738E-01  0.550273E-01
  0.564317E-01  0.570977E-01  0.568829E-01  0.559102E-01  0.545897E-01  0.534794E-01
  0.530488E-01  0.534794E-01  0.545897E-01  0.559102E-01  0.568829E-01  0.570977E-01
  0.564317E-01  0.550273E-01  0.531738E-01  0.511925E-01  0.493576E-01  0.478436E-01
  0.467034E-01  0.458903E-01  0.453087E-01  0.514858E-01  0.512508E-01  0.508513E-01
  0.503363E-01  0.498431E-01  0.495394E-01  0.495394E-01  0.498431E-01  0.503363E-01
  0.508513E-01  0.512508E-01  0.514858E-01  0.516038E-01  0.517233E-01  0.519974E-01
  0.525627E-01  0.534751E-01  0.546633E-01  0.559322E-01  0.570135E-01  0.576338E-01
  0.575969E-01  0.568829E-01  0.557180E-01  0.545318E-01  0.537899E-01  0.537899E-01
  0.545318E-01  0.557180E-01  0.568829E-01  0.575969E-01  0.576338E-01  0.570135E-01
  0.559322E-01  0.546633E-01  0.534751E-01  0.525627E-01  0.519974E-01  0.517233E-01
  0.516038E-01  0.514858E-01  0.576338E-01  0.570977E-01  0.561538E-01  0.550604E-01
  0.541857E-01  0.538518E-01  0.541857E-01  0.550604E-01  0.561538E-01  0.570977E-01
  0.576338E-01  0.576924E-01  0.573742E-01  0.568840E-01  0.564591E-01  0.562923E-01
  0.564591E-01  0.568840E-01  0.573742E-01  0.576924E-01  0.576338E-01  0.570977E-01
  0.561538E-01  0.550604E-01  0.541857E-01  0.538518E-01  0.541857E-01  0.550604E-01
  0.561538E-01  0.570977E-01  0.576338E-01  0.576924E-01  0.573742E-01  0.568840E-01
  0.564591E-01  0.562923E-01  0.564591E-01  0.568840E-01  0.573742E-01  0.576924E-01
  0.576338E-01  0.623312E-01  0.605687E-01  0.582785E-01  0.561397E-01  0.548526E-01
  0.548526E-01  0.561397E-01  0.582785E-01  0.605687E-01  0.623312E-01  0.631664E-01
  0.630377E-01  0.621793E-01  0.609465E-01  0.596951E-01  0.586881E-01  0.580283E-01
  0.576485E-01  0.573742E-01  0.570135E-01  0.564317E-01  0.556012E-01  0.546304E-01
  0.537481E-01  0.532184E-01  0.532184E-01  0.537481E-01  0.546304E-01  0.556012E-01
  0.564317E-01  0.570135E-01  0.573742E-01  0.576485E-01  0.580283E-01  0.586881E-01
  0.596951E-01  0.609465E-01  0.621793E-01  0.630377E-01  0.631664E-01  0.623312E-01
  0.632468E-01  0.590528E-01  0.547312E-01  0.515170E-01  0.503345E-01  0.515170E-01
  0.547312E-01  0.590528E-01  0.632468E-01  0.662352E-01  0.674985E-01  0.671365E-01
  0.656277E-01  0.635478E-01  0.613978E-01  0.595147E-01  0.580283E-01  0.568840E-01
  0.559322E-01  0.550273E-01  0.540894E-01  0.531285E-01  0.522465E-01  0.516094E-01
  0.513753E-01  0.516094E-01  0.522465E-01  0.531285E-01  0.540894E-01  0.550273E-01
  0.559322E-01  0.568840E-01  0.580283E-01  0.595147E-01  0.613978E-01  0.635478E-01
  0.656277E-01  0.671365E-01  0.674985E-01  0.662352E-01  0.632468E-01  0.577399E-01
  0.504743E-01  0.444181E-01  0.410295E-01  0.410295E-01  0.444181E-01  0.504743E-01
  0.577399E-01  0.643485E-01  0.687698E-01  0.704309E-01  0.697057E-01  0.674289E-01
  0.644436E-01  0.613978E-01  0.586881E-01  0.564591E-01  0.546633E-01  0.531738E-01
  0.518822E-01  0.507399E-01  0.497615E-01  0.490175E-01  0.486079E-01  0.486079E-01
  0.490175E-01  0.497615E-01  0.507399E-01  0.518822E-01  0.531738E-01  0.546633E-01
  0.564591E-01  0.586881E-01  0.613978E-01  0.644436E-01  0.674289E-01  0.697057E-01
  0.704309E-01  0.687698E-01  0.643485E-01  0.577399E-01  0.450034E-01  0.357903E-01
  0.297074E-01  0.276168E-01  0.297074E-01  0.357903E-01  0.450034E-01  0.554209E-01
  0.644628E-01  0.701241E-01  0.718981E-01  0.705799E-01  0.674289E-01  0.635478E-01
  0.596951E-01  0.562923E-01  0.534751E-01  0.511925E-01  0.493337E-01  0.478136E-01
  0.465927E-01  0.456717E-01  0.450852E-01  0.448819E-01  0.450852E-01  0.456717E-01
  0.465927E-01  0.478136E-01  0.493337E-01  0.511925E-01  0.534751E-01  0.562923E-01
  0.596951E-01  0.635478E-01  0.674289E-01  0.705799E-01  0.718981E-01  0.701241E-01
  0.644628E-01  0.554209E-01  0.450034E-01  0.282389E-01  0.198324E-01  0.157150E-01
  0.157150E-01  0.198324E-01  0.282389E-01  0.402336E-01  0.533873E-01  0.642914E-01
  0.705399E-01  0.718981E-01  0.697057E-01  0.656277E-01  0.609465E-01  0.564591E-01
  0.525627E-01  0.493576E-01  0.467787E-01  0.447242E-01  0.431199E-01  0.419220E-01
  0.411129E-01  0.407002E-01  0.407002E-01  0.411129E-01  0.419220E-01  0.431199E-01
  0.447242E-01  0.467787E-01  0.493576E-01  0.525627E-01  0.564591E-01  0.609465E-01
  0.656277E-01  0.697057E-01  0.718981E-01  0.705399E-01  0.642914E-01  0.533873E-01
  0.402336E-01  0.282389E-01  0.133665E-01  0.803241E-02  0.644888E-02  0.803241E-02
  0.133665E-01  0.233970E-01  0.375396E-01  0.525960E-01  0.642914E-01  0.701241E-01
  0.704309E-01  0.671365E-01  0.621793E-01  0.568840E-01  0.519974E-01  0.478436E-01
  0.444665E-01  0.417815E-01  0.396920E-01  0.381263E-01  0.370327E-01  0.363807E-01
  0.361630E-01  0.363807E-01  0.370327E-01  0.381263E-01  0.396920E-01  0.417815E-01
  0.444665E-01  0.478436E-01  0.519974E-01  0.568840E-01  0.621793E-01  0.671365E-01
  0.704309E-01  0.701241E-01  0.642914E-01  0.525960E-01  0.375396E-01  0.233970E-01
  0.133665E-01  0.439926E-02  0.219420E-02  0.219420E-02  0.439926E-02  0.103953E-01
  0.217696E-01  0.375396E-01  0.533873E-01  0.644628E-01  0.687698E-01  0.674985E-01
  0.630377E-01  0.573742E-01  0.517233E-01  0.467034E-01  0.425299E-01  0.391826E-01
  0.365607E-01  0.345712E-01  0.331418E-01  0.322157E-01  0.317585E-01  0.317585E-01
  0.322157E-01  0.331418E-01  0.345712E-01  0.365607E-01  0.391826E-01  0.425299E-01
  0.467034E-01  0.517233E-01  0.573742E-01  0.630377E-01  0.674985E-01  0.687698E-01
  0.644628E-01  0.533873E-01  0.375396E-01  0.217696E-01  0.103953E-01  0.439926E-02
  0.900259E-03  0.397774E-03  0.900259E-03  0.341808E-02  0.103953E-01  0.233970E-01
  0.402336E-01  0.554209E-01  0.643485E-01  0.662352E-01  0.631664E-01  0.576924E-01
  0.516038E-01  0.458903E-01  0.409932E-01  0.370068E-01  0.338553E-01  0.314302E-01
  0.296428E-01  0.284202E-01  0.277066E-01  0.274715E-01  0.277066E-01  0.284202E-01
  0.296428E-01  0.314302E-01  0.338553E-01  0.370068E-01  0.409932E-01  0.458903E-01
  0.516038E-01  0.576924E-01  0.631664E-01  0.662352E-01  0.643485E-01  0.554209E-01
  0.402336E-01  0.233970E-01  0.103953E-01  0.341808E-02  0.900259E-03  0.124746E-03
  0.124746E-03  0.900259E-03  0.439926E-02  0.133665E-01  0.282389E-01  0.450034E-01
  0.577399E-01  0.632468E-01  0.623312E-01  0.576338E-01  0.514858E-01  0.453087E-01
  0.398125E-01  0.352485E-01  0.316026E-01  0.287646E-01  0.266284E-01  0.251089E-01
  0.241357E-01  0.236600E-01  0.236600E-01  0.241357E-01  0.251089E-01  0.266284E-01
  0.287646E-01  0.316026E-01  0.352485E-01  0.398125E-01  0.453087E-01  0.514858E-01
  0.576338E-01  0.623312E-01  0.632468E-01  0.577399E-01  0.450034E-01  0.282389E-01
  0.133665E-01  0.439926E-02  0.900259E-03  0.124746E-03  0.127591E-04  0.124746E-03
  0.144769E-02  0.666228E-02  0.180896E-01  0.342465E-01  0.495863E-01  0.588714E-01
  0.608584E-01  0.575969E-01  0.517947E-01  0.453714E-01  0.393736E-01  0.342586E-01
  0.301182E-01  0.268656E-01  0.243794E-01  0.225592E-01  0.213229E-01  0.206061E-01
  0.203709E-01  0.206061E-01  0.213229E-01  0.225592E-01  0.243794E-01  0.268656E-01
  0.301182E-01  0.342586E-01  0.393736E-01  0.453714E-01  0.517947E-01  0.575969E-01
  0.608584E-01  0.588714E-01  0.495863E-01  0.342465E-01  0.180896E-01  0.666228E-02
  0.144769E-02  0.124746E-03  0.127591E-04  0.124746E-03  0.785995E-03  0.395318E-02
  0.122797E-01  0.262321E-01  0.419489E-01  0.536934E-01  0.583896E-01  0.568829E-01
  0.517906E-01  0.453993E-01  0.390877E-01  0.335312E-01  0.289549E-01  0.253260E-01
  0.225217E-01  0.204255E-01  0.189441E-01  0.180005E-01  0.175410E-01  0.175410E-01
  0.180005E-01  0.189441E-01  0.204255E-01  0.225217E-01  0.253260E-01  0.289549E-01
  0.335312E-01  0.390877E-01  0.453993E-01  0.517906E-01  0.568829E-01  0.583896E-01
  0.536934E-01  0.419489E-01  0.262321E-01  0.122797E-01  0.395318E-02  0.785995E-03
  0.124746E-03  0.124746E-03  0.144769E-02  0.395318E-02  0.104605E-01  0.221104E-01
  0.366729E-01  0.491626E-01  0.556429E-01  0.557180E-01  0.514845E-01  0.453305E-01
  0.388818E-01  0.330090E-01  0.280717E-01  0.241118E-01  0.210236E-01  0.186802E-01
  0.169768E-01  0.158266E-01  0.151622E-01  0.149445E-01  0.151622E-01  0.158266E-01
  0.169768E-01  0.186802E-01  0.210236E-01  0.241118E-01  0.280717E-01  0.330090E-01
  0.388818E-01  0.453305E-01  0.514845E-01  0.557180E-01  0.556429E-01  0.491626E-01
  0.366729E-01  0.221104E-01  0.104605E-01  0.395318E-02  0.144769E-02  0.900259E-03
  0.144769E-02  0.666228E-02  0.122797E-01  0.221104E-01  0.348114E-01  0.465490E-01
  0.535133E-01  0.545318E-01  0.510155E-01  0.451683E-01  0.387075E-01  0.326350E-01
  0.274205E-01  0.231829E-01  0.198482E-01  0.172879E-01  0.153877E-01  0.140532E-01
  0.132064E-01  0.127945E-01  0.127945E-01  0.132064E-01  0.140532E-01  0.153877E-01
  0.172879E-01  0.198482E-01  0.231829E-01  0.274205E-01  0.326350E-01  0.387075E-01
  0.451683E-01  0.510155E-01  0.545318E-01  0.535133E-01  0.465490E-01  0.348114E-01
  0.221104E-01  0.122797E-01  0.666228E-02  0.439926E-02  0.439926E-02  0.666228E-02
  0.180896E-01  0.262321E-01  0.366729E-01  0.465490E-01  0.527142E-01  0.537899E-01
  0.506011E-01  0.449788E-01  0.385541E-01  0.323673E-01  0.269537E-01  0.224947E-01
  0.189531E-01  0.162071E-01  0.141361E-01  0.126403E-01  0.116342E-01  0.110535E-01
  0.108631E-01  0.110535E-01  0.116342E-01  0.126403E-01  0.141361E-01  0.162071E-01
  0.189531E-01  0.224947E-01  0.269537E-01  0.323673E-01  0.385541E-01  0.449788E-01
  0.506011E-01  0.537899E-01  0.527142E-01  0.465490E-01  0.366729E-01  0.262321E-01
  0.180896E-01  0.133665E-01  0.118765E-01  0.133665E-01  0.180896E-01  0.342465E-01
  0.419489E-01  0.491626E-01  0.535133E-01  0.537899E-01  0.504371E-01  0.448526E-01
  0.384425E-01  0.321876E-01  0.266364E-01  0.220076E-01  0.182967E-01  0.153943E-01
  0.131774E-01  0.115421E-01  0.103987E-01  0.967365E-02  0.932061E-02  0.932061E-02
  0.967365E-02  0.103987E-01  0.115421E-01  0.131774E-01  0.153943E-01  0.182967E-01
  0.220076E-01  0.266364E-01  0.321876E-01  0.384425E-01  0.448526E-01  0.504371E-01
  0.537899E-01  0.535133E-01  0.491626E-01  0.419489E-01  0.342465E-01  0.282389E-01
  0.250749E-01  0.250749E-01  0.282389E-01  0.342465E-01  0.495863E-01  0.536934E-01
  0.556429E-01  0.545318E-01  0.506011E-01  0.448526E-01  0.384012E-01  0.320957E-01
  0.264504E-01  0.216945E-01  0.178470E-01  0.148127E-01  0.124707E-01  0.107145E-01
  0.945202E-02  0.860419E-02  0.811422E-02  0.795343E-02  0.811422E-02  0.860419E-02
  0.945202E-02  0.107145E-01  0.124707E-01  0.148127E-01  0.178470E-01  0.216945E-01
  0.264504E-01  0.320957E-01  0.384012E-01  0.448526E-01  0.506011E-01  0.545318E-01
  0.556429E-01  0.536934E-01  0.495863E-01  0.450034E-01  0.415779E-01  0.403287E-01
  0.415779E-01  0.450034E-01  0.495863E-01  0.588714E-01  0.583896E-01  0.557180E-01
  0.510155E-01  0.449788E-01  0.384425E-01  0.320957E-01  0.263889E-01  0.215410E-01
  0.175840E-01  0.144373E-01  0.119857E-01  0.101223E-01  0.875431E-02  0.779965E-02
  0.719398E-02  0.689880E-02  0.689880E-02  0.719398E-02  0.779965E-02  0.875431E-02
  0.101223E-01  0.119857E-01  0.144373E-01  0.175840E-01  0.215410E-01  0.263889E-01
  0.320957E-01  0.384425E-01  0.449788E-01  0.510155E-01  0.557180E-01  0.583896E-01
  0.588714E-01  0.577399E-01  0.560688E-01  0.549204E-01  0.549204E-01  0.560688E-01
  0.577399E-01  0.588714E-01  0.608584E-01  0.568829E-01  0.514845E-01  0.451683E-01
  0.385541E-01  0.321876E-01  0.264504E-01  0.215410E-01  0.174974E-01  0.142532E-01
  0.117025E-01  0.974131E-02  0.827676E-02  0.722561E-02  0.651908E-02  0.611065E-02
  0.597671E-02  0.611065E-02  0.651908E-02  0.722561E-02  0.827676E-02  0.974131E-02
  0.117025E-01  0.142532E-01  0.174974E-01  0.215410E-01  0.264504E-01  0.321876E-01
  0.385541E-01  0.451683E-01  0.514845E-01  0.568829E-01  0.608584E-01  0.632468E-01
  0.643148E-01  0.646071E-01  0.646360E-01  0.646071E-01  0.643148E-01  0.632468E-01
  0.608584E-01  0.575969E-01  0.517906E-01  0.453305E-01  0.387075E-01  0.323673E-01
  0.266364E-01  0.216945E-01  0.175840E-01  0.142532E-01  0.116095E-01  0.955532E-02
  0.799931E-02  0.685770E-02  0.605933E-02  0.555230E-02  0.530563E-02  0.530563E-02
  0.555230E-02  0.605933E-02  0.685770E-02  0.799931E-02  0.955532E-02  0.116095E-01
  0.142532E-01  0.175840E-01  0.216945E-01  0.266364E-01  0.323673E-01  0.387075E-01
  0.453305E-01  0.517906E-01  0.575969E-01  0.623312E-01  0.657687E-01  0.679156E-01
  0.689216E-01  0.689216E-01  0.679156E-01  0.657687E-01  0.623312E-01  0.575969E-01
  0.517947E-01  0.453993E-01  0.388818E-01  0.326350E-01  0.269537E-01  0.220076E-01
  0.178470E-01  0.144373E-01  0.117025E-01  0.955532E-02  0.790852E-02  0.667868E-02
  0.579302E-02  0.519619E-02  0.485169E-02  0.473907E-02  0.485169E-02  0.519619E-02
  0.579302E-02  0.667868E-02  0.790852E-02  0.955532E-02  0.117025E-01  0.144373E-01
  0.178470E-01  0.220076E-01  0.269537E-01  0.326350E-01  0.388818E-01  0.453993E-01
  0.517947E-01  0.576338E-01  0.625173E-01  0.661508E-01  0.683705E-01  0.691144E-01
  0.683705E-01  0.661508E-01  0.625173E-01  0.576338E-01  0.517947E-01  0.453714E-01
  0.390877E-01  0.330090E-01  0.274205E-01  0.224947E-01  0.182967E-01  0.148127E-01
  0.119857E-01  0.974131E-02  0.799931E-02  0.667868E-02  0.570597E-02  0.502318E-02
  0.458974E-02  0.437965E-02  0.437965E-02  0.458974E-02  0.502318E-02  0.570597E-02
  0.667868E-02  0.799931E-02  0.974131E-02  0.119857E-01  0.148127E-01  0.182967E-01
  0.224947E-01  0.274205E-01  0.330090E-01  0.390877E-01  0.453714E-01  0.514858E-01
  0.570135E-01  0.615519E-01  0.647684E-01  0.664337E-01  0.664337E-01  0.647684E-01
  0.615519E-01  0.570135E-01  0.514858E-01  0.453714E-01  0.393736E-01  0.335312E-01
  0.280717E-01  0.231829E-01  0.189531E-01  0.153943E-01  0.124707E-01  0.101223E-01
  0.827676E-02  0.685770E-02  0.579302E-02  0.502318E-02  0.450419E-02  0.420554E-02
  0.410821E-02  0.420554E-02  0.450419E-02  0.502318E-02  0.579302E-02  0.685770E-02
  0.827676E-02  0.101223E-01  0.124707E-01  0.153943E-01  0.189531E-01  0.231829E-01
  0.280717E-01  0.335312E-01  0.393736E-01  0.453087E-01  0.509650E-01  0.559322E-01
  0.598153E-01  0.622884E-01  0.631375E-01  0.622884E-01  0.598153E-01  0.559322E-01
  0.509650E-01  0.453087E-01  0.393736E-01  0.342586E-01  0.289549E-01  0.241118E-01
  0.198482E-01  0.162071E-01  0.131774E-01  0.107145E-01  0.875431E-02  0.722561E-02
  0.605933E-02  0.519619E-02  0.458974E-02  0.420554E-02  0.401976E-02  0.401976E-02
  0.420554E-02  0.458974E-02  0.519619E-02  0.605933E-02  0.722561E-02  0.875431E-02
  0.107145E-01  0.131774E-01  0.162071E-01  0.198482E-01  0.241118E-01  0.289549E-01
  0.342586E-01  0.398125E-01  0.453153E-01  0.503972E-01  0.546633E-01  0.577470E-01
  0.593659E-01  0.593659E-01  0.577470E-01  0.546633E-01  0.503972E-01  0.453153E-01
  0.398125E-01  0.342586E-01  0.301182E-01  0.253260E-01  0.210236E-01  0.172879E-01
  0.141361E-01  0.115421E-01  0.945202E-02  0.779965E-02  0.651908E-02  0.555230E-02
  0.485169E-02  0.437965E-02  0.410821E-02  0.401976E-02  0.410821E-02  0.437965E-02
  0.485169E-02  0.555230E-02  0.651908E-02  0.779965E-02  0.945202E-02  0.115421E-01
  0.141361E-01  0.172879E-01  0.210236E-01  0.253260E-01  0.301182E-01  0.352485E-01
  0.404823E-01  0.455075E-01  0.499613E-01  0.534751E-01  0.557295E-01  0.565067E-01
  0.557295E-01  0.534751E-01  0.499613E-01  0.455075E-01  0.404823E-01  0.352485E-01
  0.301182E-01  0.268656E-01  0.225217E-01  0.186802E-01  0.153877E-01  0.126403E-01
  0.103987E-01  0.860419E-02  0.719398E-02  0.611065E-02  0.530563E-02  0.473907E-02
  0.437965E-02  0.420554E-02  0.420554E-02  0.437965E-02  0.473907E-02  0.530563E-02
  0.611065E-02  0.719398E-02  0.860419E-02  0.103987E-01  0.126403E-01  0.153877E-01
  0.186802E-01  0.225217E-01  0.268656E-01  0.316026E-01  0.365502E-01  0.414506E-01
  0.459832E-01  0.497979E-01  0.525627E-01  0.540169E-01  0.540169E-01  0.525627E-01
  0.497979E-01  0.459832E-01  0.414506E-01  0.365502E-01  0.316026E-01  0.268656E-01
  0.243794E-01  0.204255E-01  0.169768E-01  0.140532E-01  0.116342E-01  0.967365E-02
  0.811422E-02  0.689880E-02  0.597671E-02  0.530563E-02  0.485169E-02  0.458974E-02
  0.450419E-02  0.458974E-02  0.485169E-02  0.530563E-02  0.597671E-02  0.689880E-02
  0.811422E-02  0.967365E-02  0.116342E-01  0.140532E-01  0.169768E-01  0.204255E-01
  0.243794E-01  0.287646E-01  0.334415E-01  0.381979E-01  0.427539E-01  0.467849E-01
  0.499613E-01  0.519974E-01  0.526991E-01  0.519974E-01  0.499613E-01  0.467849E-01
  0.427539E-01  0.381979E-01  0.334415E-01  0.287646E-01  0.243794E-01  0.225592E-01
  0.189441E-01  0.158266E-01  0.132064E-01  0.110535E-01  0.932061E-02  0.795343E-02
  0.689880E-02  0.611065E-02  0.555230E-02  0.519619E-02  0.502318E-02  0.502318E-02
  0.519619E-02  0.555230E-02  0.611065E-02  0.689880E-02  0.795343E-02  0.932061E-02
  0.110535E-01  0.132064E-01  0.158266E-01  0.189441E-01  0.225592E-01  0.266284E-01
  0.310496E-01  0.356507E-01  0.401892E-01  0.443682E-01  0.478695E-01  0.503972E-01
  0.517233E-01  0.517233E-01  0.503972E-01  0.478695E-01  0.443682E-01  0.401892E-01
  0.356507E-01  0.310496E-01  0.266284E-01  0.225592E-01  0.213229E-01  0.180005E-01
  0.151622E-01  0.127945E-01  0.108631E-01  0.932061E-02  0.811422E-02  0.719398E-02
  0.651908E-02  0.605933E-02  0.579302E-02  0.570597E-02  0.579302E-02  0.605933E-02
  0.651908E-02  0.719398E-02  0.811422E-02  0.932061E-02  0.108631E-01  0.127945E-01
  0.151622E-01  0.180005E-01  0.213229E-01  0.251089E-01  0.292871E-01  0.337198E-01
  0.381981E-01  0.424537E-01  0.461868E-01  0.491053E-01  0.509650E-01  0.516038E-01
  0.509650E-01  0.491053E-01  0.461868E-01  0.424537E-01  0.381981E-01  0.337198E-01
  0.292871E-01  0.251089E-01  0.213229E-01  0.206061E-01  0.175410E-01  0.149445E-01
  0.127945E-01  0.110535E-01  0.967365E-02  0.860419E-02  0.779965E-02  0.722561E-02
  0.685770E-02  0.667868E-02  0.667868E-02  0.685770E-02  0.722561E-02  0.779965E-02
  0.860419E-02  0.967365E-02  0.110535E-01  0.127945E-01  0.149445E-01  0.175410E-01
  0.206061E-01  0.241357E-01  0.280818E-01  0.323339E-01  0.367110E-01  0.409702E-01
  0.448340E-01  0.480248E-01  0.503011E-01  0.514858E-01  0.514858E-01  0.503011E-01
  0.480248E-01  0.448340E-01  0.409702E-01  0.367110E-01  0.323339E-01  0.280818E-01
  0.241357E-01  0.206061E-01  0.203709E-01  0.175410E-01  0.151622E-01  0.132064E-01
  0.116342E-01  0.103987E-01  0.945202E-02  0.875431E-02  0.827676E-02  0.799931E-02
  0.790852E-02  0.799931E-02  0.827676E-02  0.875431E-02  0.945202E-02  0.103987E-01
  0.116342E-01  0.132064E-01  0.151622E-01  0.175410E-01  0.203709E-01  0.236600E-01
  0.273783E-01  0.314366E-01  0.356751E-01  0.398713E-01  0.437665E-01  0.471020E-01
  0.496528E-01  0.512508E-01  0.517947E-01  0.512508E-01  0.496528E-01  0.471020E-01
  0.437665E-01  0.398713E-01  0.356751E-01  0.314366E-01  0.273783E-01  0.236600E-01
  0.203709E-01  0.206061E-01  0.180005E-01  0.158266E-01  0.140532E-01  0.126403E-01
  0.115421E-01  0.107145E-01  0.101223E-01  0.974131E-02  0.955532E-02  0.955532E-02
  0.974131E-02  0.101223E-01  0.107145E-01  0.115421E-01  0.126403E-01  0.140532E-01
  0.158266E-01  0.180005E-01  0.206061E-01  0.236600E-01  0.271465E-01  0.309936E-01
  0.350585E-01  0.391331E-01  0.429721E-01  0.463310E-01  0.490050E-01  0.508513E-01
  0.517906E-01  0.517906E-01  0.508513E-01  0.490050E-01  0.463310E-01  0.429721E-01
  0.391331E-01  0.350585E-01  0.309936E-01  0.271465E-01  0.236600E-01  0.206061E-01
  0.213229E-01  0.189441E-01  0.169768E-01  0.153877E-01  0.141361E-01  0.131774E-01
  0.124707E-01  0.119857E-01  0.117025E-01  0.116095E-01  0.117025E-01  0.119857E-01
  0.124707E-01  0.131774E-01  0.141361E-01  0.153877E-01  0.169768E-01  0.189441E-01
  0.213229E-01  0.241357E-01  0.273783E-01  0.309936E-01  0.348526E-01  0.387577E-01
  0.424704E-01  0.457528E-01  0.484132E-01  0.503363E-01  0.514845E-01  0.518644E-01
  0.514845E-01  0.503363E-01  0.484132E-01  0.457528E-01  0.424704E-01  0.387577E-01
  0.348526E-01  0.309936E-01  0.273783E-01  0.241357E-01  0.213229E-01  0.225592E-01
  0.204255E-01  0.186802E-01  0.172879E-01  0.162071E-01  0.153943E-01  0.148127E-01
  0.144373E-01  0.142532E-01  0.142532E-01  0.144373E-01  0.148127E-01  0.153943E-01
  0.162071E-01  0.172879E-01  0.186802E-01  0.204255E-01  0.225592E-01  0.251089E-01
  0.280818E-01  0.314366E-01  0.350585E-01  0.387577E-01  0.422971E-01  0.454365E-01
  0.479848E-01  0.498431E-01  0.510155E-01  0.515706E-01  0.515706E-01  0.510155E-01
  0.498431E-01  0.479848E-01  0.454365E-01  0.422971E-01  0.387577E-01  0.350585E-01
  0.314366E-01  0.280818E-01  0.251089E-01  0.225592E-01  0.243794E-01  0.225217E-01
  0.210236E-01  0.198482E-01  0.189531E-01  0.182967E-01  0.178470E-01  0.175840E-01
  0.174974E-01  0.175840E-01  0.178470E-01  0.182967E-01  0.189531E-01  0.198482E-01
  0.210236E-01  0.225217E-01  0.243794E-01  0.266284E-01  0.292871E-01  0.323339E-01
  0.356751E-01  0.391331E-01  0.424704E-01  0.454365E-01  0.478271E-01  0.495394E-01
  0.506011E-01  0.511406E-01  0.513000E-01  0.511406E-01  0.506011E-01  0.495394E-01
  0.478271E-01  0.454365E-01  0.424704E-01  0.391331E-01  0.356751E-01  0.323339E-01
  0.292871E-01  0.266284E-01  0.243794E-01  0.268656E-01  0.253260E-01  0.241118E-01
  0.231829E-01  0.224947E-01  0.220076E-01  0.216945E-01  0.215410E-01  0.215410E-01
  0.216945E-01  0.220076E-01  0.224947E-01  0.231829E-01  0.241118E-01  0.253260E-01
  0.268656E-01  0.287646E-01  0.310496E-01  0.337198E-01  0.367110E-01  0.398713E-01
  0.429721E-01  0.457528E-01  0.479848E-01  0.495394E-01  0.504371E-01  0.508390E-01
  0.509634E-01  0.509634E-01  0.508390E-01  0.504371E-01  0.495394E-01  0.479848E-01
  0.457528E-01  0.429721E-01  0.398713E-01  0.367110E-01  0.337198E-01  0.310496E-01
  0.287646E-01  0.268656E-01  0.301182E-01  0.289549E-01  0.280717E-01  0.274205E-01
  0.269537E-01  0.266364E-01  0.264504E-01  0.263889E-01  0.264504E-01  0.266364E-01
  0.269537E-01  0.274205E-01  0.280717E-01  0.289549E-01  0.301182E-01  0.316026E-01
  0.334415E-01  0.356507E-01  0.381981E-01  0.409702E-01  0.437665E-01  0.463310E-01
  0.484132E-01  0.498431E-01  0.506011E-01  0.508390E-01  0.508174E-01  0.507777E-01
  0.508174E-01  0.508390E-01  0.506011E-01  0.498431E-01  0.484132E-01  0.463310E-01
  0.437665E-01  0.409702E-01  0.381981E-01  0.356507E-01  0.334415E-01  0.316026E-01
  0.301182E-01  0.342586E-01  0.335312E-01  0.330090E-01  0.326350E-01  0.323673E-01
  0.321876E-01  0.320957E-01  0.320957E-01  0.321876E-01  0.323673E-01  0.326350E-01
  0.330090E-01  0.335312E-01  0.342586E-01  0.352485E-01  0.365502E-01  0.381979E-01
  0.401892E-01  0.424537E-01  0.448340E-01  0.471020E-01  0.490050E-01  0.503363E-01
  0.510155E-01  0.511406E-01  0.509634E-01  0.507777E-01  0.507777E-01  0.509634E-01
  0.511406E-01  0.510155E-01  0.503363E-01  0.490050E-01  0.471020E-01  0.448340E-01
  0.424537E-01  0.401892E-01  0.381979E-01  0.365502E-01  0.352485E-01  0.342586E-01
  0.393736E-01  0.390877E-01  0.388818E-01  0.387075E-01  0.385541E-01  0.384425E-01
  0.384012E-01  0.384425E-01  0.385541E-01  0.387075E-01  0.388818E-01  0.390877E-01
  0.393736E-01  0.398125E-01  0.404823E-01  0.414506E-01  0.427539E-01  0.443682E-01
  0.461868E-01  0.480248E-01  0.496528E-01  0.508513E-01  0.514845E-01  0.515706E-01
  0.513000E-01  0.509634E-01  0.508174E-01  0.509634E-01  0.513000E-01  0.515706E-01
  0.514845E-01  0.508513E-01  0.496528E-01  0.480248E-01  0.461868E-01  0.443682E-01
  0.427539E-01  0.414506E-01  0.404823E-01  0.398125E-01  0.393736E-01  0.453714E-01
  0.453993E-01  0.453305E-01  0.451683E-01  0.449788E-01  0.448526E-01  0.448526E-01
  0.449788E-01  0.451683E-01  0.453305E-01  0.453993E-01  0.453714E-01  0.453087E-01
  0.453153E-01  0.455075E-01  0.459832E-01  0.467849E-01  0.478695E-01  0.491053E-01
  0.503011E-01  0.512508E-01  0.517906E-01  0.518644E-01  0.515706E-01  0.511406E-01
  0.508390E-01  0.508390E-01  0.511406E-01  0.515706E-01  0.518644E-01  0.517906E-01
  0.512508E-01  0.503011E-01  0.491053E-01  0.478695E-01  0.467849E-01  0.459832E-01
  0.455075E-01  0.453153E-01  0.453087E-01  0.453714E-01  0.517947E-01  0.517906E-01
  0.514845E-01  0.510155E-01  0.506011E-01  0.504371E-01  0.506011E-01  0.510155E-01
  0.514845E-01  0.517906E-01  0.517947E-01  0.514858E-01  0.509650E-01  0.503972E-01
  0.499613E-01  0.497979E-01  0.499613E-01  0.503972E-01  0.509650E-01  0.514858E-01
  0.517947E-01  0.517906E-01  0.514845E-01  0.510155E-01  0.506011E-01  0.504371E-01
  0.506011E-01  0.510155E-01  0.514845E-01  0.517906E-01  0.517947E-01  0.514858E-01
  0.509650E-01  0.503972E-01  0.499613E-01  0.497979E-01  0.499613E-01  0.503972E-01
  0.509650E-01  0.514858E-01  0.517947E-01  0.575969E-01  0.568829E-01  0.557180E-01
  0.545318E-01  0.537899E-01  0.537899E-01  0.545318E-01  0.557180E-01  0.568829E-01
  0.575969E-01  0.576338E-01  0.570135E-01  0.559322E-01  0.546633E-01  0.534751E-01
  0.525627E-01  0.519974E-01  0.517233E-01  0.516038E-01  0.514858E-01  0.512508E-01
  0.508513E-01  0.503363E-01  0.498431E-01  0.495394E-01  0.495394E-01  0.498431E-01
  0.503363E-01  0.508513E-01  0.512508E-01  0.514858E-01  0.516038E-01  0.517233E-01
  0.519974E-01  0.525627E-01  0.534751E-01  0.546633E-01  0.559322E-01  0.570135E-01
  0.576338E-01  0.575969E-01  0.608584E-01  0.583896E-01  0.556429E-01  0.535133E-01
  0.527142E-01  0.535133E-01  0.556429E-01  0.583896E-01  0.608584E-01  0.623312E-01
  0.625173E-01  0.615519E-01  0.598153E-01  0.577470E-01  0.557295E-01  0.540169E-01
  0.526991E-01  0.517233E-01  0.509650E-01  0.503011E-01  0.496528E-01  0.490050E-01
  0.484132E-01  0.479848E-01  0.478271E-01  0.479848E-01  0.484132E-01  0.490050E-01
  0.496528E-01  0.503011E-01  0.509650E-01  0.517233E-01  0.526991E-01  0.540169E-01
  0.557295E-01  0.577470E-01  0.598153E-01  0.615519E-01  0.625173E-01  0.623312E-01
  0.608584E-01  0.588714E-01  0.536934E-01  0.491626E-01  0.465490E-01  0.465490E-01
  0.491626E-01  0.536934E-01  0.588714E-01  0.632468E-01  0.657687E-01  0.661508E-01
  0.647684E-01  0.622884E-01  0.593659E-01  0.565067E-01  0.540169E-01  0.519974E-01
  0.503972E-01  0.491053E-01  0.480248E-01  0.471020E-01  0.463310E-01  0.457528E-01
  0.454365E-01  0.454365E-01  0.457528E-01  0.463310E-01  0.471020E-01  0.480248E-01
  0.491053E-01  0.503972E-01  0.519974E-01  0.540169E-01  0.565067E-01  0.593659E-01
  0.622884E-01  0.647684E-01  0.661508E-01  0.657687E-01  0.632468E-01  0.588714E-01
  0.495863E-01  0.419489E-01  0.366729E-01  0.348114E-01  0.366729E-01  0.419489E-01
  0.495863E-01  0.577399E-01  0.643148E-01  0.679156E-01  0.683705E-01  0.664337E-01
  0.631375E-01  0.593659E-01  0.557295E-01  0.525627E-01  0.499613E-01  0.478695E-01
  0.461868E-01  0.448340E-01  0.437665E-01  0.429721E-01  0.424704E-01  0.422971E-01
  0.424704E-01  0.429721E-01  0.437665E-01  0.448340E-01  0.461868E-01  0.478695E-01
  0.499613E-01  0.525627E-01  0.557295E-01  0.593659E-01  0.631375E-01  0.664337E-01
  0.683705E-01  0.679156E-01  0.643148E-01  0.577399E-01  0.495863E-01  0.342465E-01
  0.262321E-01  0.221104E-01  0.221104E-01  0.262321E-01  0.342465E-01  0.450034E-01
  0.560688E-01  0.646071E-01  0.689216E-01  0.691144E-01  0.664337E-01  0.622884E-01
  0.577470E-01  0.534751E-01  0.497979E-01  0.467849E-01  0.443682E-01  0.424537E-01
  0.409702E-01  0.398713E-01  0.391331E-01  0.387577E-01  0.387577E-01  0.391331E-01
  0.398713E-01  0.409702E-01  0.424537E-01  0.443682E-01  0.467849E-01  0.497979E-01
  0.534751E-01  0.577470E-01  0.622884E-01  0.664337E-01  0.691144E-01  0.689216E-01
  0.646071E-01  0.560688E-01  0.450034E-01  0.342465E-01  0.180896E-01  0.122797E-01
  0.104605E-01  0.122797E-01  0.180896E-01  0.282389E-01  0.415779E-01  0.549204E-01
  0.646360E-01  0.689216E-01  0.683705E-01  0.647684E-01  0.598153E-01  0.546633E-01
  0.499613E-01  0.459832E-01  0.427539E-01  0.401892E-01  0.381981E-01  0.367110E-01
  0.356751E-01  0.350585E-01  0.348526E-01  0.350585E-01  0.356751E-01  0.367110E-01
  0.381981E-01  0.401892E-01  0.427539E-01  0.459832E-01  0.499613E-01  0.546633E-01
  0.598153E-01  0.647684E-01  0.683705E-01  0.689216E-01  0.646360E-01  0.549204E-01
  0.415779E-01  0.282389E-01  0.180896E-01  0.666228E-02  0.395318E-02  0.395318E-02
  0.666228E-02  0.133665E-01  0.250749E-01  0.403287E-01  0.549204E-01  0.646071E-01
  0.679156E-01  0.661508E-01  0.615519E-01  0.559322E-01  0.503972E-01  0.455075E-01
  0.414506E-01  0.381979E-01  0.356507E-01  0.337198E-01  0.323339E-01  0.314366E-01
  0.309936E-01  0.309936E-01  0.314366E-01  0.323339E-01  0.337198E-01  0.356507E-01
  0.381979E-01  0.414506E-01  0.455075E-01  0.503972E-01  0.559322E-01  0.615519E-01
  0.661508E-01  0.679156E-01  0.646071E-01  0.549204E-01  0.403287E-01  0.250749E-01
  0.133665E-01  0.666228E-02  0.144769E-02  0.785995E-03  0.144769E-02  0.439926E-02
  0.118765E-01  0.250749E-01  0.415779E-01  0.560688E-01  0.643148E-01  0.657687E-01
  0.625173E-01  0.570135E-01  0.509650E-01  0.453153E-01  0.404823E-01  0.365502E-01
  0.334415E-01  0.310496E-01  0.292871E-01  0.280818E-01  0.273783E-01  0.271465E-01
  0.273783E-01  0.280818E-01  0.292871E-01  0.310496E-01  0.334415E-01  0.365502E-01
  0.404823E-01  0.453153E-01  0.509650E-01  0.570135E-01  0.625173E-01  0.657687E-01
  0.643148E-01  0.560688E-01  0.415779E-01  0.250749E-01  0.118765E-01  0.439926E-02
  0.144769E-02  0.124746E-03  0.124746E-03  0.900259E-03  0.439926E-02  0.133665E-01
  0.282389E-01  0.450034E-01  0.577399E-01  0.632468E-01  0.623312E-01  0.576338E-01
  0.514858E-01  0.453087E-01  0.398125E-01  0.352485E-01  0.316026E-01  0.287646E-01
  0.266284E-01  0.251089E-01  0.241357E-01  0.236600E-01  0.236600E-01  0.241357E-01
  0.251089E-01  0.266284E-01  0.287646E-01  0.316026E-01  0.352485E-01  0.398125E-01
  0.453087E-01  0.514858E-01  0.576338E-01  0.623312E-01  0.632468E-01  0.577399E-01
  0.450034E-01  0.282389E-01  0.133665E-01  0.439926E-02  0.900259E-03  0.124746E-03
  0.127591E-04  0.124746E-03  0.144769E-02  0.666228E-02  0.180896E-01  0.342465E-01
  0.495863E-01  0.588714E-01  0.608584E-01  0.575969E-01  0.517947E-01  0.453714E-01
  0.393736E-01  0.342586E-01  0.301182E-01  0.268656E-01  0.243794E-01  0.225592E-01
  0.213229E-01  0.206061E-01  0.203709E-01  0.206061E-01  0.213229E-01  0.225592E-01
  0.243794E-01  0.268656E-01  0.301182E-01  0.342586E-01  0.393736E-01  0.453714E-01
  0.517947E-01  0.575969E-01  0.608584E-01  0.588714E-01  0.495863E-01  0.342465E-01
  0.180896E-01  0.666228E-02  0.144769E-02  0.124746E-03  0.127591E-04
END_DATAGRID_3D
END_BLOCK_DATAGRID_3D
