
     Program PWSCF v.7.2 starts on 25Mar2026 at 22:51: 5 

     This program is part of the open-source Quantum ESPRESSO suite
     for quantum simulation of materials; please cite
         "P. Giannozzi et al., J. Phys.:Condens. Matter 21 395502 (2009);
         "P. Giannozzi et al., J. Phys.:Condens. Matter 29 465901 (2017);
         "P. Giannozzi et al., J. Chem. Phys. 152 154105 (2020);
          URL http://www.quantum-espresso.org", 
     in publications or presentations arising from this work. More details at
     http://www.quantum-espresso.org/quote

     Parallel version (MPI), running on     1 processors

     MPI processes distributed on     1 nodes
     887 MiB available memory on the printing compute node when the environment starts

     Reading input from scf.in

     Current dimensions of program PWSCF are:
     Max number of different atomic species (ntypx) = 10
     Max number of k-points (npk) =  40000
     Max angular momentum in pseudopotentials (lmaxx) =  4

     Subspace diagonalization in iterative solution of the eigenvalue problem:
     a serial algorithm will be used


     G-vector sticks info
     --------------------
     sticks:   dense  smooth     PW     G-vecs:    dense   smooth      PW
     Sum         955     955    295                19339    19339    3287

     Using Slab Decomposition



     bravais-lattice index     =            2
     lattice parameter (alat)  =      10.7000  a.u.
     unit-cell volume          =     306.2607 (a.u.)^3
     number of atoms/cell      =            2
     number of atomic types    =            1
     number of electrons       =         8.00
     number of Kohn-Sham states=            4
     kinetic-energy cutoff     =      60.0000  Ry
     charge density cutoff     =     240.0000  Ry
     scf convergence threshold =      1.0E-08
     mixing beta               =       0.7000
     number of iterations used =            8  plain     mixing
     Exchange-correlation= SLA-PZ-NOGX-NOGC
                           (   1   1   0   0   0   0   0)

     celldm(1)=  10.700000  celldm(2)=   0.000000  celldm(3)=   0.000000
     celldm(4)=   0.000000  celldm(5)=   0.000000  celldm(6)=   0.000000

     crystal axes: (cart. coord. in units of alat)
               a(1) = (  -0.500000   0.000000   0.500000 )  
               a(2) = (   0.000000   0.500000   0.500000 )  
               a(3) = (  -0.500000   0.500000   0.000000 )  

     reciprocal axes: (cart. coord. in units 2 pi/alat)
               b(1) = ( -1.000000 -1.000000  1.000000 )  
               b(2) = (  1.000000  1.000000  1.000000 )  
               b(3) = ( -1.000000  1.000000 -1.000000 )  


     PseudoPot. # 1 for Ge read from file:
     ../../pseudo/Ge.pz-hgh.UPF
     MD5 check sum: 4f4dbf79373ba026d545ed2bc1c74a27
     Pseudo is Norm-conserving, Zval =  4.0
     Generated in analytical, separable form
     Using radial grid of 1207 points,  6 beta functions with: 
                l(1) =   0
                l(2) =   0
                l(3) =   0
                l(4) =   1
                l(5) =   1
                l(6) =   2

     atomic species   valence    mass     pseudopotential
        Ge             4.00    72.63000     Ge( 1.00)

     48 Sym. Ops., with inversion, found (24 have fractional translation)



   Cartesian axes

     site n.     atom                  positions (alat units)
         1           Ge  tau(   1) = (   0.0000000   0.0000000   0.0000000  )
         2           Ge  tau(   2) = (   0.2500000   0.2500000   0.2500000  )

     number of k points=    60
                       cart. coord. in units 2pi/alat
        k(    1) = (  -0.0625000   0.0625000   0.0625000), wk =   0.0078125
        k(    2) = (  -0.1875000   0.1875000  -0.0625000), wk =   0.0234375
        k(    3) = (  -0.3125000   0.3125000  -0.1875000), wk =   0.0234375
        k(    4) = (  -0.4375000   0.4375000  -0.3125000), wk =   0.0234375
        k(    5) = (   0.4375000  -0.4375000   0.5625000), wk =   0.0234375
        k(    6) = (   0.3125000  -0.3125000   0.4375000), wk =   0.0234375
        k(    7) = (   0.1875000  -0.1875000   0.3125000), wk =   0.0234375
        k(    8) = (   0.0625000  -0.0625000   0.1875000), wk =   0.0234375
        k(    9) = (  -0.0625000   0.3125000   0.0625000), wk =   0.0234375
        k(   10) = (  -0.1875000   0.4375000  -0.0625000), wk =   0.0468750
        k(   11) = (  -0.3125000   0.5625000  -0.1875000), wk =   0.0468750
        k(   12) = (   0.5625000  -0.3125000   0.6875000), wk =   0.0468750
        k(   13) = (   0.4375000  -0.1875000   0.5625000), wk =   0.0468750
        k(   14) = (   0.3125000  -0.0625000   0.4375000), wk =   0.0468750
        k(   15) = (   0.1875000   0.0625000   0.3125000), wk =   0.0468750
        k(   16) = (  -0.0625000   0.5625000   0.0625000), wk =   0.0234375
        k(   17) = (  -0.1875000   0.6875000  -0.0625000), wk =   0.0468750
        k(   18) = (   0.6875000  -0.1875000   0.8125000), wk =   0.0468750
        k(   19) = (   0.5625000  -0.0625000   0.6875000), wk =   0.0468750
        k(   20) = (   0.4375000   0.0625000   0.5625000), wk =   0.0468750
        k(   21) = (   0.3125000   0.1875000   0.4375000), wk =   0.0468750
        k(   22) = (  -0.0625000   0.8125000   0.0625000), wk =   0.0234375
        k(   23) = (   0.8125000  -0.0625000   0.9375000), wk =   0.0468750
        k(   24) = (   0.6875000   0.0625000   0.8125000), wk =   0.0468750
        k(   25) = (   0.5625000   0.1875000   0.6875000), wk =   0.0468750
        k(   26) = (   0.4375000   0.3125000   0.5625000), wk =   0.0468750
        k(   27) = (  -0.0625000  -0.9375000   0.0625000), wk =   0.0234375
        k(   28) = (  -0.1875000  -0.8125000  -0.0625000), wk =   0.0468750
        k(   29) = (  -0.3125000  -0.6875000  -0.1875000), wk =   0.0468750
        k(   30) = (  -0.0625000  -0.6875000   0.0625000), wk =   0.0234375
        k(   31) = (  -0.1875000  -0.5625000  -0.0625000), wk =   0.0468750
        k(   32) = (  -0.0625000  -0.4375000   0.0625000), wk =   0.0234375
        k(   33) = (  -0.1875000   0.1875000   0.1875000), wk =   0.0078125
        k(   34) = (  -0.3125000   0.3125000   0.0625000), wk =   0.0234375
        k(   35) = (  -0.4375000   0.4375000  -0.0625000), wk =   0.0234375
        k(   36) = (   0.4375000  -0.4375000   0.8125000), wk =   0.0234375
        k(   37) = (   0.3125000  -0.3125000   0.6875000), wk =   0.0234375
        k(   38) = (   0.1875000  -0.1875000   0.5625000), wk =   0.0234375
        k(   39) = (  -0.1875000   0.4375000   0.1875000), wk =   0.0234375
        k(   40) = (  -0.3125000   0.5625000   0.0625000), wk =   0.0468750
        k(   41) = (   0.5625000  -0.3125000   0.9375000), wk =   0.0468750
        k(   42) = (   0.4375000  -0.1875000   0.8125000), wk =   0.0468750
        k(   43) = (   0.3125000  -0.0625000   0.6875000), wk =   0.0468750
        k(   44) = (  -0.1875000   0.6875000   0.1875000), wk =   0.0234375
        k(   45) = (   0.6875000  -0.1875000   1.0625000), wk =   0.0468750
        k(   46) = (   0.5625000  -0.0625000   0.9375000), wk =   0.0468750
        k(   47) = (   0.4375000   0.0625000   0.8125000), wk =   0.0468750
        k(   48) = (  -0.1875000  -1.0625000   0.1875000), wk =   0.0234375
        k(   49) = (  -0.3125000  -0.9375000   0.0625000), wk =   0.0468750
        k(   50) = (  -0.1875000  -0.8125000   0.1875000), wk =   0.0234375
        k(   51) = (  -0.3125000   0.3125000   0.3125000), wk =   0.0078125
        k(   52) = (  -0.4375000   0.4375000   0.1875000), wk =   0.0234375
        k(   53) = (   0.4375000  -0.4375000   1.0625000), wk =   0.0234375
        k(   54) = (   0.3125000  -0.3125000   0.9375000), wk =   0.0234375
        k(   55) = (  -0.3125000   0.5625000   0.3125000), wk =   0.0234375
        k(   56) = (   0.5625000  -0.3125000   1.1875000), wk =   0.0468750
        k(   57) = (   0.4375000  -0.1875000   1.0625000), wk =   0.0468750
        k(   58) = (  -0.3125000  -1.1875000   0.3125000), wk =   0.0234375
        k(   59) = (  -0.4375000   0.4375000   0.4375000), wk =   0.0078125
        k(   60) = (   0.4375000  -0.4375000   1.3125000), wk =   0.0234375

     Dense  grid:    19339 G-vectors     FFT dimensions: (  40,  40,  40)

     Estimated max dynamical RAM per process >      24.99 MB

     Initial potential from superposition of free atoms

     starting charge       6.0000, renormalised to       8.0000
     Starting wfcs are   18 randomized atomic wfcs

     total cpu time spent up to now is        3.9 secs

     Self-consistent Calculation

     iteration #  1     ecut=    60.00 Ry     beta= 0.70
     Davidson diagonalization with overlap
     ethr =  1.00E-02,  avg # of iterations =  1.0

     Threshold (ethr) on eigenvalues was too large:
     Diagonalizing with lowered threshold

     Davidson diagonalization with overlap
     ethr =  9.39E-04,  avg # of iterations =  1.0

     total cpu time spent up to now is        7.0 secs

     total energy              =     -15.98629611 Ry
     estimated scf accuracy    <       0.07574489 Ry

     iteration #  2     ecut=    60.00 Ry     beta= 0.70
     Davidson diagonalization with overlap
     ethr =  9.47E-04,  avg # of iterations =  1.0

     total cpu time spent up to now is        8.5 secs

     total energy              =     -15.98961339 Ry
     estimated scf accuracy    <       0.00342988 Ry

     iteration #  3     ecut=    60.00 Ry     beta= 0.70
     Davidson diagonalization with overlap
     ethr =  4.29E-05,  avg # of iterations =  2.1

     total cpu time spent up to now is       10.3 secs

     total energy              =     -15.98997175 Ry
     estimated scf accuracy    <       0.00010138 Ry

     iteration #  4     ecut=    60.00 Ry     beta= 0.70
     Davidson diagonalization with overlap
     ethr =  1.27E-06,  avg # of iterations =  3.1

     total cpu time spent up to now is       12.4 secs

     total energy              =     -15.99000492 Ry
     estimated scf accuracy    <       0.00000046 Ry

     iteration #  5     ecut=    60.00 Ry     beta= 0.70
     Davidson diagonalization with overlap
     ethr =  5.71E-09,  avg # of iterations =  6.2

     total cpu time spent up to now is       17.3 secs

     total energy              =     -15.99000720 Ry
     estimated scf accuracy    <       0.00000009 Ry

     iteration #  6     ecut=    60.00 Ry     beta= 0.70
     Davidson diagonalization with overlap
     ethr =  1.15E-09,  avg # of iterations =  2.4

     total cpu time spent up to now is       20.0 secs

     total energy              =     -15.99000720 Ry
     estimated scf accuracy    <       0.00000008 Ry

     iteration #  7     ecut=    60.00 Ry     beta= 0.70
     Davidson diagonalization with overlap
     ethr =  1.05E-09,  avg # of iterations =  1.6

     total cpu time spent up to now is       21.8 secs

     End of self-consistent calculation

          k =-0.0625 0.0625 0.0625 (  2421 PWs)   bands (ev):

    -7.2757   4.2355   5.3170   5.3170

          k =-0.1875 0.1875-0.0625 (  2410 PWs)   bands (ev):

    -7.0267   2.4920   4.4128   5.1580

          k =-0.3125 0.3125-0.1875 (  2416 PWs)   bands (ev):

    -6.4303   0.2907   3.8138   4.6257

          k =-0.4375 0.4375-0.3125 (  2417 PWs)   bands (ev):

    -5.6228  -1.5121   3.5296   4.1705

          k = 0.4375-0.4375 0.5625 (  2405 PWs)   bands (ev):

    -5.2480  -2.1419   3.5495   3.9415

          k = 0.3125-0.3125 0.4375 (  2409 PWs)   bands (ev):

    -5.8939  -0.9892   3.8501   3.9877

          k = 0.1875-0.1875 0.3125 (  2413 PWs)   bands (ev):

    -6.6630   1.0064   4.3148   4.3772

          k = 0.0625-0.0625 0.1875 (  2402 PWs)   bands (ev):

    -7.1504   3.2569   4.8561   4.9356

          k =-0.0625 0.3125 0.0625 (  2411 PWs)   bands (ev):

    -6.9009   2.1792   4.2572   4.2583

          k =-0.1875 0.4375-0.0625 (  2409 PWs)   bands (ev):

    -6.4147   0.6630   3.1984   3.9868

          k =-0.3125 0.5625-0.1875 (  2408 PWs)   bands (ev):

    -5.6450  -1.0703   2.5676   3.5847

          k = 0.5625-0.3125 0.6875 (  2401 PWs)   bands (ev):

    -4.9915  -2.1532   2.2356   3.4979

          k = 0.4375-0.1875 0.5625 (  2404 PWs)   bands (ev):

    -5.3787  -1.5430   2.2109   3.7789

          k = 0.3125-0.0625 0.4375 (  2409 PWs)   bands (ev):

    -6.1882   0.0550   2.6301   4.2979

          k = 0.1875 0.0625 0.3125 (  2411 PWs)   bands (ev):

    -6.7806   1.5877   3.7943   4.6847

          k =-0.0625 0.5625 0.0625 (  2410 PWs)   bands (ev):

    -6.0390   0.0142   3.0671   3.1998

          k =-0.1875 0.6875-0.0625 (  2398 PWs)   bands (ev):

    -5.3432  -1.1999   2.2784   2.8456

          k = 0.6875-0.1875 0.8125 (  2392 PWs)   bands (ev):

    -4.5436  -2.2998   1.4554   2.8078

          k = 0.5625-0.0625 0.6875 (  2394 PWs)   bands (ev):

    -4.6218  -2.1990   1.1392   3.1505

          k = 0.4375 0.0625 0.5625 (  2402 PWs)   bands (ev):

    -5.4269  -1.2216   1.6852   3.7397

          k = 0.3125 0.1875 0.4375 (  2412 PWs)   bands (ev):

    -6.0877  -0.4106   3.2070   4.1801

          k =-0.0625 0.8125 0.0625 (  2407 PWs)   bands (ev):

    -4.7246  -2.0591   2.3665   2.5645

          k = 0.8125-0.0625 0.9375 (  2400 PWs)   bands (ev):

    -3.8829  -3.0145   1.8514   2.3385

          k = 0.6875 0.0625 0.8125 (  2386 PWs)   bands (ev):

    -4.0261  -2.8187   1.1827   2.6579

          k = 0.5625 0.1875 0.6875 (  2397 PWs)   bands (ev):

    -4.7480  -2.2256   1.5613   3.2661

          k = 0.4375 0.3125 0.5625 (  2410 PWs)   bands (ev):

    -5.3050  -1.9126   2.9550   3.8446

          k =-0.0625-0.9375 0.0625 (  2406 PWs)   bands (ev):

    -3.9173  -3.0222   2.2244   2.4346

          k =-0.1875-0.8125-0.0625 (  2400 PWs)   bands (ev):

    -4.6539  -2.1236   1.9963   2.5071

          k =-0.3125-0.6875-0.1875 (  2402 PWs)   bands (ev):

    -5.1190  -1.6962   1.9495   3.1140

          k =-0.0625-0.6875 0.0625 (  2403 PWs)   bands (ev):

    -5.4351  -1.0413   2.6490   2.8217

          k =-0.1875-0.5625-0.0625 (  2405 PWs)   bands (ev):

    -5.9333  -0.2674   2.6845   3.3480

          k =-0.0625-0.4375 0.0625 (  2412 PWs)   bands (ev):

    -6.5293   1.0921   3.6110   3.6868

          k =-0.1875 0.1875 0.1875 (  2409 PWs)   bands (ev):

    -6.9050   1.8148   4.8114   4.8114

          k =-0.3125 0.3125 0.0625 (  2415 PWs)   bands (ev):

    -6.5418   0.8317   3.1948   4.7970

          k =-0.4375 0.4375-0.0625 (  2400 PWs)   bands (ev):

    -5.8556  -0.5891   2.1027   4.2507

          k = 0.4375-0.4375 0.8125 (  2394 PWs)   bands (ev):

    -5.0644  -1.9412   1.8513   3.6937

          k = 0.3125-0.3125 0.6875 (  2402 PWs)   bands (ev):

    -5.0471  -1.9708   2.1165   3.3723

          k = 0.1875-0.1875 0.5625 (  2400 PWs)   bands (ev):

    -5.8350  -0.5971   2.7631   3.3674

          k =-0.1875 0.4375 0.1875 (  2410 PWs)   bands (ev):

    -6.3044   0.1986   3.5529   3.8110

          k =-0.3125 0.5625 0.0625 (  2403 PWs)   bands (ev):

    -5.7263  -0.7155   2.1627   3.5780

          k = 0.5625-0.3125 0.9375 (  2405 PWs)   bands (ev):

    -4.9178  -1.8348   1.4117   3.0294

          k = 0.4375-0.1875 0.8125 (  2398 PWs)   bands (ev):

    -4.4923  -2.3820   1.3770   2.7307

          k = 0.3125-0.0625 0.6875 (  2404 PWs)   bands (ev):

    -5.1660  -1.4833   1.8188   2.9009

          k =-0.1875 0.6875 0.1875 (  2399 PWs)   bands (ev):

    -5.2645  -1.3930   2.1149   3.0168

          k = 0.6875-0.1875 1.0625 (  2400 PWs)   bands (ev):

    -4.5230  -2.2533   1.6089   2.3811

          k = 0.5625-0.0625 0.9375 (  2400 PWs)   bands (ev):

    -3.7916  -3.0020   1.3422   1.9093

          k = 0.4375 0.0625 0.8125 (  2407 PWs)   bands (ev):

    -4.3532  -2.4353   1.3023   2.3670

          k =-0.1875-1.0625 0.1875 (  2397 PWs)   bands (ev):

    -3.9276  -2.9490   1.4320   2.6534

          k =-0.3125-0.9375 0.0625 (  2401 PWs)   bands (ev):

    -3.8310  -3.0060   1.5224   2.0902

          k =-0.1875-0.8125 0.1875 (  2404 PWs)   bands (ev):

    -4.6103  -2.1929   1.6624   2.7758

          k =-0.3125 0.3125 0.3125 (  2421 PWs)   bands (ev):

    -6.2113  -0.3692   4.3325   4.3325

          k =-0.4375 0.4375 0.1875 (  2407 PWs)   bands (ev):

    -5.7737  -1.0079   2.7049   4.2274

          k = 0.4375-0.4375 1.0625 (  2397 PWs)   bands (ev):

    -5.0508  -1.7245   1.3294   3.6318

          k = 0.3125-0.3125 0.9375 (  2389 PWs)   bands (ev):

    -4.3106  -2.5359   1.0526   3.0692

          k =-0.3125 0.5625 0.3125 (  2407 PWs)   bands (ev):

    -5.4951  -1.5266   2.9673   3.6531

          k = 0.5625-0.3125 1.1875 (  2407 PWs)   bands (ev):

    -4.9328  -2.0027   1.7580   3.1926

          k = 0.4375-0.1875 1.0625 (  2398 PWs)   bands (ev):

    -4.1760  -2.6371   1.1441   2.4928

          k =-0.3125-1.1875 0.3125 (  2400 PWs)   bands (ev):

    -4.6117  -2.3181   1.4379   3.1726

          k =-0.4375 0.4375 0.4375 (  2407 PWs)   bands (ev):

    -5.4319  -1.9195   4.0721   4.0721

          k = 0.4375-0.4375 1.3125 (  2410 PWs)   bands (ev):

    -5.1208  -2.1360   2.6626   3.8049

     highest occupied level (ev):     5.3170

!    total energy              =     -15.99000721 Ry
     estimated scf accuracy    <          3.3E-10 Ry

     The total energy is the sum of the following terms:
     one-electron contribution =       3.62200460 Ry
     hartree contribution      =       1.16891354 Ry
     xc contribution           =      -4.67087513 Ry
     ewald contribution        =     -16.11005023 Ry

     convergence has been achieved in   7 iterations

     Writing all to output data dir ./tmp/Ge.save/

     init_run     :      3.91s CPU      3.85s WALL (       1 calls)
     electrons    :     18.09s CPU     17.94s WALL (       1 calls)

     Called by init_run:
     wfcinit      :      3.37s CPU      3.32s WALL (       1 calls)
     potinit      :      0.04s CPU      0.03s WALL (       1 calls)
     hinit0       :      0.47s CPU      0.46s WALL (       1 calls)

     Called by electrons:
     c_bands      :     15.69s CPU     15.58s WALL (       8 calls)
     sum_band     :      2.32s CPU      2.28s WALL (       8 calls)
     v_of_rho     :      0.06s CPU      0.06s WALL (       8 calls)
     mix_rho      :      0.02s CPU      0.03s WALL (       8 calls)

     Called by c_bands:
     init_us_2    :      1.04s CPU      1.02s WALL (    1020 calls)
     init_us_2:cp :      1.03s CPU      1.01s WALL (    1020 calls)
     cegterg      :     13.98s CPU     13.87s WALL (     480 calls)

     Called by *egterg:
     cdiaghg      :      0.11s CPU      0.11s WALL (    1522 calls)
     h_psi        :     15.18s CPU     15.09s WALL (    1642 calls)
     g_psi        :      0.07s CPU      0.07s WALL (    1102 calls)

     Called by h_psi:
     h_psi:calbec :      1.64s CPU      1.63s WALL (    1642 calls)
     vloc_psi     :     11.99s CPU     11.93s WALL (    1642 calls)
     add_vuspsi   :      1.47s CPU      1.45s WALL (    1642 calls)

     General routines
     calbec       :      1.63s CPU      1.62s WALL (    1642 calls)
     fft          :      0.32s CPU      0.32s WALL (      24 calls)
     ffts         :      0.01s CPU      0.01s WALL (       8 calls)
     fftw         :     11.17s CPU     11.14s WALL (   14702 calls)

     Parallel routines

     PWSCF        :     22.08s CPU     21.90s WALL


   This run was terminated on:  22:51:26  25Mar2026            

=------------------------------------------------------------------------------=
   JOB DONE.
=------------------------------------------------------------------------------=
Note: The following floating-point exceptions are signalling: IEEE_UNDERFLOW_FLAG
