
     Program PWSCF v.7.2 starts on 25Mar2026 at 22:52: 3 

     This program is part of the open-source Quantum ESPRESSO suite
     for quantum simulation of materials; please cite
         "P. Giannozzi et al., J. Phys.:Condens. Matter 21 395502 (2009);
         "P. Giannozzi et al., J. Phys.:Condens. Matter 29 465901 (2017);
         "P. Giannozzi et al., J. Chem. Phys. 152 154105 (2020);
          URL http://www.quantum-espresso.org", 
     in publications or presentations arising from this work. More details at
     http://www.quantum-espresso.org/quote

     Parallel version (MPI), running on     1 processors

     MPI processes distributed on     1 nodes
     1718 MiB available memory on the printing compute node when the environment starts

     Reading input from scf_e100.in

     Current dimensions of program PWSCF are:
     Max number of different atomic species (ntypx) = 10
     Max number of k-points (npk) =  40000
     Max angular momentum in pseudopotentials (lmaxx) =  4

     Subspace diagonalization in iterative solution of the eigenvalue problem:
     a serial algorithm will be used


     G-vector sticks info
     --------------------
     sticks:   dense  smooth     PW     G-vecs:    dense   smooth      PW
     Sum        1573    1573    463                41391    41391    6615

     Using Slab Decomposition



     bravais-lattice index     =            2
     lattice parameter (alat)  =      10.7000  a.u.
     unit-cell volume          =     306.2607 (a.u.)^3
     number of atoms/cell      =            2
     number of atomic types    =            1
     number of electrons       =         8.00
     number of Kohn-Sham states=            4
     kinetic-energy cutoff     =     100.0000  Ry
     charge density cutoff     =     400.0000  Ry
     scf convergence threshold =      1.0E-08
     mixing beta               =       0.7000
     number of iterations used =            8  plain     mixing
     Exchange-correlation= SLA-PZ-NOGX-NOGC
                           (   1   1   0   0   0   0   0)

     celldm(1)=  10.700000  celldm(2)=   0.000000  celldm(3)=   0.000000
     celldm(4)=   0.000000  celldm(5)=   0.000000  celldm(6)=   0.000000

     crystal axes: (cart. coord. in units of alat)
               a(1) = (  -0.500000   0.000000   0.500000 )  
               a(2) = (   0.000000   0.500000   0.500000 )  
               a(3) = (  -0.500000   0.500000   0.000000 )  

     reciprocal axes: (cart. coord. in units 2 pi/alat)
               b(1) = ( -1.000000 -1.000000  1.000000 )  
               b(2) = (  1.000000  1.000000  1.000000 )  
               b(3) = ( -1.000000  1.000000 -1.000000 )  


     PseudoPot. # 1 for Ge read from file:
     ../../pseudo/Ge.pz-hgh.UPF
     MD5 check sum: 4f4dbf79373ba026d545ed2bc1c74a27
     Pseudo is Norm-conserving, Zval =  4.0
     Generated in analytical, separable form
     Using radial grid of 1207 points,  6 beta functions with: 
                l(1) =   0
                l(2) =   0
                l(3) =   0
                l(4) =   1
                l(5) =   1
                l(6) =   2

     atomic species   valence    mass     pseudopotential
        Ge             4.00    72.63000     Ge( 1.00)

     48 Sym. Ops., with inversion, found (24 have fractional translation)



   Cartesian axes

     site n.     atom                  positions (alat units)
         1           Ge  tau(   1) = (   0.0000000   0.0000000   0.0000000  )
         2           Ge  tau(   2) = (   0.2500000   0.2500000   0.2500000  )

     number of k points=    60
                       cart. coord. in units 2pi/alat
        k(    1) = (  -0.0625000   0.0625000   0.0625000), wk =   0.0078125
        k(    2) = (  -0.1875000   0.1875000  -0.0625000), wk =   0.0234375
        k(    3) = (  -0.3125000   0.3125000  -0.1875000), wk =   0.0234375
        k(    4) = (  -0.4375000   0.4375000  -0.3125000), wk =   0.0234375
        k(    5) = (   0.4375000  -0.4375000   0.5625000), wk =   0.0234375
        k(    6) = (   0.3125000  -0.3125000   0.4375000), wk =   0.0234375
        k(    7) = (   0.1875000  -0.1875000   0.3125000), wk =   0.0234375
        k(    8) = (   0.0625000  -0.0625000   0.1875000), wk =   0.0234375
        k(    9) = (  -0.0625000   0.3125000   0.0625000), wk =   0.0234375
        k(   10) = (  -0.1875000   0.4375000  -0.0625000), wk =   0.0468750
        k(   11) = (  -0.3125000   0.5625000  -0.1875000), wk =   0.0468750
        k(   12) = (   0.5625000  -0.3125000   0.6875000), wk =   0.0468750
        k(   13) = (   0.4375000  -0.1875000   0.5625000), wk =   0.0468750
        k(   14) = (   0.3125000  -0.0625000   0.4375000), wk =   0.0468750
        k(   15) = (   0.1875000   0.0625000   0.3125000), wk =   0.0468750
        k(   16) = (  -0.0625000   0.5625000   0.0625000), wk =   0.0234375
        k(   17) = (  -0.1875000   0.6875000  -0.0625000), wk =   0.0468750
        k(   18) = (   0.6875000  -0.1875000   0.8125000), wk =   0.0468750
        k(   19) = (   0.5625000  -0.0625000   0.6875000), wk =   0.0468750
        k(   20) = (   0.4375000   0.0625000   0.5625000), wk =   0.0468750
        k(   21) = (   0.3125000   0.1875000   0.4375000), wk =   0.0468750
        k(   22) = (  -0.0625000   0.8125000   0.0625000), wk =   0.0234375
        k(   23) = (   0.8125000  -0.0625000   0.9375000), wk =   0.0468750
        k(   24) = (   0.6875000   0.0625000   0.8125000), wk =   0.0468750
        k(   25) = (   0.5625000   0.1875000   0.6875000), wk =   0.0468750
        k(   26) = (   0.4375000   0.3125000   0.5625000), wk =   0.0468750
        k(   27) = (  -0.0625000  -0.9375000   0.0625000), wk =   0.0234375
        k(   28) = (  -0.1875000  -0.8125000  -0.0625000), wk =   0.0468750
        k(   29) = (  -0.3125000  -0.6875000  -0.1875000), wk =   0.0468750
        k(   30) = (  -0.0625000  -0.6875000   0.0625000), wk =   0.0234375
        k(   31) = (  -0.1875000  -0.5625000  -0.0625000), wk =   0.0468750
        k(   32) = (  -0.0625000  -0.4375000   0.0625000), wk =   0.0234375
        k(   33) = (  -0.1875000   0.1875000   0.1875000), wk =   0.0078125
        k(   34) = (  -0.3125000   0.3125000   0.0625000), wk =   0.0234375
        k(   35) = (  -0.4375000   0.4375000  -0.0625000), wk =   0.0234375
        k(   36) = (   0.4375000  -0.4375000   0.8125000), wk =   0.0234375
        k(   37) = (   0.3125000  -0.3125000   0.6875000), wk =   0.0234375
        k(   38) = (   0.1875000  -0.1875000   0.5625000), wk =   0.0234375
        k(   39) = (  -0.1875000   0.4375000   0.1875000), wk =   0.0234375
        k(   40) = (  -0.3125000   0.5625000   0.0625000), wk =   0.0468750
        k(   41) = (   0.5625000  -0.3125000   0.9375000), wk =   0.0468750
        k(   42) = (   0.4375000  -0.1875000   0.8125000), wk =   0.0468750
        k(   43) = (   0.3125000  -0.0625000   0.6875000), wk =   0.0468750
        k(   44) = (  -0.1875000   0.6875000   0.1875000), wk =   0.0234375
        k(   45) = (   0.6875000  -0.1875000   1.0625000), wk =   0.0468750
        k(   46) = (   0.5625000  -0.0625000   0.9375000), wk =   0.0468750
        k(   47) = (   0.4375000   0.0625000   0.8125000), wk =   0.0468750
        k(   48) = (  -0.1875000  -1.0625000   0.1875000), wk =   0.0234375
        k(   49) = (  -0.3125000  -0.9375000   0.0625000), wk =   0.0468750
        k(   50) = (  -0.1875000  -0.8125000   0.1875000), wk =   0.0234375
        k(   51) = (  -0.3125000   0.3125000   0.3125000), wk =   0.0078125
        k(   52) = (  -0.4375000   0.4375000   0.1875000), wk =   0.0234375
        k(   53) = (   0.4375000  -0.4375000   1.0625000), wk =   0.0234375
        k(   54) = (   0.3125000  -0.3125000   0.9375000), wk =   0.0234375
        k(   55) = (  -0.3125000   0.5625000   0.3125000), wk =   0.0234375
        k(   56) = (   0.5625000  -0.3125000   1.1875000), wk =   0.0468750
        k(   57) = (   0.4375000  -0.1875000   1.0625000), wk =   0.0468750
        k(   58) = (  -0.3125000  -1.1875000   0.3125000), wk =   0.0234375
        k(   59) = (  -0.4375000   0.4375000   0.4375000), wk =   0.0078125
        k(   60) = (   0.4375000  -0.4375000   1.3125000), wk =   0.0234375

     Dense  grid:    41391 G-vectors     FFT dimensions: (  60,  60,  60)

     Estimated max dynamical RAM per process >      57.96 MB

     Initial potential from superposition of free atoms

     starting charge       6.0000, renormalised to       8.0000
     Starting wfcs are   18 randomized atomic wfcs

     total cpu time spent up to now is        9.6 secs

     Self-consistent Calculation

     iteration #  1     ecut=   100.00 Ry     beta= 0.70
     Davidson diagonalization with overlap
     ethr =  1.00E-02,  avg # of iterations =  1.0

     Threshold (ethr) on eigenvalues was too large:
     Diagonalizing with lowered threshold

     Davidson diagonalization with overlap
     ethr =  9.36E-04,  avg # of iterations =  1.0

     total cpu time spent up to now is       17.6 secs

     total energy              =     -15.98640419 Ry
     estimated scf accuracy    <       0.07564330 Ry

     iteration #  2     ecut=   100.00 Ry     beta= 0.70
     Davidson diagonalization with overlap
     ethr =  9.46E-04,  avg # of iterations =  1.0

     total cpu time spent up to now is       22.4 secs

     total energy              =     -15.98969222 Ry
     estimated scf accuracy    <       0.00343838 Ry

     iteration #  3     ecut=   100.00 Ry     beta= 0.70
     Davidson diagonalization with overlap
     ethr =  4.30E-05,  avg # of iterations =  2.1

     total cpu time spent up to now is       27.5 secs

     total energy              =     -15.99004740 Ry
     estimated scf accuracy    <       0.00010030 Ry

     iteration #  4     ecut=   100.00 Ry     beta= 0.70
     Davidson diagonalization with overlap
     ethr =  1.25E-06,  avg # of iterations =  3.2

     total cpu time spent up to now is       34.4 secs

     total energy              =     -15.99008144 Ry
     estimated scf accuracy    <       0.00000052 Ry

     iteration #  5     ecut=   100.00 Ry     beta= 0.70
     Davidson diagonalization with overlap
     ethr =  6.50E-09,  avg # of iterations =  6.0

     total cpu time spent up to now is       43.9 secs

     total energy              =     -15.99008352 Ry
     estimated scf accuracy    <       0.00000008 Ry

     iteration #  6     ecut=   100.00 Ry     beta= 0.70
     Davidson diagonalization with overlap
     ethr =  1.04E-09,  avg # of iterations =  2.4

     total cpu time spent up to now is       50.0 secs

     total energy              =     -15.99008353 Ry
     estimated scf accuracy    <       0.00000006 Ry

     iteration #  7     ecut=   100.00 Ry     beta= 0.70
     Davidson diagonalization with overlap
     ethr =  8.10E-10,  avg # of iterations =  1.6

     total cpu time spent up to now is       54.8 secs

     End of self-consistent calculation

          k =-0.0625 0.0625 0.0625 (  5095 PWs)   bands (ev):

    -7.2759   4.2353   5.3170   5.3170

          k =-0.1875 0.1875-0.0625 (  5124 PWs)   bands (ev):

    -7.0270   2.4918   4.4128   5.1581

          k =-0.3125 0.3125-0.1875 (  5175 PWs)   bands (ev):

    -6.4305   0.2905   3.8138   4.6257

          k =-0.4375 0.4375-0.3125 (  5182 PWs)   bands (ev):

    -5.6230  -1.5122   3.5296   4.1705

          k = 0.4375-0.4375 0.5625 (  5173 PWs)   bands (ev):

    -5.2483  -2.1420   3.5494   3.9415

          k = 0.3125-0.3125 0.4375 (  5164 PWs)   bands (ev):

    -5.8941  -0.9894   3.8501   3.9877

          k = 0.1875-0.1875 0.3125 (  5166 PWs)   bands (ev):

    -6.6633   1.0062   4.3149   4.3772

          k = 0.0625-0.0625 0.1875 (  5121 PWs)   bands (ev):

    -7.1506   3.2566   4.8562   4.9356

          k =-0.0625 0.3125 0.0625 (  5150 PWs)   bands (ev):

    -6.9012   2.1790   4.2572   4.2583

          k =-0.1875 0.4375-0.0625 (  5165 PWs)   bands (ev):

    -6.4149   0.6628   3.1984   3.9868

          k =-0.3125 0.5625-0.1875 (  5165 PWs)   bands (ev):

    -5.6452  -1.0705   2.5675   3.5847

          k = 0.5625-0.3125 0.6875 (  5181 PWs)   bands (ev):

    -4.9918  -2.1534   2.2356   3.4979

          k = 0.4375-0.1875 0.5625 (  5176 PWs)   bands (ev):

    -5.3790  -1.5432   2.2109   3.7789

          k = 0.3125-0.0625 0.4375 (  5171 PWs)   bands (ev):

    -6.1884   0.0548   2.6301   4.2979

          k = 0.1875 0.0625 0.3125 (  5159 PWs)   bands (ev):

    -6.7808   1.5875   3.7943   4.6847

          k =-0.0625 0.5625 0.0625 (  5156 PWs)   bands (ev):

    -6.0392   0.0140   3.0671   3.1998

          k =-0.1875 0.6875-0.0625 (  5168 PWs)   bands (ev):

    -5.3434  -1.2002   2.2784   2.8456

          k = 0.6875-0.1875 0.8125 (  5176 PWs)   bands (ev):

    -4.5439  -2.3000   1.4554   2.8078

          k = 0.5625-0.0625 0.6875 (  5180 PWs)   bands (ev):

    -4.6221  -2.1992   1.1392   3.1505

          k = 0.4375 0.0625 0.5625 (  5180 PWs)   bands (ev):

    -5.4271  -1.2218   1.6852   3.7397

          k = 0.3125 0.1875 0.4375 (  5160 PWs)   bands (ev):

    -6.0880  -0.4108   3.2070   4.1801

          k =-0.0625 0.8125 0.0625 (  5177 PWs)   bands (ev):

    -4.7248  -2.0593   2.3666   2.5646

          k = 0.8125-0.0625 0.9375 (  5174 PWs)   bands (ev):

    -3.8831  -3.0148   1.8514   2.3385

          k = 0.6875 0.0625 0.8125 (  5173 PWs)   bands (ev):

    -4.0264  -2.8189   1.1827   2.6579

          k = 0.5625 0.1875 0.6875 (  5172 PWs)   bands (ev):

    -4.7482  -2.2258   1.5613   3.2661

          k = 0.4375 0.3125 0.5625 (  5173 PWs)   bands (ev):

    -5.3052  -1.9128   2.9549   3.8446

          k =-0.0625-0.9375 0.0625 (  5173 PWs)   bands (ev):

    -3.9176  -3.0224   2.2244   2.4346

          k =-0.1875-0.8125-0.0625 (  5182 PWs)   bands (ev):

    -4.6541  -2.1238   1.9963   2.5072

          k =-0.3125-0.6875-0.1875 (  5175 PWs)   bands (ev):

    -5.1192  -1.6964   1.9495   3.1140

          k =-0.0625-0.6875 0.0625 (  5172 PWs)   bands (ev):

    -5.4353  -1.0415   2.6490   2.8217

          k =-0.1875-0.5625-0.0625 (  5169 PWs)   bands (ev):

    -5.9336  -0.2676   2.6845   3.3480

          k =-0.0625-0.4375 0.0625 (  5162 PWs)   bands (ev):

    -6.5295   1.0919   3.6111   3.6869

          k =-0.1875 0.1875 0.1875 (  5132 PWs)   bands (ev):

    -6.9052   1.8146   4.8115   4.8115

          k =-0.3125 0.3125 0.0625 (  5165 PWs)   bands (ev):

    -6.5420   0.8315   3.1948   4.7970

          k =-0.4375 0.4375-0.0625 (  5169 PWs)   bands (ev):

    -5.8558  -0.5893   2.1027   4.2508

          k = 0.4375-0.4375 0.8125 (  5173 PWs)   bands (ev):

    -5.0646  -1.9414   1.8512   3.6937

          k = 0.3125-0.3125 0.6875 (  5174 PWs)   bands (ev):

    -5.0473  -1.9710   2.1164   3.3723

          k = 0.1875-0.1875 0.5625 (  5168 PWs)   bands (ev):

    -5.8352  -0.5973   2.7631   3.3675

          k =-0.1875 0.4375 0.1875 (  5163 PWs)   bands (ev):

    -6.3046   0.1984   3.5529   3.8110

          k =-0.3125 0.5625 0.0625 (  5174 PWs)   bands (ev):

    -5.7265  -0.7157   2.1627   3.5781

          k = 0.5625-0.3125 0.9375 (  5184 PWs)   bands (ev):

    -4.9181  -1.8351   1.4117   3.0295

          k = 0.4375-0.1875 0.8125 (  5182 PWs)   bands (ev):

    -4.4926  -2.3822   1.3770   2.7307

          k = 0.3125-0.0625 0.6875 (  5177 PWs)   bands (ev):

    -5.1662  -1.4835   1.8188   2.9009

          k =-0.1875 0.6875 0.1875 (  5171 PWs)   bands (ev):

    -5.2647  -1.3933   2.1149   3.0168

          k = 0.6875-0.1875 1.0625 (  5179 PWs)   bands (ev):

    -4.5232  -2.2535   1.6089   2.3812

          k = 0.5625-0.0625 0.9375 (  5166 PWs)   bands (ev):

    -3.7919  -3.0023   1.3422   1.9093

          k = 0.4375 0.0625 0.8125 (  5183 PWs)   bands (ev):

    -4.3534  -2.4355   1.3023   2.3670

          k =-0.1875-1.0625 0.1875 (  5183 PWs)   bands (ev):

    -3.9278  -2.9492   1.4320   2.6534

          k =-0.3125-0.9375 0.0625 (  5176 PWs)   bands (ev):

    -3.8312  -3.0062   1.5224   2.0902

          k =-0.1875-0.8125 0.1875 (  5186 PWs)   bands (ev):

    -4.6105  -2.1931   1.6624   2.7758

          k =-0.3125 0.3125 0.3125 (  5168 PWs)   bands (ev):

    -6.2115  -0.3694   4.3326   4.3326

          k =-0.4375 0.4375 0.1875 (  5174 PWs)   bands (ev):

    -5.7739  -1.0080   2.7049   4.2274

          k = 0.4375-0.4375 1.0625 (  5184 PWs)   bands (ev):

    -5.0510  -1.7247   1.3294   3.6318

          k = 0.3125-0.3125 0.9375 (  5180 PWs)   bands (ev):

    -4.3109  -2.5362   1.0526   3.0693

          k =-0.3125 0.5625 0.3125 (  5172 PWs)   bands (ev):

    -5.4953  -1.5268   2.9672   3.6531

          k = 0.5625-0.3125 1.1875 (  5180 PWs)   bands (ev):

    -4.9330  -2.0029   1.7579   3.1926

          k = 0.4375-0.1875 1.0625 (  5174 PWs)   bands (ev):

    -4.1762  -2.6374   1.1441   2.4928

          k =-0.3125-1.1875 0.3125 (  5179 PWs)   bands (ev):

    -4.6119  -2.3183   1.4379   3.1726

          k =-0.4375 0.4375 0.4375 (  5174 PWs)   bands (ev):

    -5.4321  -1.9197   4.0722   4.0722

          k = 0.4375-0.4375 1.3125 (  5177 PWs)   bands (ev):

    -5.1210  -2.1362   2.6626   3.8049

     highest occupied level (ev):     5.3170

!    total energy              =     -15.99008353 Ry
     estimated scf accuracy    <          3.6E-10 Ry

     The total energy is the sum of the following terms:
     one-electron contribution =       3.62191800 Ry
     hartree contribution      =       1.16892834 Ry
     xc contribution           =      -4.67087965 Ry
     ewald contribution        =     -16.11005023 Ry

     convergence has been achieved in   7 iterations

     Writing all to output data dir ./tmp_e100/Ge.save/

     init_run     :      9.32s CPU      9.52s WALL (       1 calls)
     electrons    :     44.82s CPU     45.28s WALL (       1 calls)

     Called by init_run:
     wfcinit      :      8.65s CPU      8.83s WALL (       1 calls)
     potinit      :      0.03s CPU      0.04s WALL (       1 calls)
     hinit0       :      0.57s CPU      0.57s WALL (       1 calls)

     Called by electrons:
     c_bands      :     38.08s CPU     38.43s WALL (       8 calls)
     sum_band     :      6.53s CPU      6.63s WALL (       8 calls)
     v_of_rho     :      0.14s CPU      0.15s WALL (       8 calls)
     mix_rho      :      0.06s CPU      0.07s WALL (       8 calls)

     Called by c_bands:
     init_us_2    :      1.92s CPU      1.95s WALL (    1020 calls)
     init_us_2:cp :      1.91s CPU      1.94s WALL (    1020 calls)
     cegterg      :     35.04s CPU     35.34s WALL (     480 calls)

     Called by *egterg:
     cdiaghg      :      0.09s CPU      0.09s WALL (    1519 calls)
     h_psi        :     40.03s CPU     40.48s WALL (    1639 calls)
     g_psi        :      0.13s CPU      0.13s WALL (    1099 calls)

     Called by h_psi:
     h_psi:calbec :      2.83s CPU      2.86s WALL (    1639 calls)
     vloc_psi     :     34.41s CPU     34.80s WALL (    1639 calls)
     add_vuspsi   :      2.67s CPU      2.70s WALL (    1639 calls)

     General routines
     calbec       :      2.82s CPU      2.85s WALL (    1639 calls)
     fft          :      0.47s CPU      0.48s WALL (      24 calls)
     ffts         :      0.02s CPU      0.02s WALL (       8 calls)
     fftw         :     31.91s CPU     32.31s WALL (   14688 calls)

     Parallel routines

     PWSCF        :     54.20s CPU     54.92s WALL


   This run was terminated on:  22:52:58  25Mar2026            

=------------------------------------------------------------------------------=
   JOB DONE.
=------------------------------------------------------------------------------=
Note: The following floating-point exceptions are signalling: IEEE_UNDERFLOW_FLAG
