
     Program PWSCF v.7.2 starts on 25Mar2026 at 22: 2: 1 

     This program is part of the open-source Quantum ESPRESSO suite
     for quantum simulation of materials; please cite
         "P. Giannozzi et al., J. Phys.:Condens. Matter 21 395502 (2009);
         "P. Giannozzi et al., J. Phys.:Condens. Matter 29 465901 (2017);
         "P. Giannozzi et al., J. Chem. Phys. 152 154105 (2020);
          URL http://www.quantum-espresso.org", 
     in publications or presentations arising from this work. More details at
     http://www.quantum-espresso.org/quote

     Parallel version (MPI), running on     1 processors

     MPI processes distributed on     1 nodes
     4381 MiB available memory on the printing compute node when the environment starts

     Reading input from scf_e020.in

     Current dimensions of program PWSCF are:
     Max number of different atomic species (ntypx) = 10
     Max number of k-points (npk) =  40000
     Max angular momentum in pseudopotentials (lmaxx) =  4

     Subspace diagonalization in iterative solution of the eigenvalue problem:
     a serial algorithm will be used


     G-vector sticks info
     --------------------
     sticks:   dense  smooth     PW     G-vecs:    dense   smooth      PW
     Sum         313     313    109                 3719     3719     749

     Using Slab Decomposition



     bravais-lattice index     =            2
     lattice parameter (alat)  =      10.7000  a.u.
     unit-cell volume          =     306.2607 (a.u.)^3
     number of atoms/cell      =            2
     number of atomic types    =            1
     number of electrons       =         8.00
     number of Kohn-Sham states=            4
     kinetic-energy cutoff     =      20.0000  Ry
     charge density cutoff     =      80.0000  Ry
     scf convergence threshold =      1.0E-08
     mixing beta               =       0.7000
     number of iterations used =            8  plain     mixing
     Exchange-correlation= SLA-PZ-NOGX-NOGC
                           (   1   1   0   0   0   0   0)

     celldm(1)=  10.700000  celldm(2)=   0.000000  celldm(3)=   0.000000
     celldm(4)=   0.000000  celldm(5)=   0.000000  celldm(6)=   0.000000

     crystal axes: (cart. coord. in units of alat)
               a(1) = (  -0.500000   0.000000   0.500000 )  
               a(2) = (   0.000000   0.500000   0.500000 )  
               a(3) = (  -0.500000   0.500000   0.000000 )  

     reciprocal axes: (cart. coord. in units 2 pi/alat)
               b(1) = ( -1.000000 -1.000000  1.000000 )  
               b(2) = (  1.000000  1.000000  1.000000 )  
               b(3) = ( -1.000000  1.000000 -1.000000 )  


     PseudoPot. # 1 for Ge read from file:
     ../../pseudo/Ge.pz-hgh.UPF
     MD5 check sum: 4f4dbf79373ba026d545ed2bc1c74a27
     Pseudo is Norm-conserving, Zval =  4.0
     Generated in analytical, separable form
     Using radial grid of 1207 points,  6 beta functions with: 
                l(1) =   0
                l(2) =   0
                l(3) =   0
                l(4) =   1
                l(5) =   1
                l(6) =   2

     atomic species   valence    mass     pseudopotential
        Ge             4.00    72.63000     Ge( 1.00)

     48 Sym. Ops., with inversion, found (24 have fractional translation)



   Cartesian axes

     site n.     atom                  positions (alat units)
         1           Ge  tau(   1) = (   0.0000000   0.0000000   0.0000000  )
         2           Ge  tau(   2) = (   0.2500000   0.2500000   0.2500000  )

     number of k points=    60
                       cart. coord. in units 2pi/alat
        k(    1) = (  -0.0625000   0.0625000   0.0625000), wk =   0.0078125
        k(    2) = (  -0.1875000   0.1875000  -0.0625000), wk =   0.0234375
        k(    3) = (  -0.3125000   0.3125000  -0.1875000), wk =   0.0234375
        k(    4) = (  -0.4375000   0.4375000  -0.3125000), wk =   0.0234375
        k(    5) = (   0.4375000  -0.4375000   0.5625000), wk =   0.0234375
        k(    6) = (   0.3125000  -0.3125000   0.4375000), wk =   0.0234375
        k(    7) = (   0.1875000  -0.1875000   0.3125000), wk =   0.0234375
        k(    8) = (   0.0625000  -0.0625000   0.1875000), wk =   0.0234375
        k(    9) = (  -0.0625000   0.3125000   0.0625000), wk =   0.0234375
        k(   10) = (  -0.1875000   0.4375000  -0.0625000), wk =   0.0468750
        k(   11) = (  -0.3125000   0.5625000  -0.1875000), wk =   0.0468750
        k(   12) = (   0.5625000  -0.3125000   0.6875000), wk =   0.0468750
        k(   13) = (   0.4375000  -0.1875000   0.5625000), wk =   0.0468750
        k(   14) = (   0.3125000  -0.0625000   0.4375000), wk =   0.0468750
        k(   15) = (   0.1875000   0.0625000   0.3125000), wk =   0.0468750
        k(   16) = (  -0.0625000   0.5625000   0.0625000), wk =   0.0234375
        k(   17) = (  -0.1875000   0.6875000  -0.0625000), wk =   0.0468750
        k(   18) = (   0.6875000  -0.1875000   0.8125000), wk =   0.0468750
        k(   19) = (   0.5625000  -0.0625000   0.6875000), wk =   0.0468750
        k(   20) = (   0.4375000   0.0625000   0.5625000), wk =   0.0468750
        k(   21) = (   0.3125000   0.1875000   0.4375000), wk =   0.0468750
        k(   22) = (  -0.0625000   0.8125000   0.0625000), wk =   0.0234375
        k(   23) = (   0.8125000  -0.0625000   0.9375000), wk =   0.0468750
        k(   24) = (   0.6875000   0.0625000   0.8125000), wk =   0.0468750
        k(   25) = (   0.5625000   0.1875000   0.6875000), wk =   0.0468750
        k(   26) = (   0.4375000   0.3125000   0.5625000), wk =   0.0468750
        k(   27) = (  -0.0625000  -0.9375000   0.0625000), wk =   0.0234375
        k(   28) = (  -0.1875000  -0.8125000  -0.0625000), wk =   0.0468750
        k(   29) = (  -0.3125000  -0.6875000  -0.1875000), wk =   0.0468750
        k(   30) = (  -0.0625000  -0.6875000   0.0625000), wk =   0.0234375
        k(   31) = (  -0.1875000  -0.5625000  -0.0625000), wk =   0.0468750
        k(   32) = (  -0.0625000  -0.4375000   0.0625000), wk =   0.0234375
        k(   33) = (  -0.1875000   0.1875000   0.1875000), wk =   0.0078125
        k(   34) = (  -0.3125000   0.3125000   0.0625000), wk =   0.0234375
        k(   35) = (  -0.4375000   0.4375000  -0.0625000), wk =   0.0234375
        k(   36) = (   0.4375000  -0.4375000   0.8125000), wk =   0.0234375
        k(   37) = (   0.3125000  -0.3125000   0.6875000), wk =   0.0234375
        k(   38) = (   0.1875000  -0.1875000   0.5625000), wk =   0.0234375
        k(   39) = (  -0.1875000   0.4375000   0.1875000), wk =   0.0234375
        k(   40) = (  -0.3125000   0.5625000   0.0625000), wk =   0.0468750
        k(   41) = (   0.5625000  -0.3125000   0.9375000), wk =   0.0468750
        k(   42) = (   0.4375000  -0.1875000   0.8125000), wk =   0.0468750
        k(   43) = (   0.3125000  -0.0625000   0.6875000), wk =   0.0468750
        k(   44) = (  -0.1875000   0.6875000   0.1875000), wk =   0.0234375
        k(   45) = (   0.6875000  -0.1875000   1.0625000), wk =   0.0468750
        k(   46) = (   0.5625000  -0.0625000   0.9375000), wk =   0.0468750
        k(   47) = (   0.4375000   0.0625000   0.8125000), wk =   0.0468750
        k(   48) = (  -0.1875000  -1.0625000   0.1875000), wk =   0.0234375
        k(   49) = (  -0.3125000  -0.9375000   0.0625000), wk =   0.0468750
        k(   50) = (  -0.1875000  -0.8125000   0.1875000), wk =   0.0234375
        k(   51) = (  -0.3125000   0.3125000   0.3125000), wk =   0.0078125
        k(   52) = (  -0.4375000   0.4375000   0.1875000), wk =   0.0234375
        k(   53) = (   0.4375000  -0.4375000   1.0625000), wk =   0.0234375
        k(   54) = (   0.3125000  -0.3125000   0.9375000), wk =   0.0234375
        k(   55) = (  -0.3125000   0.5625000   0.3125000), wk =   0.0234375
        k(   56) = (   0.5625000  -0.3125000   1.1875000), wk =   0.0468750
        k(   57) = (   0.4375000  -0.1875000   1.0625000), wk =   0.0468750
        k(   58) = (  -0.3125000  -1.1875000   0.3125000), wk =   0.0234375
        k(   59) = (  -0.4375000   0.4375000   0.4375000), wk =   0.0078125
        k(   60) = (   0.4375000  -0.4375000   1.3125000), wk =   0.0234375

     Dense  grid:     3719 G-vectors     FFT dimensions: (  24,  24,  24)

     Estimated max dynamical RAM per process >       5.40 MB

     Initial potential from superposition of free atoms

     starting charge       6.0000, renormalised to       8.0000
     Starting wfcs are   18 randomized atomic wfcs

     total cpu time spent up to now is        0.8 secs

     Self-consistent Calculation

     iteration #  1     ecut=    20.00 Ry     beta= 0.70
     Davidson diagonalization with overlap
     ethr =  1.00E-02,  avg # of iterations =  1.0

     Threshold (ethr) on eigenvalues was too large:
     Diagonalizing with lowered threshold

     Davidson diagonalization with overlap
     ethr =  9.66E-04,  avg # of iterations =  1.0

     total cpu time spent up to now is        1.2 secs

     total energy              =     -15.96952191 Ry
     estimated scf accuracy    <       0.07791711 Ry

     iteration #  2     ecut=    20.00 Ry     beta= 0.70
     Davidson diagonalization with overlap
     ethr =  9.74E-04,  avg # of iterations =  1.0

     total cpu time spent up to now is        1.4 secs

     total energy              =     -15.97297452 Ry
     estimated scf accuracy    <       0.00347468 Ry

     iteration #  3     ecut=    20.00 Ry     beta= 0.70
     Davidson diagonalization with overlap
     ethr =  4.34E-05,  avg # of iterations =  2.1

     total cpu time spent up to now is        1.6 secs

     total energy              =     -15.97335242 Ry
     estimated scf accuracy    <       0.00010709 Ry

     iteration #  4     ecut=    20.00 Ry     beta= 0.70
     Davidson diagonalization with overlap
     ethr =  1.34E-06,  avg # of iterations =  3.0

     total cpu time spent up to now is        1.9 secs

     total energy              =     -15.97338371 Ry
     estimated scf accuracy    <       0.00000029 Ry

     iteration #  5     ecut=    20.00 Ry     beta= 0.70
     Davidson diagonalization with overlap
     ethr =  3.58E-09,  avg # of iterations =  6.8

     total cpu time spent up to now is        2.4 secs

     total energy              =     -15.97338614 Ry
     estimated scf accuracy    <       0.00000012 Ry

     iteration #  6     ecut=    20.00 Ry     beta= 0.70
     Davidson diagonalization with overlap
     ethr =  1.48E-09,  avg # of iterations =  2.0

     total cpu time spent up to now is        2.7 secs

     total energy              =     -15.97338611 Ry
     estimated scf accuracy    <       0.00000017 Ry

     iteration #  7     ecut=    20.00 Ry     beta= 0.70
     Davidson diagonalization with overlap
     ethr =  1.48E-09,  avg # of iterations =  2.0

     total cpu time spent up to now is        2.9 secs

     End of self-consistent calculation

          k =-0.0625 0.0625 0.0625 (   474 PWs)   bands (ev):

    -7.2655   4.2596   5.3506   5.3506

          k =-0.1875 0.1875-0.0625 (   475 PWs)   bands (ev):

    -7.0148   2.5124   4.4405   5.1874

          k =-0.3125 0.3125-0.1875 (   471 PWs)   bands (ev):

    -6.4182   0.3119   3.8393   4.6542

          k =-0.4375 0.4375-0.3125 (   467 PWs)   bands (ev):

    -5.6098  -1.4926   3.5558   4.1993

          k = 0.4375-0.4375 0.5625 (   464 PWs)   bands (ev):

    -5.2347  -2.1217   3.5760   3.9706

          k = 0.3125-0.3125 0.4375 (   465 PWs)   bands (ev):

    -5.8813  -0.9677   3.8771   4.0158

          k = 0.1875-0.1875 0.3125 (   471 PWs)   bands (ev):

    -6.6505   1.0274   4.3427   4.4041

          k = 0.0625-0.0625 0.1875 (   470 PWs)   bands (ev):

    -7.1377   3.2779   4.8869   4.9658

          k =-0.0625 0.3125 0.0625 (   472 PWs)   bands (ev):

    -6.8881   2.1994   4.2844   4.2847

          k =-0.1875 0.4375-0.0625 (   471 PWs)   bands (ev):

    -6.4021   0.6843   3.2224   4.0143

          k =-0.3125 0.5625-0.1875 (   460 PWs)   bands (ev):

    -5.6307  -1.0488   2.5920   3.6128

          k = 0.5625-0.3125 0.6875 (   459 PWs)   bands (ev):

    -4.9771  -2.1333   2.2613   3.5260

          k = 0.4375-0.1875 0.5625 (   457 PWs)   bands (ev):

    -5.3635  -1.5224   2.2356   3.8083

          k = 0.3125-0.0625 0.4375 (   467 PWs)   bands (ev):

    -6.1752   0.0766   2.6528   4.3259

          k = 0.1875 0.0625 0.3125 (   470 PWs)   bands (ev):

    -6.7676   1.6088   3.8197   4.7138

          k =-0.0625 0.5625 0.0625 (   462 PWs)   bands (ev):

    -6.0247   0.0361   3.0923   3.2267

          k =-0.1875 0.6875-0.0625 (   461 PWs)   bands (ev):

    -5.3287  -1.1812   2.3024   2.8719

          k = 0.6875-0.1875 0.8125 (   460 PWs)   bands (ev):

    -4.5281  -2.2824   1.4790   2.8342

          k = 0.5625-0.0625 0.6875 (   458 PWs)   bands (ev):

    -4.6057  -2.1806   1.1619   3.1787

          k = 0.4375 0.0625 0.5625 (   464 PWs)   bands (ev):

    -5.4128  -1.2014   1.7071   3.7679

          k = 0.3125 0.1875 0.4375 (   464 PWs)   bands (ev):

    -6.0743  -0.3891   3.2328   4.2078

          k =-0.0625 0.8125 0.0625 (   457 PWs)   bands (ev):

    -4.7088  -2.0428   2.3927   2.5920

          k = 0.8125-0.0625 0.9375 (   460 PWs)   bands (ev):

    -3.8674  -2.9985   1.8757   2.3645

          k = 0.6875 0.0625 0.8125 (   460 PWs)   bands (ev):

    -4.0104  -2.8019   1.2058   2.6842

          k = 0.5625 0.1875 0.6875 (   463 PWs)   bands (ev):

    -4.7341  -2.2070   1.5843   3.2940

          k = 0.4375 0.3125 0.5625 (   462 PWs)   bands (ev):

    -5.2907  -1.8926   2.9805   3.8735

          k =-0.0625-0.9375 0.0625 (   462 PWs)   bands (ev):

    -3.9021  -3.0068   2.2500   2.4609

          k =-0.1875-0.8125-0.0625 (   462 PWs)   bands (ev):

    -4.6392  -2.1081   2.0201   2.5330

          k =-0.3125-0.6875-0.1875 (   461 PWs)   bands (ev):

    -5.1041  -1.6771   1.9730   3.1412

          k =-0.0625-0.6875 0.0625 (   463 PWs)   bands (ev):

    -5.4204  -1.0244   2.6740   2.8487

          k =-0.1875-0.5625-0.0625 (   461 PWs)   bands (ev):

    -5.9191  -0.2454   2.7085   3.3752

          k =-0.0625-0.4375 0.0625 (   472 PWs)   bands (ev):

    -6.5162   1.1127   3.6361   3.7130

          k =-0.1875 0.1875 0.1875 (   483 PWs)   bands (ev):

    -6.8942   1.8337   4.8385   4.8385

          k =-0.3125 0.3125 0.0625 (   469 PWs)   bands (ev):

    -6.5289   0.8528   3.2182   4.8260

          k =-0.4375 0.4375-0.0625 (   461 PWs)   bands (ev):

    -5.8416  -0.5667   2.1255   4.2807

          k = 0.4375-0.4375 0.8125 (   457 PWs)   bands (ev):

    -5.0489  -1.9219   1.8752   3.7240

          k = 0.3125-0.3125 0.6875 (   456 PWs)   bands (ev):

    -5.0318  -1.9513   2.1416   3.4011

          k = 0.1875-0.1875 0.5625 (   460 PWs)   bands (ev):

    -5.8209  -0.5748   2.7875   3.3953

          k =-0.1875 0.4375 0.1875 (   464 PWs)   bands (ev):

    -6.2909   0.2204   3.5775   3.8392

          k =-0.3125 0.5625 0.0625 (   462 PWs)   bands (ev):

    -5.7124  -0.6933   2.1852   3.6055

          k = 0.5625-0.3125 0.9375 (   464 PWs)   bands (ev):

    -4.9030  -1.8170   1.4342   3.0550

          k = 0.4375-0.1875 0.8125 (   462 PWs)   bands (ev):

    -4.4775  -2.3642   1.3995   2.7574

          k = 0.3125-0.0625 0.6875 (   461 PWs)   bands (ev):

    -5.1516  -1.4647   1.8419   2.9269

          k =-0.1875 0.6875 0.1875 (   461 PWs)   bands (ev):

    -5.2499  -1.3742   2.1389   3.0438

          k = 0.6875-0.1875 1.0625 (   461 PWs)   bands (ev):

    -4.5083  -2.2363   1.6326   2.4059

          k = 0.5625-0.0625 0.9375 (   461 PWs)   bands (ev):

    -3.7761  -2.9859   1.3652   1.9332

          k = 0.4375 0.0625 0.8125 (   462 PWs)   bands (ev):

    -4.3378  -2.4184   1.3251   2.3919

          k =-0.1875-1.0625 0.1875 (   464 PWs)   bands (ev):

    -3.9126  -2.9338   1.4543   2.6801

          k =-0.3125-0.9375 0.0625 (   462 PWs)   bands (ev):

    -3.8155  -2.9898   1.5456   2.1152

          k =-0.1875-0.8125 0.1875 (   462 PWs)   bands (ev):

    -4.5951  -2.1756   1.6851   2.8025

          k =-0.3125 0.3125 0.3125 (   468 PWs)   bands (ev):

    -6.1989  -0.3490   4.3613   4.3613

          k =-0.4375 0.4375 0.1875 (   457 PWs)   bands (ev):

    -5.7591  -0.9854   2.7309   4.2580

          k = 0.4375-0.4375 1.0625 (   458 PWs)   bands (ev):

    -5.0345  -1.7059   1.3517   3.6621

          k = 0.3125-0.3125 0.9375 (   457 PWs)   bands (ev):

    -4.2945  -2.5187   1.0761   3.0970

          k =-0.3125 0.5625 0.3125 (   460 PWs)   bands (ev):

    -5.4802  -1.5062   2.9937   3.6807

          k = 0.5625-0.3125 1.1875 (   459 PWs)   bands (ev):

    -4.9181  -1.9832   1.7822   3.2201

          k = 0.4375-0.1875 1.0625 (   461 PWs)   bands (ev):

    -4.1608  -2.6198   1.1669   2.5189

          k =-0.3125-1.1875 0.3125 (   458 PWs)   bands (ev):

    -4.5960  -2.3001   1.4617   3.2011

          k =-0.4375 0.4375 0.4375 (   470 PWs)   bands (ev):

    -5.4198  -1.9001   4.1003   4.1003

          k = 0.4375-0.4375 1.3125 (   459 PWs)   bands (ev):

    -5.1062  -2.1155   2.6883   3.8340

     highest occupied level (ev):     5.3506

!    total energy              =     -15.97338613 Ry
     estimated scf accuracy    <          7.7E-10 Ry

     The total energy is the sum of the following terms:
     one-electron contribution =       3.64109962 Ry
     hartree contribution      =       1.16406769 Ry
     xc contribution           =      -4.66850320 Ry
     ewald contribution        =     -16.11005023 Ry

     convergence has been achieved in   7 iterations

     Writing all to output data dir ./tmp_e20/Ge.save/

     init_run     :      0.75s CPU      0.75s WALL (       1 calls)
     electrons    :      2.06s CPU      2.12s WALL (       1 calls)

     Called by init_run:
     wfcinit      :      0.51s CPU      0.51s WALL (       1 calls)
     potinit      :      0.00s CPU      0.00s WALL (       1 calls)
     hinit0       :      0.24s CPU      0.24s WALL (       1 calls)

     Called by electrons:
     c_bands      :      1.78s CPU      1.84s WALL (       8 calls)
     sum_band     :      0.26s CPU      0.26s WALL (       8 calls)
     v_of_rho     :      0.01s CPU      0.01s WALL (       8 calls)
     mix_rho      :      0.00s CPU      0.00s WALL (       8 calls)

     Called by c_bands:
     init_us_2    :      0.13s CPU      0.13s WALL (    1020 calls)
     init_us_2:cp :      0.13s CPU      0.13s WALL (    1020 calls)
     cegterg      :      1.59s CPU      1.64s WALL (     480 calls)

     Called by *egterg:
     cdiaghg      :      0.05s CPU      0.05s WALL (    1560 calls)
     h_psi        :      1.79s CPU      1.84s WALL (    1680 calls)
     g_psi        :      0.01s CPU      0.01s WALL (    1140 calls)

     Called by h_psi:
     h_psi:calbec :      0.17s CPU      0.17s WALL (    1680 calls)
     vloc_psi     :      1.45s CPU      1.49s WALL (    1680 calls)
     add_vuspsi   :      0.16s CPU      0.16s WALL (    1680 calls)

     General routines
     calbec       :      0.16s CPU      0.17s WALL (    1680 calls)
     fft          :      0.17s CPU      0.17s WALL (      24 calls)
     ffts         :      0.00s CPU      0.00s WALL (       8 calls)
     fftw         :      1.39s CPU      1.42s WALL (   15026 calls)

     Parallel routines

     PWSCF        :      2.84s CPU      2.91s WALL


   This run was terminated on:  22: 2: 4  25Mar2026            

=------------------------------------------------------------------------------=
   JOB DONE.
=------------------------------------------------------------------------------=
Note: The following floating-point exceptions are signalling: IEEE_UNDERFLOW_FLAG
