
     Program PWSCF v.7.2 starts on 25Mar2026 at 22: 2: 9 

     This program is part of the open-source Quantum ESPRESSO suite
     for quantum simulation of materials; please cite
         "P. Giannozzi et al., J. Phys.:Condens. Matter 21 395502 (2009);
         "P. Giannozzi et al., J. Phys.:Condens. Matter 29 465901 (2017);
         "P. Giannozzi et al., J. Chem. Phys. 152 154105 (2020);
          URL http://www.quantum-espresso.org", 
     in publications or presentations arising from this work. More details at
     http://www.quantum-espresso.org/quote

     Parallel version (MPI), running on     1 processors

     MPI processes distributed on     1 nodes
     4380 MiB available memory on the printing compute node when the environment starts

     Reading input from scf_e040.in

     Current dimensions of program PWSCF are:
     Max number of different atomic species (ntypx) = 10
     Max number of k-points (npk) =  40000
     Max angular momentum in pseudopotentials (lmaxx) =  4

     Subspace diagonalization in iterative solution of the eigenvalue problem:
     a serial algorithm will be used


     G-vector sticks info
     --------------------
     sticks:   dense  smooth     PW     G-vecs:    dense   smooth      PW
     Sum         637     637    199                10489    10489    1917

     Using Slab Decomposition



     bravais-lattice index     =            2
     lattice parameter (alat)  =      10.7000  a.u.
     unit-cell volume          =     306.2607 (a.u.)^3
     number of atoms/cell      =            2
     number of atomic types    =            1
     number of electrons       =         8.00
     number of Kohn-Sham states=            4
     kinetic-energy cutoff     =      40.0000  Ry
     charge density cutoff     =     160.0000  Ry
     scf convergence threshold =      1.0E-08
     mixing beta               =       0.7000
     number of iterations used =            8  plain     mixing
     Exchange-correlation= SLA-PZ-NOGX-NOGC
                           (   1   1   0   0   0   0   0)

     celldm(1)=  10.700000  celldm(2)=   0.000000  celldm(3)=   0.000000
     celldm(4)=   0.000000  celldm(5)=   0.000000  celldm(6)=   0.000000

     crystal axes: (cart. coord. in units of alat)
               a(1) = (  -0.500000   0.000000   0.500000 )  
               a(2) = (   0.000000   0.500000   0.500000 )  
               a(3) = (  -0.500000   0.500000   0.000000 )  

     reciprocal axes: (cart. coord. in units 2 pi/alat)
               b(1) = ( -1.000000 -1.000000  1.000000 )  
               b(2) = (  1.000000  1.000000  1.000000 )  
               b(3) = ( -1.000000  1.000000 -1.000000 )  


     PseudoPot. # 1 for Ge read from file:
     ../../pseudo/Ge.pz-hgh.UPF
     MD5 check sum: 4f4dbf79373ba026d545ed2bc1c74a27
     Pseudo is Norm-conserving, Zval =  4.0
     Generated in analytical, separable form
     Using radial grid of 1207 points,  6 beta functions with: 
                l(1) =   0
                l(2) =   0
                l(3) =   0
                l(4) =   1
                l(5) =   1
                l(6) =   2

     atomic species   valence    mass     pseudopotential
        Ge             4.00    72.63000     Ge( 1.00)

     48 Sym. Ops., with inversion, found (24 have fractional translation)



   Cartesian axes

     site n.     atom                  positions (alat units)
         1           Ge  tau(   1) = (   0.0000000   0.0000000   0.0000000  )
         2           Ge  tau(   2) = (   0.2500000   0.2500000   0.2500000  )

     number of k points=    60
                       cart. coord. in units 2pi/alat
        k(    1) = (  -0.0625000   0.0625000   0.0625000), wk =   0.0078125
        k(    2) = (  -0.1875000   0.1875000  -0.0625000), wk =   0.0234375
        k(    3) = (  -0.3125000   0.3125000  -0.1875000), wk =   0.0234375
        k(    4) = (  -0.4375000   0.4375000  -0.3125000), wk =   0.0234375
        k(    5) = (   0.4375000  -0.4375000   0.5625000), wk =   0.0234375
        k(    6) = (   0.3125000  -0.3125000   0.4375000), wk =   0.0234375
        k(    7) = (   0.1875000  -0.1875000   0.3125000), wk =   0.0234375
        k(    8) = (   0.0625000  -0.0625000   0.1875000), wk =   0.0234375
        k(    9) = (  -0.0625000   0.3125000   0.0625000), wk =   0.0234375
        k(   10) = (  -0.1875000   0.4375000  -0.0625000), wk =   0.0468750
        k(   11) = (  -0.3125000   0.5625000  -0.1875000), wk =   0.0468750
        k(   12) = (   0.5625000  -0.3125000   0.6875000), wk =   0.0468750
        k(   13) = (   0.4375000  -0.1875000   0.5625000), wk =   0.0468750
        k(   14) = (   0.3125000  -0.0625000   0.4375000), wk =   0.0468750
        k(   15) = (   0.1875000   0.0625000   0.3125000), wk =   0.0468750
        k(   16) = (  -0.0625000   0.5625000   0.0625000), wk =   0.0234375
        k(   17) = (  -0.1875000   0.6875000  -0.0625000), wk =   0.0468750
        k(   18) = (   0.6875000  -0.1875000   0.8125000), wk =   0.0468750
        k(   19) = (   0.5625000  -0.0625000   0.6875000), wk =   0.0468750
        k(   20) = (   0.4375000   0.0625000   0.5625000), wk =   0.0468750
        k(   21) = (   0.3125000   0.1875000   0.4375000), wk =   0.0468750
        k(   22) = (  -0.0625000   0.8125000   0.0625000), wk =   0.0234375
        k(   23) = (   0.8125000  -0.0625000   0.9375000), wk =   0.0468750
        k(   24) = (   0.6875000   0.0625000   0.8125000), wk =   0.0468750
        k(   25) = (   0.5625000   0.1875000   0.6875000), wk =   0.0468750
        k(   26) = (   0.4375000   0.3125000   0.5625000), wk =   0.0468750
        k(   27) = (  -0.0625000  -0.9375000   0.0625000), wk =   0.0234375
        k(   28) = (  -0.1875000  -0.8125000  -0.0625000), wk =   0.0468750
        k(   29) = (  -0.3125000  -0.6875000  -0.1875000), wk =   0.0468750
        k(   30) = (  -0.0625000  -0.6875000   0.0625000), wk =   0.0234375
        k(   31) = (  -0.1875000  -0.5625000  -0.0625000), wk =   0.0468750
        k(   32) = (  -0.0625000  -0.4375000   0.0625000), wk =   0.0234375
        k(   33) = (  -0.1875000   0.1875000   0.1875000), wk =   0.0078125
        k(   34) = (  -0.3125000   0.3125000   0.0625000), wk =   0.0234375
        k(   35) = (  -0.4375000   0.4375000  -0.0625000), wk =   0.0234375
        k(   36) = (   0.4375000  -0.4375000   0.8125000), wk =   0.0234375
        k(   37) = (   0.3125000  -0.3125000   0.6875000), wk =   0.0234375
        k(   38) = (   0.1875000  -0.1875000   0.5625000), wk =   0.0234375
        k(   39) = (  -0.1875000   0.4375000   0.1875000), wk =   0.0234375
        k(   40) = (  -0.3125000   0.5625000   0.0625000), wk =   0.0468750
        k(   41) = (   0.5625000  -0.3125000   0.9375000), wk =   0.0468750
        k(   42) = (   0.4375000  -0.1875000   0.8125000), wk =   0.0468750
        k(   43) = (   0.3125000  -0.0625000   0.6875000), wk =   0.0468750
        k(   44) = (  -0.1875000   0.6875000   0.1875000), wk =   0.0234375
        k(   45) = (   0.6875000  -0.1875000   1.0625000), wk =   0.0468750
        k(   46) = (   0.5625000  -0.0625000   0.9375000), wk =   0.0468750
        k(   47) = (   0.4375000   0.0625000   0.8125000), wk =   0.0468750
        k(   48) = (  -0.1875000  -1.0625000   0.1875000), wk =   0.0234375
        k(   49) = (  -0.3125000  -0.9375000   0.0625000), wk =   0.0468750
        k(   50) = (  -0.1875000  -0.8125000   0.1875000), wk =   0.0234375
        k(   51) = (  -0.3125000   0.3125000   0.3125000), wk =   0.0078125
        k(   52) = (  -0.4375000   0.4375000   0.1875000), wk =   0.0234375
        k(   53) = (   0.4375000  -0.4375000   1.0625000), wk =   0.0234375
        k(   54) = (   0.3125000  -0.3125000   0.9375000), wk =   0.0234375
        k(   55) = (  -0.3125000   0.5625000   0.3125000), wk =   0.0234375
        k(   56) = (   0.5625000  -0.3125000   1.1875000), wk =   0.0468750
        k(   57) = (   0.4375000  -0.1875000   1.0625000), wk =   0.0468750
        k(   58) = (  -0.3125000  -1.1875000   0.3125000), wk =   0.0234375
        k(   59) = (  -0.4375000   0.4375000   0.4375000), wk =   0.0078125
        k(   60) = (   0.4375000  -0.4375000   1.3125000), wk =   0.0234375

     Dense  grid:    10489 G-vectors     FFT dimensions: (  32,  32,  32)

     Estimated max dynamical RAM per process >      13.78 MB

     Initial potential from superposition of free atoms

     starting charge       6.0000, renormalised to       8.0000
     Starting wfcs are   18 randomized atomic wfcs

     total cpu time spent up to now is        1.4 secs

     Self-consistent Calculation

     iteration #  1     ecut=    40.00 Ry     beta= 0.70
     Davidson diagonalization with overlap
     ethr =  1.00E-02,  avg # of iterations =  1.0

     Threshold (ethr) on eigenvalues was too large:
     Diagonalizing with lowered threshold

     Davidson diagonalization with overlap
     ethr =  9.43E-04,  avg # of iterations =  1.0

     total cpu time spent up to now is        2.4 secs

     total energy              =     -15.98491017 Ry
     estimated scf accuracy    <       0.07597673 Ry

     iteration #  2     ecut=    40.00 Ry     beta= 0.70
     Davidson diagonalization with overlap
     ethr =  9.50E-04,  avg # of iterations =  1.0

     total cpu time spent up to now is        2.9 secs

     total energy              =     -15.98825768 Ry
     estimated scf accuracy    <       0.00342806 Ry

     iteration #  3     ecut=    40.00 Ry     beta= 0.70
     Davidson diagonalization with overlap
     ethr =  4.29E-05,  avg # of iterations =  2.1

     total cpu time spent up to now is        3.4 secs

     total energy              =     -15.98861966 Ry
     estimated scf accuracy    <       0.00010209 Ry

     iteration #  4     ecut=    40.00 Ry     beta= 0.70
     Davidson diagonalization with overlap
     ethr =  1.28E-06,  avg # of iterations =  3.1

     total cpu time spent up to now is        4.2 secs

     total energy              =     -15.98865266 Ry
     estimated scf accuracy    <       0.00000047 Ry

     iteration #  5     ecut=    40.00 Ry     beta= 0.70
     Davidson diagonalization with overlap
     ethr =  5.91E-09,  avg # of iterations =  6.0

     total cpu time spent up to now is        5.2 secs

     total energy              =     -15.98865488 Ry
     estimated scf accuracy    <       0.00000009 Ry

     iteration #  6     ecut=    40.00 Ry     beta= 0.70
     Davidson diagonalization with overlap
     ethr =  1.13E-09,  avg # of iterations =  2.3

     total cpu time spent up to now is        5.8 secs

     total energy              =     -15.98865487 Ry
     estimated scf accuracy    <       0.00000008 Ry

     iteration #  7     ecut=    40.00 Ry     beta= 0.70
     Davidson diagonalization with overlap
     ethr =  1.03E-09,  avg # of iterations =  1.6

     total cpu time spent up to now is        6.3 secs

     End of self-consistent calculation

          k =-0.0625 0.0625 0.0625 (  1315 PWs)   bands (ev):

    -7.2719   4.2390   5.3168   5.3168

          k =-0.1875 0.1875-0.0625 (  1311 PWs)   bands (ev):

    -7.0229   2.4953   4.4129   5.1579

          k =-0.3125 0.3125-0.1875 (  1316 PWs)   bands (ev):

    -6.4266   0.2936   3.8141   4.6255

          k =-0.4375 0.4375-0.3125 (  1305 PWs)   bands (ev):

    -5.6189  -1.5092   3.5301   4.1704

          k = 0.4375-0.4375 0.5625 (  1313 PWs)   bands (ev):

    -5.2441  -2.1392   3.5501   3.9414

          k = 0.3125-0.3125 0.4375 (  1309 PWs)   bands (ev):

    -5.8901  -0.9864   3.8507   3.9876

          k = 0.1875-0.1875 0.3125 (  1320 PWs)   bands (ev):

    -6.6594   1.0093   4.3148   4.3776

          k = 0.0625-0.0625 0.1875 (  1311 PWs)   bands (ev):

    -7.1466   3.2604   4.8561   4.9357

          k =-0.0625 0.3125 0.0625 (  1314 PWs)   bands (ev):

    -6.8972   2.1829   4.2574   4.2582

          k =-0.1875 0.4375-0.0625 (  1320 PWs)   bands (ev):

    -6.4111   0.6665   3.1986   3.9869

          k =-0.3125 0.5625-0.1875 (  1304 PWs)   bands (ev):

    -5.6411  -1.0670   2.5682   3.5847

          k = 0.5625-0.3125 0.6875 (  1302 PWs)   bands (ev):

    -4.9875  -2.1501   2.2364   3.4979

          k = 0.4375-0.1875 0.5625 (  1307 PWs)   bands (ev):

    -5.3749  -1.5398   2.2116   3.7789

          k = 0.3125-0.0625 0.4375 (  1315 PWs)   bands (ev):

    -6.1845   0.0585   2.6304   4.2979

          k = 0.1875 0.0625 0.3125 (  1320 PWs)   bands (ev):

    -6.7770   1.5910   3.7944   4.6848

          k =-0.0625 0.5625 0.0625 (  1311 PWs)   bands (ev):

    -6.0352   0.0181   3.0672   3.1998

          k =-0.1875 0.6875-0.0625 (  1306 PWs)   bands (ev):

    -5.3393  -1.1961   2.2785   2.8456

          k = 0.6875-0.1875 0.8125 (  1304 PWs)   bands (ev):

    -4.5396  -2.2960   1.4557   2.8077

          k = 0.5625-0.0625 0.6875 (  1309 PWs)   bands (ev):

    -4.6178  -2.1953   1.1393   3.1505

          k = 0.4375 0.0625 0.5625 (  1308 PWs)   bands (ev):

    -5.4231  -1.2180   1.6854   3.7396

          k = 0.3125 0.1875 0.4375 (  1314 PWs)   bands (ev):

    -6.0841  -0.4075   3.2075   4.1801

          k =-0.0625 0.8125 0.0625 (  1307 PWs)   bands (ev):

    -4.7207  -2.0552   2.3665   2.5645

          k = 0.8125-0.0625 0.9375 (  1305 PWs)   bands (ev):

    -3.8789  -3.0106   1.8515   2.3385

          k = 0.6875 0.0625 0.8125 (  1297 PWs)   bands (ev):

    -4.0220  -2.8147   1.1827   2.6579

          k = 0.5625 0.1875 0.6875 (  1302 PWs)   bands (ev):

    -4.7439  -2.2222   1.5618   3.2660

          k = 0.4375 0.3125 0.5625 (  1312 PWs)   bands (ev):

    -5.3011  -1.9098   2.9557   3.8446

          k =-0.0625-0.9375 0.0625 (  1304 PWs)   bands (ev):

    -3.9134  -3.0182   2.2244   2.4345

          k =-0.1875-0.8125-0.0625 (  1307 PWs)   bands (ev):

    -4.6500  -2.1197   1.9964   2.5071

          k =-0.3125-0.6875-0.1875 (  1308 PWs)   bands (ev):

    -5.1151  -1.6927   1.9500   3.1140

          k =-0.0625-0.6875 0.0625 (  1307 PWs)   bands (ev):

    -5.4312  -1.0373   2.6490   2.8217

          k =-0.1875-0.5625-0.0625 (  1312 PWs)   bands (ev):

    -5.9296  -0.2636   2.6847   3.3480

          k =-0.0625-0.4375 0.0625 (  1317 PWs)   bands (ev):

    -6.5256   1.0959   3.6111   3.6868

          k =-0.1875 0.1875 0.1875 (  1324 PWs)   bands (ev):

    -6.9014   1.8176   4.8113   4.8113

          k =-0.3125 0.3125 0.0625 (  1323 PWs)   bands (ev):

    -6.5381   0.8349   3.1950   4.7968

          k =-0.4375 0.4375-0.0625 (  1316 PWs)   bands (ev):

    -5.8519  -0.5857   2.1030   4.2506

          k = 0.4375-0.4375 0.8125 (  1307 PWs)   bands (ev):

    -5.0604  -1.9380   1.8519   3.6936

          k = 0.3125-0.3125 0.6875 (  1306 PWs)   bands (ev):

    -5.0431  -1.9676   2.1171   3.3722

          k = 0.1875-0.1875 0.5625 (  1304 PWs)   bands (ev):

    -5.8311  -0.5936   2.7636   3.3674

          k =-0.1875 0.4375 0.1875 (  1314 PWs)   bands (ev):

    -6.3007   0.2018   3.5536   3.8109

          k =-0.3125 0.5625 0.0625 (  1308 PWs)   bands (ev):

    -5.7225  -0.7118   2.1629   3.5781

          k = 0.5625-0.3125 0.9375 (  1313 PWs)   bands (ev):

    -4.9139  -1.8312   1.4119   3.0294

          k = 0.4375-0.1875 0.8125 (  1298 PWs)   bands (ev):

    -4.4882  -2.3783   1.3773   2.7307

          k = 0.3125-0.0625 0.6875 (  1304 PWs)   bands (ev):

    -5.1621  -1.4795   1.8190   2.9009

          k =-0.1875 0.6875 0.1875 (  1302 PWs)   bands (ev):

    -5.2606  -1.3893   2.1152   3.0167

          k = 0.6875-0.1875 1.0625 (  1309 PWs)   bands (ev):

    -4.5191  -2.2494   1.6090   2.3811

          k = 0.5625-0.0625 0.9375 (  1302 PWs)   bands (ev):

    -3.7875  -2.9980   1.3423   1.9093

          k = 0.4375 0.0625 0.8125 (  1307 PWs)   bands (ev):

    -4.3492  -2.4314   1.3024   2.3670

          k =-0.1875-1.0625 0.1875 (  1309 PWs)   bands (ev):

    -3.9236  -2.9452   1.4321   2.6533

          k =-0.3125-0.9375 0.0625 (  1306 PWs)   bands (ev):

    -3.8270  -3.0020   1.5225   2.0902

          k =-0.1875-0.8125 0.1875 (  1306 PWs)   bands (ev):

    -4.6063  -2.1891   1.6625   2.7758

          k =-0.3125 0.3125 0.3125 (  1320 PWs)   bands (ev):

    -6.2077  -0.3665   4.3324   4.3324

          k =-0.4375 0.4375 0.1875 (  1310 PWs)   bands (ev):

    -5.7700  -1.0047   2.7055   4.2273

          k = 0.4375-0.4375 1.0625 (  1308 PWs)   bands (ev):

    -5.0469  -1.7208   1.3297   3.6318

          k = 0.3125-0.3125 0.9375 (  1306 PWs)   bands (ev):

    -4.3066  -2.5322   1.0527   3.0692

          k =-0.3125 0.5625 0.3125 (  1305 PWs)   bands (ev):

    -5.4912  -1.5237   2.9681   3.6530

          k = 0.5625-0.3125 1.1875 (  1305 PWs)   bands (ev):

    -4.9288  -1.9993   1.7585   3.1925

          k = 0.4375-0.1875 1.0625 (  1302 PWs)   bands (ev):

    -4.1719  -2.6332   1.1442   2.4928

          k =-0.3125-1.1875 0.3125 (  1305 PWs)   bands (ev):

    -4.6077  -2.3145   1.4383   3.1725

          k =-0.4375 0.4375 0.4375 (  1311 PWs)   bands (ev):

    -5.4280  -1.9169   4.0720   4.0720

          k = 0.4375-0.4375 1.3125 (  1306 PWs)   bands (ev):

    -5.1168  -2.1331   2.6634   3.8049

     highest occupied level (ev):     5.3168

!    total energy              =     -15.98865488 Ry
     estimated scf accuracy    <          4.1E-10 Ry

     The total energy is the sum of the following terms:
     one-electron contribution =       3.62347522 Ry
     hartree contribution      =       1.16863457 Ry
     xc contribution           =      -4.67071441 Ry
     ewald contribution        =     -16.11005026 Ry

     convergence has been achieved in   7 iterations

     Writing all to output data dir ./tmp_e40/Ge.save/

     init_run     :      1.30s CPU      1.34s WALL (       1 calls)
     electrons    :      4.87s CPU      4.91s WALL (       1 calls)

     Called by init_run:
     wfcinit      :      1.08s CPU      1.11s WALL (       1 calls)
     potinit      :      0.01s CPU      0.01s WALL (       1 calls)
     hinit0       :      0.21s CPU      0.21s WALL (       1 calls)

     Called by electrons:
     c_bands      :      4.26s CPU      4.29s WALL (       8 calls)
     sum_band     :      0.58s CPU      0.59s WALL (       8 calls)
     v_of_rho     :      0.02s CPU      0.02s WALL (       8 calls)
     mix_rho      :      0.01s CPU      0.01s WALL (       8 calls)

     Called by c_bands:
     init_us_2    :      0.37s CPU      0.37s WALL (    1020 calls)
     init_us_2:cp :      0.36s CPU      0.37s WALL (    1020 calls)
     cegterg      :      3.67s CPU      3.70s WALL (     480 calls)

     Called by *egterg:
     cdiaghg      :      0.06s CPU      0.07s WALL (    1515 calls)
     h_psi        :      3.98s CPU      4.02s WALL (    1635 calls)
     g_psi        :      0.03s CPU      0.03s WALL (    1095 calls)

     Called by h_psi:
     h_psi:calbec :      0.52s CPU      0.53s WALL (    1635 calls)
     vloc_psi     :      2.94s CPU      2.98s WALL (    1635 calls)
     add_vuspsi   :      0.48s CPU      0.48s WALL (    1635 calls)

     General routines
     calbec       :      0.52s CPU      0.52s WALL (    1635 calls)
     fft          :      0.14s CPU      0.14s WALL (      24 calls)
     ffts         :      0.00s CPU      0.00s WALL (       8 calls)
     fftw         :      2.63s CPU      2.66s WALL (   14642 calls)

     Parallel routines

     PWSCF        :      6.20s CPU      6.29s WALL


   This run was terminated on:  22: 2:16  25Mar2026            

=------------------------------------------------------------------------------=
   JOB DONE.
=------------------------------------------------------------------------------=
Note: The following floating-point exceptions are signalling: IEEE_UNDERFLOW_FLAG
