
     Program PWSCF v.7.2 starts on 25Mar2026 at 22: 2:16 

     This program is part of the open-source Quantum ESPRESSO suite
     for quantum simulation of materials; please cite
         "P. Giannozzi et al., J. Phys.:Condens. Matter 21 395502 (2009);
         "P. Giannozzi et al., J. Phys.:Condens. Matter 29 465901 (2017);
         "P. Giannozzi et al., J. Chem. Phys. 152 154105 (2020);
          URL http://www.quantum-espresso.org", 
     in publications or presentations arising from this work. More details at
     http://www.quantum-espresso.org/quote

     Parallel version (MPI), running on     1 processors

     MPI processes distributed on     1 nodes
     4380 MiB available memory on the printing compute node when the environment starts

     Reading input from scf_e050.in

     Current dimensions of program PWSCF are:
     Max number of different atomic species (ntypx) = 10
     Max number of k-points (npk) =  40000
     Max angular momentum in pseudopotentials (lmaxx) =  4

     Subspace diagonalization in iterative solution of the eigenvalue problem:
     a serial algorithm will be used


     G-vector sticks info
     --------------------
     sticks:   dense  smooth     PW     G-vecs:    dense   smooth      PW
     Sum         793     793    253                14649    14649    2637

     Using Slab Decomposition



     bravais-lattice index     =            2
     lattice parameter (alat)  =      10.7000  a.u.
     unit-cell volume          =     306.2607 (a.u.)^3
     number of atoms/cell      =            2
     number of atomic types    =            1
     number of electrons       =         8.00
     number of Kohn-Sham states=            4
     kinetic-energy cutoff     =      50.0000  Ry
     charge density cutoff     =     200.0000  Ry
     scf convergence threshold =      1.0E-08
     mixing beta               =       0.7000
     number of iterations used =            8  plain     mixing
     Exchange-correlation= SLA-PZ-NOGX-NOGC
                           (   1   1   0   0   0   0   0)

     celldm(1)=  10.700000  celldm(2)=   0.000000  celldm(3)=   0.000000
     celldm(4)=   0.000000  celldm(5)=   0.000000  celldm(6)=   0.000000

     crystal axes: (cart. coord. in units of alat)
               a(1) = (  -0.500000   0.000000   0.500000 )  
               a(2) = (   0.000000   0.500000   0.500000 )  
               a(3) = (  -0.500000   0.500000   0.000000 )  

     reciprocal axes: (cart. coord. in units 2 pi/alat)
               b(1) = ( -1.000000 -1.000000  1.000000 )  
               b(2) = (  1.000000  1.000000  1.000000 )  
               b(3) = ( -1.000000  1.000000 -1.000000 )  


     PseudoPot. # 1 for Ge read from file:
     ../../pseudo/Ge.pz-hgh.UPF
     MD5 check sum: 4f4dbf79373ba026d545ed2bc1c74a27
     Pseudo is Norm-conserving, Zval =  4.0
     Generated in analytical, separable form
     Using radial grid of 1207 points,  6 beta functions with: 
                l(1) =   0
                l(2) =   0
                l(3) =   0
                l(4) =   1
                l(5) =   1
                l(6) =   2

     atomic species   valence    mass     pseudopotential
        Ge             4.00    72.63000     Ge( 1.00)

     48 Sym. Ops., with inversion, found (24 have fractional translation)



   Cartesian axes

     site n.     atom                  positions (alat units)
         1           Ge  tau(   1) = (   0.0000000   0.0000000   0.0000000  )
         2           Ge  tau(   2) = (   0.2500000   0.2500000   0.2500000  )

     number of k points=    60
                       cart. coord. in units 2pi/alat
        k(    1) = (  -0.0625000   0.0625000   0.0625000), wk =   0.0078125
        k(    2) = (  -0.1875000   0.1875000  -0.0625000), wk =   0.0234375
        k(    3) = (  -0.3125000   0.3125000  -0.1875000), wk =   0.0234375
        k(    4) = (  -0.4375000   0.4375000  -0.3125000), wk =   0.0234375
        k(    5) = (   0.4375000  -0.4375000   0.5625000), wk =   0.0234375
        k(    6) = (   0.3125000  -0.3125000   0.4375000), wk =   0.0234375
        k(    7) = (   0.1875000  -0.1875000   0.3125000), wk =   0.0234375
        k(    8) = (   0.0625000  -0.0625000   0.1875000), wk =   0.0234375
        k(    9) = (  -0.0625000   0.3125000   0.0625000), wk =   0.0234375
        k(   10) = (  -0.1875000   0.4375000  -0.0625000), wk =   0.0468750
        k(   11) = (  -0.3125000   0.5625000  -0.1875000), wk =   0.0468750
        k(   12) = (   0.5625000  -0.3125000   0.6875000), wk =   0.0468750
        k(   13) = (   0.4375000  -0.1875000   0.5625000), wk =   0.0468750
        k(   14) = (   0.3125000  -0.0625000   0.4375000), wk =   0.0468750
        k(   15) = (   0.1875000   0.0625000   0.3125000), wk =   0.0468750
        k(   16) = (  -0.0625000   0.5625000   0.0625000), wk =   0.0234375
        k(   17) = (  -0.1875000   0.6875000  -0.0625000), wk =   0.0468750
        k(   18) = (   0.6875000  -0.1875000   0.8125000), wk =   0.0468750
        k(   19) = (   0.5625000  -0.0625000   0.6875000), wk =   0.0468750
        k(   20) = (   0.4375000   0.0625000   0.5625000), wk =   0.0468750
        k(   21) = (   0.3125000   0.1875000   0.4375000), wk =   0.0468750
        k(   22) = (  -0.0625000   0.8125000   0.0625000), wk =   0.0234375
        k(   23) = (   0.8125000  -0.0625000   0.9375000), wk =   0.0468750
        k(   24) = (   0.6875000   0.0625000   0.8125000), wk =   0.0468750
        k(   25) = (   0.5625000   0.1875000   0.6875000), wk =   0.0468750
        k(   26) = (   0.4375000   0.3125000   0.5625000), wk =   0.0468750
        k(   27) = (  -0.0625000  -0.9375000   0.0625000), wk =   0.0234375
        k(   28) = (  -0.1875000  -0.8125000  -0.0625000), wk =   0.0468750
        k(   29) = (  -0.3125000  -0.6875000  -0.1875000), wk =   0.0468750
        k(   30) = (  -0.0625000  -0.6875000   0.0625000), wk =   0.0234375
        k(   31) = (  -0.1875000  -0.5625000  -0.0625000), wk =   0.0468750
        k(   32) = (  -0.0625000  -0.4375000   0.0625000), wk =   0.0234375
        k(   33) = (  -0.1875000   0.1875000   0.1875000), wk =   0.0078125
        k(   34) = (  -0.3125000   0.3125000   0.0625000), wk =   0.0234375
        k(   35) = (  -0.4375000   0.4375000  -0.0625000), wk =   0.0234375
        k(   36) = (   0.4375000  -0.4375000   0.8125000), wk =   0.0234375
        k(   37) = (   0.3125000  -0.3125000   0.6875000), wk =   0.0234375
        k(   38) = (   0.1875000  -0.1875000   0.5625000), wk =   0.0234375
        k(   39) = (  -0.1875000   0.4375000   0.1875000), wk =   0.0234375
        k(   40) = (  -0.3125000   0.5625000   0.0625000), wk =   0.0468750
        k(   41) = (   0.5625000  -0.3125000   0.9375000), wk =   0.0468750
        k(   42) = (   0.4375000  -0.1875000   0.8125000), wk =   0.0468750
        k(   43) = (   0.3125000  -0.0625000   0.6875000), wk =   0.0468750
        k(   44) = (  -0.1875000   0.6875000   0.1875000), wk =   0.0234375
        k(   45) = (   0.6875000  -0.1875000   1.0625000), wk =   0.0468750
        k(   46) = (   0.5625000  -0.0625000   0.9375000), wk =   0.0468750
        k(   47) = (   0.4375000   0.0625000   0.8125000), wk =   0.0468750
        k(   48) = (  -0.1875000  -1.0625000   0.1875000), wk =   0.0234375
        k(   49) = (  -0.3125000  -0.9375000   0.0625000), wk =   0.0468750
        k(   50) = (  -0.1875000  -0.8125000   0.1875000), wk =   0.0234375
        k(   51) = (  -0.3125000   0.3125000   0.3125000), wk =   0.0078125
        k(   52) = (  -0.4375000   0.4375000   0.1875000), wk =   0.0234375
        k(   53) = (   0.4375000  -0.4375000   1.0625000), wk =   0.0234375
        k(   54) = (   0.3125000  -0.3125000   0.9375000), wk =   0.0234375
        k(   55) = (  -0.3125000   0.5625000   0.3125000), wk =   0.0234375
        k(   56) = (   0.5625000  -0.3125000   1.1875000), wk =   0.0468750
        k(   57) = (   0.4375000  -0.1875000   1.0625000), wk =   0.0468750
        k(   58) = (  -0.3125000  -1.1875000   0.3125000), wk =   0.0234375
        k(   59) = (  -0.4375000   0.4375000   0.4375000), wk =   0.0078125
        k(   60) = (   0.4375000  -0.4375000   1.3125000), wk =   0.0234375

     Dense  grid:    14649 G-vectors     FFT dimensions: (  36,  36,  36)

     Estimated max dynamical RAM per process >      19.03 MB

     Initial potential from superposition of free atoms

     starting charge       6.0000, renormalised to       8.0000
     Starting wfcs are   18 randomized atomic wfcs

     total cpu time spent up to now is        1.9 secs

     Self-consistent Calculation

     iteration #  1     ecut=    50.00 Ry     beta= 0.70
     Davidson diagonalization with overlap
     ethr =  1.00E-02,  avg # of iterations =  1.0

     Threshold (ethr) on eigenvalues was too large:
     Diagonalizing with lowered threshold

     Davidson diagonalization with overlap
     ethr =  9.41E-04,  avg # of iterations =  1.0

     total cpu time spent up to now is        3.6 secs

     total energy              =     -15.98599912 Ry
     estimated scf accuracy    <       0.07580680 Ry

     iteration #  2     ecut=    50.00 Ry     beta= 0.70
     Davidson diagonalization with overlap
     ethr =  9.48E-04,  avg # of iterations =  1.0

     total cpu time spent up to now is        4.3 secs

     total energy              =     -15.98932711 Ry
     estimated scf accuracy    <       0.00342769 Ry

     iteration #  3     ecut=    50.00 Ry     beta= 0.70
     Davidson diagonalization with overlap
     ethr =  4.28E-05,  avg # of iterations =  2.1

     total cpu time spent up to now is        5.2 secs

     total energy              =     -15.98968474 Ry
     estimated scf accuracy    <       0.00010207 Ry

     iteration #  4     ecut=    50.00 Ry     beta= 0.70
     Davidson diagonalization with overlap
     ethr =  1.28E-06,  avg # of iterations =  3.1

     total cpu time spent up to now is        6.4 secs

     total energy              =     -15.98971846 Ry
     estimated scf accuracy    <       0.00000043 Ry

     iteration #  5     ecut=    50.00 Ry     beta= 0.70
     Davidson diagonalization with overlap
     ethr =  5.32E-09,  avg # of iterations =  6.2

     total cpu time spent up to now is        8.1 secs

     total energy              =     -15.98972058 Ry
     estimated scf accuracy    <       0.00000009 Ry

     iteration #  6     ecut=    50.00 Ry     beta= 0.70
     Davidson diagonalization with overlap
     ethr =  1.14E-09,  avg # of iterations =  2.3

     total cpu time spent up to now is        9.0 secs

     total energy              =     -15.98972057 Ry
     estimated scf accuracy    <       0.00000010 Ry

     iteration #  7     ecut=    50.00 Ry     beta= 0.70
     Davidson diagonalization with overlap
     ethr =  1.14E-09,  avg # of iterations =  1.6

     total cpu time spent up to now is        9.8 secs

     End of self-consistent calculation

          k =-0.0625 0.0625 0.0625 (  1835 PWs)   bands (ev):

    -7.2748   4.2361   5.3169   5.3169

          k =-0.1875 0.1875-0.0625 (  1848 PWs)   bands (ev):

    -7.0258   2.4926   4.4128   5.1580

          k =-0.3125 0.3125-0.1875 (  1844 PWs)   bands (ev):

    -6.4294   0.2912   3.8138   4.6256

          k =-0.4375 0.4375-0.3125 (  1841 PWs)   bands (ev):

    -5.6219  -1.5115   3.5297   4.1704

          k = 0.4375-0.4375 0.5625 (  1833 PWs)   bands (ev):

    -5.2471  -2.1413   3.5496   3.9414

          k = 0.3125-0.3125 0.4375 (  1847 PWs)   bands (ev):

    -5.8930  -0.9887   3.8502   3.9876

          k = 0.1875-0.1875 0.3125 (  1838 PWs)   bands (ev):

    -6.6621   1.0070   4.3148   4.3773

          k = 0.0625-0.0625 0.1875 (  1844 PWs)   bands (ev):

    -7.1495   3.2575   4.8561   4.9356

          k =-0.0625 0.3125 0.0625 (  1832 PWs)   bands (ev):

    -6.9000   2.1800   4.2572   4.2583

          k =-0.1875 0.4375-0.0625 (  1835 PWs)   bands (ev):

    -6.4138   0.6637   3.1984   3.9868

          k =-0.3125 0.5625-0.1875 (  1832 PWs)   bands (ev):

    -5.6441  -1.0696   2.5677   3.5847

          k = 0.5625-0.3125 0.6875 (  1825 PWs)   bands (ev):

    -4.9906  -2.1526   2.2357   3.4979

          k = 0.4375-0.1875 0.5625 (  1825 PWs)   bands (ev):

    -5.3778  -1.5423   2.2111   3.7789

          k = 0.3125-0.0625 0.4375 (  1841 PWs)   bands (ev):

    -6.1873   0.0557   2.6302   4.2978

          k = 0.1875 0.0625 0.3125 (  1837 PWs)   bands (ev):

    -6.7797   1.5884   3.7943   4.6847

          k =-0.0625 0.5625 0.0625 (  1835 PWs)   bands (ev):

    -6.0381   0.0150   3.0671   3.1998

          k =-0.1875 0.6875-0.0625 (  1820 PWs)   bands (ev):

    -5.3423  -1.1990   2.2784   2.8456

          k = 0.6875-0.1875 0.8125 (  1823 PWs)   bands (ev):

    -4.5427  -2.2989   1.4555   2.8077

          k = 0.5625-0.0625 0.6875 (  1824 PWs)   bands (ev):

    -4.6209  -2.1982   1.1392   3.1505

          k = 0.4375 0.0625 0.5625 (  1829 PWs)   bands (ev):

    -5.4260  -1.2208   1.6852   3.7396

          k = 0.3125 0.1875 0.4375 (  1843 PWs)   bands (ev):

    -6.0869  -0.4100   3.2071   4.1800

          k =-0.0625 0.8125 0.0625 (  1812 PWs)   bands (ev):

    -4.7236  -2.0582   2.3665   2.5645

          k = 0.8125-0.0625 0.9375 (  1816 PWs)   bands (ev):

    -3.8820  -3.0136   1.8514   2.3384

          k = 0.6875 0.0625 0.8125 (  1823 PWs)   bands (ev):

    -4.0252  -2.8178   1.1827   2.6579

          k = 0.5625 0.1875 0.6875 (  1825 PWs)   bands (ev):

    -4.7470  -2.2249   1.5614   3.2660

          k = 0.4375 0.3125 0.5625 (  1830 PWs)   bands (ev):

    -5.3041  -1.9120   2.9551   3.8446

          k =-0.0625-0.9375 0.0625 (  1808 PWs)   bands (ev):

    -3.9164  -3.0212   2.2244   2.4346

          k =-0.1875-0.8125-0.0625 (  1817 PWs)   bands (ev):

    -4.6530  -2.1227   1.9963   2.5071

          k =-0.3125-0.6875-0.1875 (  1823 PWs)   bands (ev):

    -5.1181  -1.6954   1.9496   3.1140

          k =-0.0625-0.6875 0.0625 (  1825 PWs)   bands (ev):

    -5.4342  -1.0404   2.6490   2.8217

          k =-0.1875-0.5625-0.0625 (  1835 PWs)   bands (ev):

    -5.9325  -0.2666   2.6846   3.3480

          k =-0.0625-0.4375 0.0625 (  1834 PWs)   bands (ev):

    -6.5284   1.0929   3.6110   3.6868

          k =-0.1875 0.1875 0.1875 (  1841 PWs)   bands (ev):

    -6.9041   1.8153   4.8114   4.8114

          k =-0.3125 0.3125 0.0625 (  1844 PWs)   bands (ev):

    -6.5409   0.8323   3.1948   4.7969

          k =-0.4375 0.4375-0.0625 (  1835 PWs)   bands (ev):

    -5.8547  -0.5883   2.1028   4.2507

          k = 0.4375-0.4375 0.8125 (  1818 PWs)   bands (ev):

    -5.0634  -1.9405   1.8514   3.6936

          k = 0.3125-0.3125 0.6875 (  1819 PWs)   bands (ev):

    -5.0461  -1.9701   2.1166   3.3722

          k = 0.1875-0.1875 0.5625 (  1835 PWs)   bands (ev):

    -5.8341  -0.5964   2.7632   3.3674

          k =-0.1875 0.4375 0.1875 (  1840 PWs)   bands (ev):

    -6.3035   0.1992   3.5530   3.8109

          k =-0.3125 0.5625 0.0625 (  1834 PWs)   bands (ev):

    -5.7254  -0.7148   2.1627   3.5780

          k = 0.5625-0.3125 0.9375 (  1828 PWs)   bands (ev):

    -4.9169  -1.8340   1.4117   3.0294

          k = 0.4375-0.1875 0.8125 (  1823 PWs)   bands (ev):

    -4.4914  -2.3812   1.3771   2.7307

          k = 0.3125-0.0625 0.6875 (  1830 PWs)   bands (ev):

    -5.1651  -1.4824   1.8188   2.9009

          k =-0.1875 0.6875 0.1875 (  1827 PWs)   bands (ev):

    -5.2636  -1.3922   2.1150   3.0167

          k = 0.6875-0.1875 1.0625 (  1826 PWs)   bands (ev):

    -4.5221  -2.2524   1.6089   2.3811

          k = 0.5625-0.0625 0.9375 (  1821 PWs)   bands (ev):

    -3.7907  -3.0011   1.3422   1.9092

          k = 0.4375 0.0625 0.8125 (  1822 PWs)   bands (ev):

    -4.3523  -2.4344   1.3023   2.3670

          k =-0.1875-1.0625 0.1875 (  1825 PWs)   bands (ev):

    -3.9267  -2.9481   1.4320   2.6533

          k =-0.3125-0.9375 0.0625 (  1819 PWs)   bands (ev):

    -3.8301  -3.0051   1.5224   2.0902

          k =-0.1875-0.8125 0.1875 (  1821 PWs)   bands (ev):

    -4.6094  -2.1920   1.6624   2.7758

          k =-0.3125 0.3125 0.3125 (  1853 PWs)   bands (ev):

    -6.2105  -0.3687   4.3325   4.3325

          k =-0.4375 0.4375 0.1875 (  1835 PWs)   bands (ev):

    -5.7728  -1.0072   2.7050   4.2273

          k = 0.4375-0.4375 1.0625 (  1823 PWs)   bands (ev):

    -5.0499  -1.7237   1.3295   3.6318

          k = 0.3125-0.3125 0.9375 (  1825 PWs)   bands (ev):

    -4.3097  -2.5351   1.0526   3.0692

          k =-0.3125 0.5625 0.3125 (  1828 PWs)   bands (ev):

    -5.4942  -1.5260   2.9674   3.6530

          k = 0.5625-0.3125 1.1875 (  1823 PWs)   bands (ev):

    -4.9318  -2.0020   1.7581   3.1925

          k = 0.4375-0.1875 1.0625 (  1825 PWs)   bands (ev):

    -4.1751  -2.6363   1.1441   2.4928

          k =-0.3125-1.1875 0.3125 (  1825 PWs)   bands (ev):

    -4.6108  -2.3173   1.4380   3.1725

          k =-0.4375 0.4375 0.4375 (  1838 PWs)   bands (ev):

    -5.4309  -1.9190   4.0721   4.0721

          k = 0.4375-0.4375 1.3125 (  1828 PWs)   bands (ev):

    -5.1198  -2.1354   2.6628   3.8049

     highest occupied level (ev):     5.3169

!    total energy              =     -15.98972058 Ry
     estimated scf accuracy    <          4.9E-10 Ry

     The total energy is the sum of the following terms:
     one-electron contribution =       3.62232046 Ry
     hartree contribution      =       1.16885679 Ry
     xc contribution           =      -4.67084757 Ry
     ewald contribution        =     -16.11005026 Ry

     convergence has been achieved in   7 iterations

     Writing all to output data dir ./tmp_e50/Ge.save/

     init_run     :      1.83s CPU      1.85s WALL (       1 calls)
     electrons    :      7.88s CPU      7.92s WALL (       1 calls)

     Called by init_run:
     wfcinit      :      1.53s CPU      1.54s WALL (       1 calls)
     potinit      :      0.01s CPU      0.01s WALL (       1 calls)
     hinit0       :      0.27s CPU      0.28s WALL (       1 calls)

     Called by electrons:
     c_bands      :      6.80s CPU      6.85s WALL (       8 calls)
     sum_band     :      1.03s CPU      1.03s WALL (       8 calls)
     v_of_rho     :      0.02s CPU      0.02s WALL (       8 calls)
     mix_rho      :      0.02s CPU      0.02s WALL (       8 calls)

     Called by c_bands:
     init_us_2    :      0.51s CPU      0.51s WALL (    1020 calls)
     init_us_2:cp :      0.51s CPU      0.51s WALL (    1020 calls)
     cegterg      :      6.02s CPU      6.05s WALL (     480 calls)

     Called by *egterg:
     cdiaghg      :      0.07s CPU      0.07s WALL (    1522 calls)
     h_psi        :      6.55s CPU      6.59s WALL (    1642 calls)
     g_psi        :      0.03s CPU      0.04s WALL (    1102 calls)

     Called by h_psi:
     h_psi:calbec :      0.72s CPU      0.72s WALL (    1642 calls)
     vloc_psi     :      5.12s CPU      5.16s WALL (    1642 calls)
     add_vuspsi   :      0.66s CPU      0.67s WALL (    1642 calls)

     General routines
     calbec       :      0.71s CPU      0.72s WALL (    1642 calls)
     fft          :      0.21s CPU      0.21s WALL (      24 calls)
     ffts         :      0.00s CPU      0.00s WALL (       8 calls)
     fftw         :      4.81s CPU      4.83s WALL (   14694 calls)

     Parallel routines

     PWSCF        :      9.76s CPU      9.83s WALL


   This run was terminated on:  22: 2:26  25Mar2026            

=------------------------------------------------------------------------------=
   JOB DONE.
=------------------------------------------------------------------------------=
Note: The following floating-point exceptions are signalling: IEEE_UNDERFLOW_FLAG
