
     Program PWSCF v.7.2 starts on 25Mar2026 at 22: 2: 4 

     This program is part of the open-source Quantum ESPRESSO suite
     for quantum simulation of materials; please cite
         "P. Giannozzi et al., J. Phys.:Condens. Matter 21 395502 (2009);
         "P. Giannozzi et al., J. Phys.:Condens. Matter 29 465901 (2017);
         "P. Giannozzi et al., J. Chem. Phys. 152 154105 (2020);
          URL http://www.quantum-espresso.org", 
     in publications or presentations arising from this work. More details at
     http://www.quantum-espresso.org/quote

     Parallel version (MPI), running on     1 processors

     MPI processes distributed on     1 nodes
     4375 MiB available memory on the printing compute node when the environment starts

     Reading input from scf_e030.in

     Current dimensions of program PWSCF are:
     Max number of different atomic species (ntypx) = 10
     Max number of k-points (npk) =  40000
     Max angular momentum in pseudopotentials (lmaxx) =  4

     Subspace diagonalization in iterative solution of the eigenvalue problem:
     a serial algorithm will be used


     G-vector sticks info
     --------------------
     sticks:   dense  smooth     PW     G-vecs:    dense   smooth      PW
     Sum         475     475    163                 6855     6855    1363

     Using Slab Decomposition



     bravais-lattice index     =            2
     lattice parameter (alat)  =      10.7000  a.u.
     unit-cell volume          =     306.2607 (a.u.)^3
     number of atoms/cell      =            2
     number of atomic types    =            1
     number of electrons       =         8.00
     number of Kohn-Sham states=            4
     kinetic-energy cutoff     =      30.0000  Ry
     charge density cutoff     =     120.0000  Ry
     scf convergence threshold =      1.0E-08
     mixing beta               =       0.7000
     number of iterations used =            8  plain     mixing
     Exchange-correlation= SLA-PZ-NOGX-NOGC
                           (   1   1   0   0   0   0   0)

     celldm(1)=  10.700000  celldm(2)=   0.000000  celldm(3)=   0.000000
     celldm(4)=   0.000000  celldm(5)=   0.000000  celldm(6)=   0.000000

     crystal axes: (cart. coord. in units of alat)
               a(1) = (  -0.500000   0.000000   0.500000 )  
               a(2) = (   0.000000   0.500000   0.500000 )  
               a(3) = (  -0.500000   0.500000   0.000000 )  

     reciprocal axes: (cart. coord. in units 2 pi/alat)
               b(1) = ( -1.000000 -1.000000  1.000000 )  
               b(2) = (  1.000000  1.000000  1.000000 )  
               b(3) = ( -1.000000  1.000000 -1.000000 )  


     PseudoPot. # 1 for Ge read from file:
     ../../pseudo/Ge.pz-hgh.UPF
     MD5 check sum: 4f4dbf79373ba026d545ed2bc1c74a27
     Pseudo is Norm-conserving, Zval =  4.0
     Generated in analytical, separable form
     Using radial grid of 1207 points,  6 beta functions with: 
                l(1) =   0
                l(2) =   0
                l(3) =   0
                l(4) =   1
                l(5) =   1
                l(6) =   2

     atomic species   valence    mass     pseudopotential
        Ge             4.00    72.63000     Ge( 1.00)

     48 Sym. Ops., with inversion, found (24 have fractional translation)



   Cartesian axes

     site n.     atom                  positions (alat units)
         1           Ge  tau(   1) = (   0.0000000   0.0000000   0.0000000  )
         2           Ge  tau(   2) = (   0.2500000   0.2500000   0.2500000  )

     number of k points=    60
                       cart. coord. in units 2pi/alat
        k(    1) = (  -0.0625000   0.0625000   0.0625000), wk =   0.0078125
        k(    2) = (  -0.1875000   0.1875000  -0.0625000), wk =   0.0234375
        k(    3) = (  -0.3125000   0.3125000  -0.1875000), wk =   0.0234375
        k(    4) = (  -0.4375000   0.4375000  -0.3125000), wk =   0.0234375
        k(    5) = (   0.4375000  -0.4375000   0.5625000), wk =   0.0234375
        k(    6) = (   0.3125000  -0.3125000   0.4375000), wk =   0.0234375
        k(    7) = (   0.1875000  -0.1875000   0.3125000), wk =   0.0234375
        k(    8) = (   0.0625000  -0.0625000   0.1875000), wk =   0.0234375
        k(    9) = (  -0.0625000   0.3125000   0.0625000), wk =   0.0234375
        k(   10) = (  -0.1875000   0.4375000  -0.0625000), wk =   0.0468750
        k(   11) = (  -0.3125000   0.5625000  -0.1875000), wk =   0.0468750
        k(   12) = (   0.5625000  -0.3125000   0.6875000), wk =   0.0468750
        k(   13) = (   0.4375000  -0.1875000   0.5625000), wk =   0.0468750
        k(   14) = (   0.3125000  -0.0625000   0.4375000), wk =   0.0468750
        k(   15) = (   0.1875000   0.0625000   0.3125000), wk =   0.0468750
        k(   16) = (  -0.0625000   0.5625000   0.0625000), wk =   0.0234375
        k(   17) = (  -0.1875000   0.6875000  -0.0625000), wk =   0.0468750
        k(   18) = (   0.6875000  -0.1875000   0.8125000), wk =   0.0468750
        k(   19) = (   0.5625000  -0.0625000   0.6875000), wk =   0.0468750
        k(   20) = (   0.4375000   0.0625000   0.5625000), wk =   0.0468750
        k(   21) = (   0.3125000   0.1875000   0.4375000), wk =   0.0468750
        k(   22) = (  -0.0625000   0.8125000   0.0625000), wk =   0.0234375
        k(   23) = (   0.8125000  -0.0625000   0.9375000), wk =   0.0468750
        k(   24) = (   0.6875000   0.0625000   0.8125000), wk =   0.0468750
        k(   25) = (   0.5625000   0.1875000   0.6875000), wk =   0.0468750
        k(   26) = (   0.4375000   0.3125000   0.5625000), wk =   0.0468750
        k(   27) = (  -0.0625000  -0.9375000   0.0625000), wk =   0.0234375
        k(   28) = (  -0.1875000  -0.8125000  -0.0625000), wk =   0.0468750
        k(   29) = (  -0.3125000  -0.6875000  -0.1875000), wk =   0.0468750
        k(   30) = (  -0.0625000  -0.6875000   0.0625000), wk =   0.0234375
        k(   31) = (  -0.1875000  -0.5625000  -0.0625000), wk =   0.0468750
        k(   32) = (  -0.0625000  -0.4375000   0.0625000), wk =   0.0234375
        k(   33) = (  -0.1875000   0.1875000   0.1875000), wk =   0.0078125
        k(   34) = (  -0.3125000   0.3125000   0.0625000), wk =   0.0234375
        k(   35) = (  -0.4375000   0.4375000  -0.0625000), wk =   0.0234375
        k(   36) = (   0.4375000  -0.4375000   0.8125000), wk =   0.0234375
        k(   37) = (   0.3125000  -0.3125000   0.6875000), wk =   0.0234375
        k(   38) = (   0.1875000  -0.1875000   0.5625000), wk =   0.0234375
        k(   39) = (  -0.1875000   0.4375000   0.1875000), wk =   0.0234375
        k(   40) = (  -0.3125000   0.5625000   0.0625000), wk =   0.0468750
        k(   41) = (   0.5625000  -0.3125000   0.9375000), wk =   0.0468750
        k(   42) = (   0.4375000  -0.1875000   0.8125000), wk =   0.0468750
        k(   43) = (   0.3125000  -0.0625000   0.6875000), wk =   0.0468750
        k(   44) = (  -0.1875000   0.6875000   0.1875000), wk =   0.0234375
        k(   45) = (   0.6875000  -0.1875000   1.0625000), wk =   0.0468750
        k(   46) = (   0.5625000  -0.0625000   0.9375000), wk =   0.0468750
        k(   47) = (   0.4375000   0.0625000   0.8125000), wk =   0.0468750
        k(   48) = (  -0.1875000  -1.0625000   0.1875000), wk =   0.0234375
        k(   49) = (  -0.3125000  -0.9375000   0.0625000), wk =   0.0468750
        k(   50) = (  -0.1875000  -0.8125000   0.1875000), wk =   0.0234375
        k(   51) = (  -0.3125000   0.3125000   0.3125000), wk =   0.0078125
        k(   52) = (  -0.4375000   0.4375000   0.1875000), wk =   0.0234375
        k(   53) = (   0.4375000  -0.4375000   1.0625000), wk =   0.0234375
        k(   54) = (   0.3125000  -0.3125000   0.9375000), wk =   0.0234375
        k(   55) = (  -0.3125000   0.5625000   0.3125000), wk =   0.0234375
        k(   56) = (   0.5625000  -0.3125000   1.1875000), wk =   0.0468750
        k(   57) = (   0.4375000  -0.1875000   1.0625000), wk =   0.0468750
        k(   58) = (  -0.3125000  -1.1875000   0.3125000), wk =   0.0234375
        k(   59) = (  -0.4375000   0.4375000   0.4375000), wk =   0.0078125
        k(   60) = (   0.4375000  -0.4375000   1.3125000), wk =   0.0234375

     Dense  grid:     6855 G-vectors     FFT dimensions: (  32,  32,  32)

     Estimated max dynamical RAM per process >       9.98 MB

     Initial potential from superposition of free atoms

     starting charge       6.0000, renormalised to       8.0000
     Starting wfcs are   18 randomized atomic wfcs

     total cpu time spent up to now is        1.0 secs

     Self-consistent Calculation

     iteration #  1     ecut=    30.00 Ry     beta= 0.70
     Davidson diagonalization with overlap
     ethr =  1.00E-02,  avg # of iterations =  1.0

     Threshold (ethr) on eigenvalues was too large:
     Diagonalizing with lowered threshold

     Davidson diagonalization with overlap
     ethr =  9.48E-04,  avg # of iterations =  1.0

     total cpu time spent up to now is        1.7 secs

     total energy              =     -15.98242528 Ry
     estimated scf accuracy    <       0.07626090 Ry

     iteration #  2     ecut=    30.00 Ry     beta= 0.70
     Davidson diagonalization with overlap
     ethr =  9.53E-04,  avg # of iterations =  1.0

     total cpu time spent up to now is        2.1 secs

     total energy              =     -15.98579571 Ry
     estimated scf accuracy    <       0.00343076 Ry

     iteration #  3     ecut=    30.00 Ry     beta= 0.70
     Davidson diagonalization with overlap
     ethr =  4.29E-05,  avg # of iterations =  2.1

     total cpu time spent up to now is        2.5 secs

     total energy              =     -15.98615778 Ry
     estimated scf accuracy    <       0.00010293 Ry

     iteration #  4     ecut=    30.00 Ry     beta= 0.70
     Davidson diagonalization with overlap
     ethr =  1.29E-06,  avg # of iterations =  3.0

     total cpu time spent up to now is        3.1 secs

     total energy              =     -15.98619054 Ry
     estimated scf accuracy    <       0.00000042 Ry

     iteration #  5     ecut=    30.00 Ry     beta= 0.70
     Davidson diagonalization with overlap
     ethr =  5.30E-09,  avg # of iterations =  6.2

     total cpu time spent up to now is        3.8 secs

     total energy              =     -15.98619274 Ry
     estimated scf accuracy    <       0.00000011 Ry

     iteration #  6     ecut=    30.00 Ry     beta= 0.70
     Davidson diagonalization with overlap
     ethr =  1.37E-09,  avg # of iterations =  2.2

     total cpu time spent up to now is        4.3 secs

     total energy              =     -15.98619273 Ry
     estimated scf accuracy    <       0.00000013 Ry

     iteration #  7     ecut=    30.00 Ry     beta= 0.70
     Davidson diagonalization with overlap
     ethr =  1.37E-09,  avg # of iterations =  1.8

     total cpu time spent up to now is        4.7 secs

     End of self-consistent calculation

          k =-0.0625 0.0625 0.0625 (   872 PWs)   bands (ev):

    -7.2670   4.2428   5.3183   5.3183

          k =-0.1875 0.1875-0.0625 (   867 PWs)   bands (ev):

    -7.0182   2.4996   4.4146   5.1595

          k =-0.3125 0.3125-0.1875 (   852 PWs)   bands (ev):

    -6.4215   0.2979   3.8162   4.6277

          k =-0.4375 0.4375-0.3125 (   850 PWs)   bands (ev):

    -5.6138  -1.5052   3.5324   4.1724

          k = 0.4375-0.4375 0.5625 (   853 PWs)   bands (ev):

    -5.2387  -2.1352   3.5525   3.9434

          k = 0.3125-0.3125 0.4375 (   846 PWs)   bands (ev):

    -5.8849  -0.9823   3.8532   3.9897

          k = 0.1875-0.1875 0.3125 (   861 PWs)   bands (ev):

    -6.6544   1.0136   4.3165   4.3799

          k = 0.0625-0.0625 0.1875 (   874 PWs)   bands (ev):

    -7.1419   3.2644   4.8576   4.9374

          k =-0.0625 0.3125 0.0625 (   864 PWs)   bands (ev):

    -6.8924   2.1879   4.2592   4.2600

          k =-0.1875 0.4375-0.0625 (   851 PWs)   bands (ev):

    -6.4060   0.6714   3.2005   3.9889

          k =-0.3125 0.5625-0.1875 (   852 PWs)   bands (ev):

    -5.6362  -1.0627   2.5704   3.5867

          k = 0.5625-0.3125 0.6875 (   842 PWs)   bands (ev):

    -4.9822  -2.1459   2.2388   3.4999

          k = 0.4375-0.1875 0.5625 (   848 PWs)   bands (ev):

    -5.3698  -1.5354   2.2138   3.7809

          k = 0.3125-0.0625 0.4375 (   851 PWs)   bands (ev):

    -6.1794   0.0629   2.6323   4.2999

          k = 0.1875 0.0625 0.3125 (   858 PWs)   bands (ev):

    -6.7720   1.5958   3.7962   4.6868

          k =-0.0625 0.5625 0.0625 (   848 PWs)   bands (ev):

    -6.0302   0.0231   3.0691   3.2017

          k =-0.1875 0.6875-0.0625 (   847 PWs)   bands (ev):

    -5.3342  -1.1913   2.2804   2.8474

          k = 0.6875-0.1875 0.8125 (   844 PWs)   bands (ev):

    -4.5345  -2.2913   1.4576   2.8097

          k = 0.5625-0.0625 0.6875 (   846 PWs)   bands (ev):

    -4.6127  -2.1906   1.1412   3.1525

          k = 0.4375 0.0625 0.5625 (   849 PWs)   bands (ev):

    -5.4180  -1.2134   1.6873   3.7416

          k = 0.3125 0.1875 0.4375 (   856 PWs)   bands (ev):

    -6.0790  -0.4035   3.2096   4.1821

          k =-0.0625 0.8125 0.0625 (   842 PWs)   bands (ev):

    -4.7155  -2.0502   2.3685   2.5665

          k = 0.8125-0.0625 0.9375 (   844 PWs)   bands (ev):

    -3.8739  -3.0056   1.8533   2.3404

          k = 0.6875 0.0625 0.8125 (   844 PWs)   bands (ev):

    -4.0170  -2.8100   1.1846   2.6599

          k = 0.5625 0.1875 0.6875 (   849 PWs)   bands (ev):

    -4.7388  -2.2179   1.5638   3.2680

          k = 0.4375 0.3125 0.5625 (   849 PWs)   bands (ev):

    -5.2958  -1.9057   2.9581   3.8466

          k =-0.0625-0.9375 0.0625 (   835 PWs)   bands (ev):

    -3.9084  -3.0131   2.2265   2.4367

          k =-0.1875-0.8125-0.0625 (   848 PWs)   bands (ev):

    -4.6449  -2.1148   1.9982   2.5090

          k =-0.3125-0.6875-0.1875 (   848 PWs)   bands (ev):

    -5.1100  -1.6881   1.9520   3.1159

          k =-0.0625-0.6875 0.0625 (   849 PWs)   bands (ev):

    -5.4262  -1.0325   2.6508   2.8235

          k =-0.1875-0.5625-0.0625 (   849 PWs)   bands (ev):

    -5.9245  -0.2589   2.6867   3.3498

          k =-0.0625-0.4375 0.0625 (   853 PWs)   bands (ev):

    -6.5206   1.1009   3.6130   3.6885

          k =-0.1875 0.1875 0.1875 (   872 PWs)   bands (ev):

    -6.8965   1.8218   4.8130   4.8130

          k =-0.3125 0.3125 0.0625 (   853 PWs)   bands (ev):

    -6.5330   0.8394   3.1969   4.7987

          k =-0.4375 0.4375-0.0625 (   850 PWs)   bands (ev):

    -5.8468  -0.5811   2.1049   4.2527

          k = 0.4375-0.4375 0.8125 (   843 PWs)   bands (ev):

    -5.0551  -1.9336   1.8541   3.6957

          k = 0.3125-0.3125 0.6875 (   846 PWs)   bands (ev):

    -5.0379  -1.9632   2.1194   3.3742

          k = 0.1875-0.1875 0.5625 (   847 PWs)   bands (ev):

    -5.8261  -0.5892   2.7657   3.3692

          k =-0.1875 0.4375 0.1875 (   855 PWs)   bands (ev):

    -6.2957   0.2062   3.5559   3.8127

          k =-0.3125 0.5625 0.0625 (   849 PWs)   bands (ev):

    -5.7174  -0.7073   2.1648   3.5800

          k = 0.5625-0.3125 0.9375 (   847 PWs)   bands (ev):

    -4.9088  -1.8264   1.4138   3.0313

          k = 0.4375-0.1875 0.8125 (   847 PWs)   bands (ev):

    -4.4831  -2.3738   1.3793   2.7325

          k = 0.3125-0.0625 0.6875 (   851 PWs)   bands (ev):

    -5.1570  -1.4748   1.8208   2.9027

          k =-0.1875 0.6875 0.1875 (   850 PWs)   bands (ev):

    -5.2556  -1.3846   2.1170   3.0186

          k = 0.6875-0.1875 1.0625 (   847 PWs)   bands (ev):

    -4.5140  -2.2444   1.6109   2.3829

          k = 0.5625-0.0625 0.9375 (   858 PWs)   bands (ev):

    -3.7827  -2.9933   1.3439   1.9109

          k = 0.4375 0.0625 0.8125 (   850 PWs)   bands (ev):

    -4.3442  -2.4267   1.3043   2.3687

          k =-0.1875-1.0625 0.1875 (   849 PWs)   bands (ev):

    -3.9186  -2.9402   1.4338   2.6554

          k =-0.3125-0.9375 0.0625 (   850 PWs)   bands (ev):

    -3.8221  -2.9972   1.5242   2.0921

          k =-0.1875-0.8125 0.1875 (   846 PWs)   bands (ev):

    -4.6012  -2.1842   1.6643   2.7776

          k =-0.3125 0.3125 0.3125 (   854 PWs)   bands (ev):

    -6.2026  -0.3623   4.3345   4.3345

          k =-0.4375 0.4375 0.1875 (   853 PWs)   bands (ev):

    -5.7648  -1.0007   2.7076   4.2294

          k = 0.4375-0.4375 1.0625 (   852 PWs)   bands (ev):

    -5.0418  -1.7164   1.3315   3.6337

          k = 0.3125-0.3125 0.9375 (   846 PWs)   bands (ev):

    -4.3015  -2.5275   1.0545   3.0713

          k =-0.3125 0.5625 0.3125 (   847 PWs)   bands (ev):

    -5.4861  -1.5195   2.9704   3.6551

          k = 0.5625-0.3125 1.1875 (   849 PWs)   bands (ev):

    -4.9236  -1.9949   1.7606   3.1944

          k = 0.4375-0.1875 1.0625 (   848 PWs)   bands (ev):

    -4.1669  -2.6286   1.1460   2.4946

          k =-0.3125-1.1875 0.3125 (   845 PWs)   bands (ev):

    -4.6024  -2.3100   1.4402   3.1745

          k =-0.4375 0.4375 0.4375 (   853 PWs)   bands (ev):

    -5.4227  -1.9131   4.0742   4.0742

          k = 0.4375-0.4375 1.3125 (   844 PWs)   bands (ev):

    -5.1114  -2.1291   2.6659   3.8070

     highest occupied level (ev):     5.3183

!    total energy              =     -15.98619274 Ry
     estimated scf accuracy    <          6.1E-10 Ry

     The total energy is the sum of the following terms:
     one-electron contribution =       3.62610717 Ry
     hartree contribution      =       1.16801590 Ry
     xc contribution           =      -4.67026554 Ry
     ewald contribution        =     -16.11005026 Ry

     convergence has been achieved in   7 iterations

     Writing all to output data dir ./tmp_e30/Ge.save/

     init_run     :      0.99s CPU      0.99s WALL (       1 calls)
     electrons    :      3.62s CPU      3.70s WALL (       1 calls)

     Called by init_run:
     wfcinit      :      0.77s CPU      0.77s WALL (       1 calls)
     potinit      :      0.00s CPU      0.00s WALL (       1 calls)
     hinit0       :      0.21s CPU      0.21s WALL (       1 calls)

     Called by electrons:
     c_bands      :      3.16s CPU      3.21s WALL (       8 calls)
     sum_band     :      0.44s CPU      0.47s WALL (       8 calls)
     v_of_rho     :      0.01s CPU      0.01s WALL (       8 calls)
     mix_rho      :      0.00s CPU      0.01s WALL (       8 calls)

     Called by c_bands:
     init_us_2    :      0.22s CPU      0.22s WALL (    1020 calls)
     init_us_2:cp :      0.21s CPU      0.22s WALL (    1020 calls)
     cegterg      :      2.81s CPU      2.86s WALL (     480 calls)

     Called by *egterg:
     cdiaghg      :      0.06s CPU      0.06s WALL (    1519 calls)
     h_psi        :      3.11s CPU      3.15s WALL (    1639 calls)
     g_psi        :      0.02s CPU      0.02s WALL (    1099 calls)

     Called by h_psi:
     h_psi:calbec :      0.29s CPU      0.30s WALL (    1639 calls)
     vloc_psi     :      2.51s CPU      2.55s WALL (    1639 calls)
     add_vuspsi   :      0.28s CPU      0.28s WALL (    1639 calls)

     General routines
     calbec       :      0.29s CPU      0.29s WALL (    1639 calls)
     fft          :      0.14s CPU      0.14s WALL (      24 calls)
     ffts         :      0.00s CPU      0.00s WALL (       8 calls)
     fftw         :      2.28s CPU      2.32s WALL (   14712 calls)

     Parallel routines

     PWSCF        :      4.64s CPU      4.73s WALL


   This run was terminated on:  22: 2: 9  25Mar2026            

=------------------------------------------------------------------------------=
   JOB DONE.
=------------------------------------------------------------------------------=
Note: The following floating-point exceptions are signalling: IEEE_UNDERFLOW_FLAG
