
     Program PWSCF v.7.2 starts on 25Mar2026 at 22:51:30 

     This program is part of the open-source Quantum ESPRESSO suite
     for quantum simulation of materials; please cite
         "P. Giannozzi et al., J. Phys.:Condens. Matter 21 395502 (2009);
         "P. Giannozzi et al., J. Phys.:Condens. Matter 29 465901 (2017);
         "P. Giannozzi et al., J. Chem. Phys. 152 154105 (2020);
          URL http://www.quantum-espresso.org", 
     in publications or presentations arising from this work. More details at
     http://www.quantum-espresso.org/quote

     Parallel version (MPI), running on     1 processors

     MPI processes distributed on     1 nodes
     932 MiB available memory on the printing compute node when the environment starts

     Reading input from scf_e080.in

     Current dimensions of program PWSCF are:
     Max number of different atomic species (ntypx) = 10
     Max number of k-points (npk) =  40000
     Max angular momentum in pseudopotentials (lmaxx) =  4

     Subspace diagonalization in iterative solution of the eigenvalue problem:
     a serial algorithm will be used


     G-vector sticks info
     --------------------
     sticks:   dense  smooth     PW     G-vecs:    dense   smooth      PW
     Sum        1261    1261    379                29627    29627    4909

     Using Slab Decomposition



     bravais-lattice index     =            2
     lattice parameter (alat)  =      10.7000  a.u.
     unit-cell volume          =     306.2607 (a.u.)^3
     number of atoms/cell      =            2
     number of atomic types    =            1
     number of electrons       =         8.00
     number of Kohn-Sham states=            4
     kinetic-energy cutoff     =      80.0000  Ry
     charge density cutoff     =     320.0000  Ry
     scf convergence threshold =      1.0E-08
     mixing beta               =       0.7000
     number of iterations used =            8  plain     mixing
     Exchange-correlation= SLA-PZ-NOGX-NOGC
                           (   1   1   0   0   0   0   0)

     celldm(1)=  10.700000  celldm(2)=   0.000000  celldm(3)=   0.000000
     celldm(4)=   0.000000  celldm(5)=   0.000000  celldm(6)=   0.000000

     crystal axes: (cart. coord. in units of alat)
               a(1) = (  -0.500000   0.000000   0.500000 )  
               a(2) = (   0.000000   0.500000   0.500000 )  
               a(3) = (  -0.500000   0.500000   0.000000 )  

     reciprocal axes: (cart. coord. in units 2 pi/alat)
               b(1) = ( -1.000000 -1.000000  1.000000 )  
               b(2) = (  1.000000  1.000000  1.000000 )  
               b(3) = ( -1.000000  1.000000 -1.000000 )  


     PseudoPot. # 1 for Ge read from file:
     ../../pseudo/Ge.pz-hgh.UPF
     MD5 check sum: 4f4dbf79373ba026d545ed2bc1c74a27
     Pseudo is Norm-conserving, Zval =  4.0
     Generated in analytical, separable form
     Using radial grid of 1207 points,  6 beta functions with: 
                l(1) =   0
                l(2) =   0
                l(3) =   0
                l(4) =   1
                l(5) =   1
                l(6) =   2

     atomic species   valence    mass     pseudopotential
        Ge             4.00    72.63000     Ge( 1.00)

     48 Sym. Ops., with inversion, found (24 have fractional translation)



   Cartesian axes

     site n.     atom                  positions (alat units)
         1           Ge  tau(   1) = (   0.0000000   0.0000000   0.0000000  )
         2           Ge  tau(   2) = (   0.2500000   0.2500000   0.2500000  )

     number of k points=    60
                       cart. coord. in units 2pi/alat
        k(    1) = (  -0.0625000   0.0625000   0.0625000), wk =   0.0078125
        k(    2) = (  -0.1875000   0.1875000  -0.0625000), wk =   0.0234375
        k(    3) = (  -0.3125000   0.3125000  -0.1875000), wk =   0.0234375
        k(    4) = (  -0.4375000   0.4375000  -0.3125000), wk =   0.0234375
        k(    5) = (   0.4375000  -0.4375000   0.5625000), wk =   0.0234375
        k(    6) = (   0.3125000  -0.3125000   0.4375000), wk =   0.0234375
        k(    7) = (   0.1875000  -0.1875000   0.3125000), wk =   0.0234375
        k(    8) = (   0.0625000  -0.0625000   0.1875000), wk =   0.0234375
        k(    9) = (  -0.0625000   0.3125000   0.0625000), wk =   0.0234375
        k(   10) = (  -0.1875000   0.4375000  -0.0625000), wk =   0.0468750
        k(   11) = (  -0.3125000   0.5625000  -0.1875000), wk =   0.0468750
        k(   12) = (   0.5625000  -0.3125000   0.6875000), wk =   0.0468750
        k(   13) = (   0.4375000  -0.1875000   0.5625000), wk =   0.0468750
        k(   14) = (   0.3125000  -0.0625000   0.4375000), wk =   0.0468750
        k(   15) = (   0.1875000   0.0625000   0.3125000), wk =   0.0468750
        k(   16) = (  -0.0625000   0.5625000   0.0625000), wk =   0.0234375
        k(   17) = (  -0.1875000   0.6875000  -0.0625000), wk =   0.0468750
        k(   18) = (   0.6875000  -0.1875000   0.8125000), wk =   0.0468750
        k(   19) = (   0.5625000  -0.0625000   0.6875000), wk =   0.0468750
        k(   20) = (   0.4375000   0.0625000   0.5625000), wk =   0.0468750
        k(   21) = (   0.3125000   0.1875000   0.4375000), wk =   0.0468750
        k(   22) = (  -0.0625000   0.8125000   0.0625000), wk =   0.0234375
        k(   23) = (   0.8125000  -0.0625000   0.9375000), wk =   0.0468750
        k(   24) = (   0.6875000   0.0625000   0.8125000), wk =   0.0468750
        k(   25) = (   0.5625000   0.1875000   0.6875000), wk =   0.0468750
        k(   26) = (   0.4375000   0.3125000   0.5625000), wk =   0.0468750
        k(   27) = (  -0.0625000  -0.9375000   0.0625000), wk =   0.0234375
        k(   28) = (  -0.1875000  -0.8125000  -0.0625000), wk =   0.0468750
        k(   29) = (  -0.3125000  -0.6875000  -0.1875000), wk =   0.0468750
        k(   30) = (  -0.0625000  -0.6875000   0.0625000), wk =   0.0234375
        k(   31) = (  -0.1875000  -0.5625000  -0.0625000), wk =   0.0468750
        k(   32) = (  -0.0625000  -0.4375000   0.0625000), wk =   0.0234375
        k(   33) = (  -0.1875000   0.1875000   0.1875000), wk =   0.0078125
        k(   34) = (  -0.3125000   0.3125000   0.0625000), wk =   0.0234375
        k(   35) = (  -0.4375000   0.4375000  -0.0625000), wk =   0.0234375
        k(   36) = (   0.4375000  -0.4375000   0.8125000), wk =   0.0234375
        k(   37) = (   0.3125000  -0.3125000   0.6875000), wk =   0.0234375
        k(   38) = (   0.1875000  -0.1875000   0.5625000), wk =   0.0234375
        k(   39) = (  -0.1875000   0.4375000   0.1875000), wk =   0.0234375
        k(   40) = (  -0.3125000   0.5625000   0.0625000), wk =   0.0468750
        k(   41) = (   0.5625000  -0.3125000   0.9375000), wk =   0.0468750
        k(   42) = (   0.4375000  -0.1875000   0.8125000), wk =   0.0468750
        k(   43) = (   0.3125000  -0.0625000   0.6875000), wk =   0.0468750
        k(   44) = (  -0.1875000   0.6875000   0.1875000), wk =   0.0234375
        k(   45) = (   0.6875000  -0.1875000   1.0625000), wk =   0.0468750
        k(   46) = (   0.5625000  -0.0625000   0.9375000), wk =   0.0468750
        k(   47) = (   0.4375000   0.0625000   0.8125000), wk =   0.0468750
        k(   48) = (  -0.1875000  -1.0625000   0.1875000), wk =   0.0234375
        k(   49) = (  -0.3125000  -0.9375000   0.0625000), wk =   0.0468750
        k(   50) = (  -0.1875000  -0.8125000   0.1875000), wk =   0.0234375
        k(   51) = (  -0.3125000   0.3125000   0.3125000), wk =   0.0078125
        k(   52) = (  -0.4375000   0.4375000   0.1875000), wk =   0.0234375
        k(   53) = (   0.4375000  -0.4375000   1.0625000), wk =   0.0234375
        k(   54) = (   0.3125000  -0.3125000   0.9375000), wk =   0.0234375
        k(   55) = (  -0.3125000   0.5625000   0.3125000), wk =   0.0234375
        k(   56) = (   0.5625000  -0.3125000   1.1875000), wk =   0.0468750
        k(   57) = (   0.4375000  -0.1875000   1.0625000), wk =   0.0468750
        k(   58) = (  -0.3125000  -1.1875000   0.3125000), wk =   0.0234375
        k(   59) = (  -0.4375000   0.4375000   0.4375000), wk =   0.0078125
        k(   60) = (   0.4375000  -0.4375000   1.3125000), wk =   0.0234375

     Dense  grid:    29627 G-vectors     FFT dimensions: (  48,  48,  48)

     Estimated max dynamical RAM per process >      38.75 MB

     Initial potential from superposition of free atoms

     starting charge       6.0000, renormalised to       8.0000
     Starting wfcs are   18 randomized atomic wfcs

     total cpu time spent up to now is        7.3 secs

     Self-consistent Calculation

     iteration #  1     ecut=    80.00 Ry     beta= 0.70
     Davidson diagonalization with overlap
     ethr =  1.00E-02,  avg # of iterations =  1.0

     Threshold (ethr) on eigenvalues was too large:
     Diagonalizing with lowered threshold

     Davidson diagonalization with overlap
     ethr =  9.37E-04,  avg # of iterations =  1.0

     total cpu time spent up to now is       11.8 secs

     total energy              =     -15.98638966 Ry
     estimated scf accuracy    <       0.07568913 Ry

     iteration #  2     ecut=    80.00 Ry     beta= 0.70
     Davidson diagonalization with overlap
     ethr =  9.46E-04,  avg # of iterations =  1.0

     total cpu time spent up to now is       13.8 secs

     total energy              =     -15.98968754 Ry
     estimated scf accuracy    <       0.00343406 Ry

     iteration #  3     ecut=    80.00 Ry     beta= 0.70
     Davidson diagonalization with overlap
     ethr =  4.29E-05,  avg # of iterations =  2.1

     total cpu time spent up to now is       16.5 secs

     total energy              =     -15.99004561 Ry
     estimated scf accuracy    <       0.00010075 Ry

     iteration #  4     ecut=    80.00 Ry     beta= 0.70
     Davidson diagonalization with overlap
     ethr =  1.26E-06,  avg # of iterations =  3.1

     total cpu time spent up to now is       19.7 secs

     total energy              =     -15.99007875 Ry
     estimated scf accuracy    <       0.00000043 Ry

     iteration #  5     ecut=    80.00 Ry     beta= 0.70
     Davidson diagonalization with overlap
     ethr =  5.42E-09,  avg # of iterations =  6.4

     total cpu time spent up to now is       25.3 secs

     total energy              =     -15.99008113 Ry
     estimated scf accuracy    <       0.00000010 Ry

     iteration #  6     ecut=    80.00 Ry     beta= 0.70
     Davidson diagonalization with overlap
     ethr =  1.27E-09,  avg # of iterations =  2.1

     total cpu time spent up to now is       28.8 secs

     total energy              =     -15.99008112 Ry
     estimated scf accuracy    <       0.00000012 Ry

     iteration #  7     ecut=    80.00 Ry     beta= 0.70
     Davidson diagonalization with overlap
     ethr =  1.27E-09,  avg # of iterations =  1.8

     total cpu time spent up to now is       32.3 secs

     End of self-consistent calculation

          k =-0.0625 0.0625 0.0625 (  3707 PWs)   bands (ev):

    -7.2759   4.2353   5.3170   5.3170

          k =-0.1875 0.1875-0.0625 (  3702 PWs)   bands (ev):

    -7.0269   2.4918   4.4128   5.1581

          k =-0.3125 0.3125-0.1875 (  3701 PWs)   bands (ev):

    -6.4305   0.2905   3.8138   4.6257

          k =-0.4375 0.4375-0.3125 (  3707 PWs)   bands (ev):

    -5.6229  -1.5122   3.5296   4.1705

          k = 0.4375-0.4375 0.5625 (  3708 PWs)   bands (ev):

    -5.2482  -2.1420   3.5495   3.9415

          k = 0.3125-0.3125 0.4375 (  3698 PWs)   bands (ev):

    -5.8940  -0.9894   3.8501   3.9877

          k = 0.1875-0.1875 0.3125 (  3699 PWs)   bands (ev):

    -6.6632   1.0063   4.3149   4.3772

          k = 0.0625-0.0625 0.1875 (  3713 PWs)   bands (ev):

    -7.1506   3.2567   4.8562   4.9356

          k =-0.0625 0.3125 0.0625 (  3690 PWs)   bands (ev):

    -6.9011   2.1791   4.2572   4.2584

          k =-0.1875 0.4375-0.0625 (  3696 PWs)   bands (ev):

    -6.4149   0.6628   3.1984   3.9868

          k =-0.3125 0.5625-0.1875 (  3703 PWs)   bands (ev):

    -5.6452  -1.0704   2.5675   3.5848

          k = 0.5625-0.3125 0.6875 (  3699 PWs)   bands (ev):

    -4.9917  -2.1534   2.2356   3.4980

          k = 0.4375-0.1875 0.5625 (  3700 PWs)   bands (ev):

    -5.3789  -1.5432   2.2109   3.7790

          k = 0.3125-0.0625 0.4375 (  3701 PWs)   bands (ev):

    -6.1884   0.0548   2.6301   4.2979

          k = 0.1875 0.0625 0.3125 (  3691 PWs)   bands (ev):

    -6.7808   1.5875   3.7943   4.6847

          k =-0.0625 0.5625 0.0625 (  3684 PWs)   bands (ev):

    -6.0392   0.0140   3.0672   3.1999

          k =-0.1875 0.6875-0.0625 (  3696 PWs)   bands (ev):

    -5.3434  -1.2001   2.2784   2.8456

          k = 0.6875-0.1875 0.8125 (  3701 PWs)   bands (ev):

    -4.5439  -2.3000   1.4554   2.8078

          k = 0.5625-0.0625 0.6875 (  3696 PWs)   bands (ev):

    -4.6220  -2.1992   1.1392   3.1505

          k = 0.4375 0.0625 0.5625 (  3706 PWs)   bands (ev):

    -5.4271  -1.2218   1.6852   3.7397

          k = 0.3125 0.1875 0.4375 (  3699 PWs)   bands (ev):

    -6.0879  -0.4108   3.2070   4.1801

          k =-0.0625 0.8125 0.0625 (  3700 PWs)   bands (ev):

    -4.7248  -2.0593   2.3666   2.5646

          k = 0.8125-0.0625 0.9375 (  3706 PWs)   bands (ev):

    -3.8831  -3.0147   1.8515   2.3385

          k = 0.6875 0.0625 0.8125 (  3708 PWs)   bands (ev):

    -4.0263  -2.8189   1.1827   2.6579

          k = 0.5625 0.1875 0.6875 (  3697 PWs)   bands (ev):

    -4.7482  -2.2258   1.5613   3.2661

          k = 0.4375 0.3125 0.5625 (  3708 PWs)   bands (ev):

    -5.3052  -1.9128   2.9550   3.8447

          k =-0.0625-0.9375 0.0625 (  3706 PWs)   bands (ev):

    -3.9175  -3.0224   2.2244   2.4346

          k =-0.1875-0.8125-0.0625 (  3699 PWs)   bands (ev):

    -4.6541  -2.1238   1.9963   2.5072

          k =-0.3125-0.6875-0.1875 (  3701 PWs)   bands (ev):

    -5.1192  -1.6964   1.9495   3.1140

          k =-0.0625-0.6875 0.0625 (  3697 PWs)   bands (ev):

    -5.4353  -1.0415   2.6490   2.8217

          k =-0.1875-0.5625-0.0625 (  3692 PWs)   bands (ev):

    -5.9335  -0.2676   2.6846   3.3480

          k =-0.0625-0.4375 0.0625 (  3684 PWs)   bands (ev):

    -6.5295   1.0919   3.6111   3.6869

          k =-0.1875 0.1875 0.1875 (  3698 PWs)   bands (ev):

    -6.9052   1.8146   4.8115   4.8115

          k =-0.3125 0.3125 0.0625 (  3707 PWs)   bands (ev):

    -6.5420   0.8315   3.1948   4.7970

          k =-0.4375 0.4375-0.0625 (  3703 PWs)   bands (ev):

    -5.8558  -0.5893   2.1027   4.2508

          k = 0.4375-0.4375 0.8125 (  3697 PWs)   bands (ev):

    -5.0646  -1.9414   1.8513   3.6937

          k = 0.3125-0.3125 0.6875 (  3694 PWs)   bands (ev):

    -5.0473  -1.9710   2.1164   3.3723

          k = 0.1875-0.1875 0.5625 (  3700 PWs)   bands (ev):

    -5.8352  -0.5973   2.7631   3.3675

          k =-0.1875 0.4375 0.1875 (  3699 PWs)   bands (ev):

    -6.3046   0.1984   3.5529   3.8110

          k =-0.3125 0.5625 0.0625 (  3697 PWs)   bands (ev):

    -5.7265  -0.7157   2.1627   3.5781

          k = 0.5625-0.3125 0.9375 (  3701 PWs)   bands (ev):

    -4.9180  -1.8350   1.4117   3.0295

          k = 0.4375-0.1875 0.8125 (  3700 PWs)   bands (ev):

    -4.4925  -2.3822   1.3770   2.7307

          k = 0.3125-0.0625 0.6875 (  3700 PWs)   bands (ev):

    -5.1662  -1.4835   1.8188   2.9009

          k =-0.1875 0.6875 0.1875 (  3695 PWs)   bands (ev):

    -5.2647  -1.3932   2.1149   3.0168

          k = 0.6875-0.1875 1.0625 (  3705 PWs)   bands (ev):

    -4.5232  -2.2535   1.6089   2.3812

          k = 0.5625-0.0625 0.9375 (  3699 PWs)   bands (ev):

    -3.7919  -3.0022   1.3422   1.9093

          k = 0.4375 0.0625 0.8125 (  3707 PWs)   bands (ev):

    -4.3534  -2.4355   1.3023   2.3670

          k =-0.1875-1.0625 0.1875 (  3711 PWs)   bands (ev):

    -3.9278  -2.9492   1.4320   2.6534

          k =-0.3125-0.9375 0.0625 (  3707 PWs)   bands (ev):

    -3.8312  -3.0062   1.5225   2.0902

          k =-0.1875-0.8125 0.1875 (  3697 PWs)   bands (ev):

    -4.6105  -2.1931   1.6624   2.7758

          k =-0.3125 0.3125 0.3125 (  3693 PWs)   bands (ev):

    -6.2115  -0.3694   4.3326   4.3326

          k =-0.4375 0.4375 0.1875 (  3702 PWs)   bands (ev):

    -5.7739  -1.0080   2.7049   4.2274

          k = 0.4375-0.4375 1.0625 (  3705 PWs)   bands (ev):

    -5.0510  -1.7247   1.3294   3.6319

          k = 0.3125-0.3125 0.9375 (  3707 PWs)   bands (ev):

    -4.3109  -2.5362   1.0527   3.0693

          k =-0.3125 0.5625 0.3125 (  3719 PWs)   bands (ev):

    -5.4953  -1.5268   2.9672   3.6531

          k = 0.5625-0.3125 1.1875 (  3691 PWs)   bands (ev):

    -4.9330  -2.0029   1.7580   3.1926

          k = 0.4375-0.1875 1.0625 (  3710 PWs)   bands (ev):

    -4.1762  -2.6373   1.1441   2.4928

          k =-0.3125-1.1875 0.3125 (  3698 PWs)   bands (ev):

    -4.6119  -2.3183   1.4379   3.1726

          k =-0.4375 0.4375 0.4375 (  3723 PWs)   bands (ev):

    -5.4320  -1.9197   4.0722   4.0722

          k = 0.4375-0.4375 1.3125 (  3695 PWs)   bands (ev):

    -5.1210  -2.1362   2.6626   3.8050

     highest occupied level (ev):     5.3170

!    total energy              =     -15.99008113 Ry
     estimated scf accuracy    <          6.6E-10 Ry

     The total energy is the sum of the following terms:
     one-electron contribution =       3.62192402 Ry
     hartree contribution      =       1.16892272 Ry
     xc contribution           =      -4.67087763 Ry
     ewald contribution        =     -16.11005023 Ry

     convergence has been achieved in   7 iterations

     Writing all to output data dir ./tmp_e80/Ge.save/

     init_run     :      5.47s CPU      7.21s WALL (       1 calls)
     electrons    :     25.28s CPU     25.02s WALL (       1 calls)

     Called by init_run:
     wfcinit      :      4.89s CPU      6.54s WALL (       1 calls)
     potinit      :      0.02s CPU      0.02s WALL (       1 calls)
     hinit0       :      0.51s CPU      0.59s WALL (       1 calls)

     Called by electrons:
     c_bands      :     21.86s CPU     21.67s WALL (       8 calls)
     sum_band     :      3.30s CPU      3.22s WALL (       8 calls)
     v_of_rho     :      0.08s CPU      0.08s WALL (       8 calls)
     mix_rho      :      0.03s CPU      0.04s WALL (       8 calls)

     Called by c_bands:
     init_us_2    :      1.38s CPU      1.36s WALL (    1020 calls)
     init_us_2:cp :      1.37s CPU      1.36s WALL (    1020 calls)
     cegterg      :     19.61s CPU     19.44s WALL (     480 calls)

     Called by *egterg:
     cdiaghg      :      0.09s CPU      0.09s WALL (    1531 calls)
     h_psi        :     21.76s CPU     23.16s WALL (    1651 calls)
     g_psi        :      0.10s CPU      0.10s WALL (    1111 calls)

     Called by h_psi:
     h_psi:calbec :      2.07s CPU      2.09s WALL (    1651 calls)
     vloc_psi     :     17.65s CPU     19.01s WALL (    1651 calls)
     add_vuspsi   :      1.94s CPU      1.96s WALL (    1651 calls)

     General routines
     calbec       :      2.06s CPU      2.09s WALL (    1651 calls)
     fft          :      0.34s CPU      0.39s WALL (      24 calls)
     ffts         :      0.02s CPU      0.02s WALL (       8 calls)
     fftw         :     16.51s CPU     17.79s WALL (   14780 calls)

     Parallel routines

     PWSCF        :     30.81s CPU     32.33s WALL


   This run was terminated on:  22:52: 2  25Mar2026            

=------------------------------------------------------------------------------=
   JOB DONE.
=------------------------------------------------------------------------------=
Note: The following floating-point exceptions are signalling: IEEE_UNDERFLOW_FLAG
